ITEM: TIMESTEP
125000
ITEM: NUMBER OF ATOMS
500
ITEM: BOX BOUNDS pp pp ff
0.0000000000000000e+00 1.5370634520482899e-02
0.0000000000000000e+00 1.5370634520482899e-02
0.0000000000000000e+00 1.5370634520482899e-02
ITEM: ATOMS id type x y z vx vy vz omegax omegay omegaz radius mass fx fy fz
1 1 1.534857075834e-02 1.023962759960e-02 1.234360092176e-02 -5.412127541015e-09 -1.492971206433e-09 -3.992028369624e-10 -3.234888440783e-07 -7.137878250817e-06 -4.060464854315e-06 7.500000000000e-04 4.417864669111e-06 1.719398719177e-11 5.356729224340e-12 4.259736743104e-12
2 1 5.266118893357e-03 1.439378988541e-02 6.683107580171e-03 1.915129456219e-09 -2.677020355581e-09 2.134572139199e-10 -2.467941887499e-06 2.229236060533e-06 -5.070789046771e-07 7.500000000000e-04 4.417864669111e-06 -3.375364259147e-12 1.817240836802e-12 -8.574416114418e-13
3 1 1.567203259667e-03 1.315969397817e-02 1.463773424479e-02 4.365035992628e-09 -3.147188325118e-09 2.522213021269e-10 -5.868838621291e-06 2.928016469607e-06 -3.389756534525e-06 7.500000000000e-04 4.417864669111e-06 -6.952482153480e-12 4.949336160856e-12 -1.195293558948e-12
4 1 9.994579681166e-03 1.134720835715e-03 9.449225768192e-03 9.850052371117e-10 -4.227101033055e-09 -1.014673863430e-09 -1.187128870995e-06 -2.607436068887e-06 5.393040891597e-08 7.500000000000e-04 4.417864669111e-06 -2.287986567091e-12 5.745054668343e-12 1.102486912256e-12
5 1 9.284809255462e-03 1.764659861515e-03 1.499746083541e-03 6.755141782946e-10 -7.984507467571e-10 1.287566289325e-10 1.118895040269e-06 -2.929463390563e-07 -4.696778639083e-07 7.500000000000e-04 4.417864669111e-06 -2.098720339993e-13 -5.891999717927e-14 -6.172001545887e-13
6 1 1.210227229313e-02 9.009196627788e-03 1.466091113756e-02 5.815507228788e-09 -4.546251461162e-09 1.617136554208e-09 -1.629947675284e-06 -5.091721241838e-06 -6.757017108589e-06 7.500000000000e-04 4.417864669111e-06 -9.201809634810e-12 6.099316154998e-12 -4.036873155293e-12
7 1 1.113382127281e-03 1.840474840515e-03 1.465297007176e-02 -2.981083806877e-10 -9.722448219432e-10 -3.560723977074e-12 8.173099304848e-07 3.002281596842e-07 2.274664766608e-07 7.500000000000e-04 4.417864669111e-06 7.466951671676e-13 6.518548104489e-13 -7.953360612934e-13
8 1 1.186901416801e-02 1.746445001508e-03 6.447358092235e-03 1.304906898282e-09 -3.970241968765e-09 -7.818594947453e-10 -3.431914403921e-06 -1.047007669765e-06 1.521170808469e-06 7.500000000000e-04 4.417864669111e-06 -2.848551484123e-12 2.706784684603e-12 4.276184048226e-13
9 1 1.073214378762e-02 2.582230270542e-03 6.987571540955e-03 2.437041919693e-09 -3.812664065141e-09 1.592436838130e-09 -2.309309140083e-07 -5.175642522413e-06 -4.478158337872e-07 7.500000000000e-04 4.417864669111e-06 -3.842835995777e-12 4.989811400502e-12 -6.721338724004e-13
10 1 6.710239866455e-03 9.027434923585e-03 1.467240544691e-02 3.847872793537e-08 2.474611972710e-08 -9.263770050830e-09 2.885292491895e-05 -5.116374573225e-05 -6.778634728720e-05 7.500000000000e-04 4.417864669111e-06 -5.177995862503e-11 -4.832624139572e-11 1.598979524265e-11
11 1 6.080265800499e-03 7.389836285619e-03 6.875520885993e-03 2.472864842624e-10 -3.618870058315e-09 -1.376953551693e-09 1.955196050947e-07 -1.809664638858e-06 4.065638598213e-06 7.500000000000e-04 4.417864669111e-06 1.368937897060e-12 3.981041631229e-12 1.867625815885e-12
12 1 1.180541690985e-02 1.441215188773e-02 7.089160717324e-03 2.226241831332e-09 -4.203678978788e-09 -1.218271439804e-09 2.269448295618e-06 -2.154632124340e-06 -9.328587008299e-07 7.500000000000e-04 4.417864669111e-06 -3.269499713760e-12 4.248939468600e-12 6.566690213859e-13
13 1 2.407532119452e-03 1.423082958990e-02 6.354986577911e-03 2.058773597964e-09 -2.618475284912e-09 -1.149649036930e-09 -5.016984775169e-06 -3.459363498636e-07 1.874138234972e-07 7.500000000000e-04 4.417864669111e-06 -4.761244130431e-12 2.815444001930e-12 1.100012810553e-12
14 1 9.877722175435e-03 3.705469594849e-03 7.361065491405e-03 2.520137148633e-09 -3.318124667191e-09 -8.563348907244e-10 -7.365446553145e-08 -2.807335186412e-07 -3.078650151470e-07 7.500000000000e-04 4.417864669111e-06 -5.455382784050e-12 2.456433392889e-12 1.071558059932e-11
15 1 1.659843440287e-05 4.381667052932e-03 2.131167125588e-03 1.578508324505e-08 -3.467904248822e-09 2.056083648057e-09 1.188673831623e-05 3.911588296675e-05 4.402864976528e-06 7.500000000000e-04 4.417864669111e-06 -2.347903581926e-11 7.671297642389e-13 -7.306892909398e-12
16 1 5.413652156802e-04 9.284780335070e-03 1.463183223125e-02 5.723001033502e-09 -9.953418484097e-11 -1.042694761350e-09 2.876847181219e-07 -7.620786789563e-06 -5.717410113074e-06 7.500000000000e-04 4.417864669111e-06 -9.638926166148e-12 1.073180437458e-13 7.272821964907e-13
17 1 1.428531566952e-02 6.629911377830e-03 1.336664379144e-02 3.818475771619e-10 -4.784842353737e-10 5.248133882175e-10 4.521927497825e-06 7.846109805002e-07 3.504166437089e-06 7.500000000000e-04 4.417864669111e-06 8.766072465086e-13 1.737164146104e-12 -1.112143760750e-12
18 1 9.489104660027e-03 2.015477427126e-03 4.997246050511e-03 1.200031315786e-09 -2.638910332016e-09 -5.926626252721e-10 7.833432322553e-07 6.997452104702e-07 7.300226069870e-07 7.500000000000e-04 4.417864669111e-06 -3.411776645886e-12 3.953994869467e-12 -3.736442812100e-13
19 1 9.996432693524e-03 6.775157022235e-03 4.025159084059e-03 9.501342070572e-10 -1.522700079149e-09 -1.045663158495e-09 9.331128018579e-07 9.749076393629e-07 6.315728002525e-07 7.500000000000e-04 4.417864669111e-06 1.135859003338e-12 -1.050060812131e-12 1.261016508678e-12
20 1 1.228194641986e-02 9.051694577549e-03 1.141177209783e-02 -2.913270187373e-09 2.673818888754e-10 -3.149435855737e-09 -1.129415903835e-06 1.595842057156e-06 4.538737501523e-06 7.500000000000e-04 4.417864669111e-06 5.393905065453e-12 3.697313152825e-12 5.910968141962e-12
21 1 1.290440047691e-02 1.155063139893e-02 1.305345572711e-02 -1.850927340992e-09 -1.349140535122e-09 -1.809130371375e-09 6.462962393277e-06 -1.453947726638e-05 -4.372930791159e-06 7.500000000000e-04 4.417864669111e-06 3.181204793866e-12 4.991677428071e-12 4.963081192086e-12
22 1 8.281190389847e-04 1.366382335348e-04 1.293311502438e-02 1.817356673410e-09 -4.231223436403e-09 1.704560721596e-09 5.913932639620e-08 -8.603918248128e-08 -7.007139110696e-07 7.500000000000e-04 4.417864669111e-06 -2.498591226392e-12 5.855414958880e-12 -5.833777452928e-12
23 1 4.203958911588e-03 1.297595596176e-02 1.420355249123e-03 1.390008058259e-09 -4.560077547495e-10 -1.462394878599e-10 1.679122678846e-06 -1.087133260944e-06 -5.920681440296e-07 7.500000000000e-04 4.417864669111e-06 -2.449139559531e-12 1.114274099336e-12 -4.166304755827e-13
24 1 9.092084543094e-03 1.762365102286e-03 7.686609658479e-03 6.803837352587e-10 -3.500607437471e-09 -2.463532586822e-10 -6.496146627688e-07 -1.609629118857e-06 2.137048468343e-06 7.500000000000e-04 4.417864669111e-06 -1.271794261110e-12 5.147494149268e-12 6.892884436731e-15
25 1 9.255456635440e-03 6.798898394337e-03 5.384306437578e-03 1.060056439109e-09 -2.232088250174e-09 -1.019564840414e-09 -7.018685241177e-07 -9.439931289167e-07 2.848852116112e-07 7.500000000000e-04 4.417864669111e-06 -6.651435363183e-13 1.895874088063e-12 1.076159489452e-12
26 1 1.255514459160e-02 1.399753449487e-02 4.823615877017e-03 2.835493532315e-09 -2.079422996272e-09 -8.553666143910e-10 -2.010939790629e-06 5.729466555832e-07 1.465329682750e-06 7.500000000000e-04 4.417864669111e-06 -4.628994370122e-12 1.348334360338e-12 1.219704410528e-12
27 1 1.192444982706e-02 1.343554709979e-02 1.106097012644e-02 5.226578257719e-09 -3.289449703750e-09 -1.831052564105e-09 2.571447246357e-07 2.479332050338e-06 3.544720156891e-06 7.500000000000e-04 4.417864669111e-06 -1.463671895727e-11 4.336843343567e-12 1.667836217939e-12
28 1 1.264536331981e-02 1.358790462854e-02 6.187655191680e-03 3.205951512667e-09 -4.290445134454e-09 -1.825799835879e-09 5.456691378019e-06 2.834342236225e-07 -1.454431219925e-06 7.500000000000e-04 4.417864669111e-06 -5.595522912073e-12 3.972590639132e-12 2.964626910447e-12
29 1 1.141455547260e-02 2.913157173312e-03 8.239844514467e-03 2.434175725351e-09 -1.848646195806e-09 6.289233062807e-10 -2.002124897787e-06 6.014518724524e-06 1.330803679658e-06 7.500000000000e-04 4.417864669111e-06 -4.829010585019e-12 8.929573128126e-13 -5.559426862897e-12
30 1 1.065283247936e-02 1.564359400793e-03 8.184746908248e-03 1.781756537083e-09 -3.722897138772e-09 -4.733907037989e-10 -1.264203928022e-07 -4.275014910917e-08 3.816235290047e-06 7.500000000000e-04 4.417864669111e-06 -2.692062006673e-12 5.468751116722e-12 -6.503382258776e-13
31 1 2.040050603686e-03 9.230409022485e-03 1.460045422812e-02 5.961372408283e-08 -3.217206770117e-08 -6.437264842842e-09 -4.039422537992e+03 5.606379423633e+02 -2.318284651013e+03 7.500000000000e-04 4.417864669111e-06 -5.059593288746e-11 2.730537892639e-11 5.463500298635e-12
32 1 4.625604831685e-04 3.010165453990e-03 8.207844736062e-03 9.208860866741e-10 -4.928345273181e-09 1.842384703784e-09 -1.262322202112e-06 -2.210208775389e-06 -1.480586257080e-06 7.500000000000e-04 4.417864669111e-06 -7.598184316993e-12 8.341644896881e-12 -4.508786544826e-12
33 1 8.645116619201e-04 5.906884770148e-03 1.292248077532e-02 1.014754703510e-09 -2.340791261125e-09 5.246279222200e-10 -3.866661858098e-06 5.642852420516e-07 -1.616413465521e-06 7.500000000000e-04 4.417864669111e-06 -6.566876736473e-12 5.519889599768e-12 -7.418323592995e-12
34 1 1.940598075288e-03 5.989215125193e-03 1.461757602620e-02 7.468525119322e-243 -1.194034042632e-243 -4.622072998966e-243 2.455319892204e+02 2.192269403080e+02 -1.146668925288e+03 7.500000000000e-04 4.417864669111e-06 -7.485468754574e-244 1.196742914461e-244 4.632558967447e-244
35 1 1.103668944242e-02 3.881394911744e-03 9.376400798094e-03 2.042252010558e-09 -1.660451024977e-09 -2.084263625059e-09 2.696345042190e-07 -1.577018970677e-06 -1.463458837806e-06 7.500000000000e-04 4.417864669111e-06 -4.162219303826e-12 1.247955010244e-12 3.085510715895e-12
36 1 5.048786083607e-04 7.035565689606e-03 6.243866806347e-03 5.125220447458e-07 1.540116762979e-07 1.513075502275e-07 1.683018831946e-03 9.692800265587e-04 -6.608711279062e-03 7.500000000000e-04 4.417864669111e-06 -1.156343590769e-09 -3.434242751794e-10 -3.366176636104e-10
37 1 1.787702970017e-03 1.149083853341e-02 2.429816566495e-03 -4.438994717293e-09 7.527670293740e-09 3.865549177031e-09 1.242566544108e-05 8.536417693608e-06 -3.678989336834e-06 7.500000000000e-04 4.417864669111e-06 1.814013765842e-11 -9.325819224868e-12 -1.275996736119e-11
38 1 6.942560849262e-03 3.850389612777e-03 9.177250238498e-03 -3.889326544829e-235 -1.312383888835e-235 2.130703088148e-235 1.495493103011e+02 3.119958465301e+02 -4.849975044311e+01 7.500000000000e-04 4.417864669111e-06 3.898150151806e-236 1.315361257669e-236 -2.135536954993e-236
39 1 1.349823212319e-02 1.092933708416e-02 8.123179791094e-03 2.965497400817e-09 -2.242667958341e-09 -4.438471932359e-09 -1.213522660256e-06 3.578889621415e-07 2.076042280112e-07 7.500000000000e-04 4.417864669111e-06 -7.022051200467e-12 2.617603003916e-12 8.910458560751e-12
40 1 7.007555958219e-03 4.914649346967e-03 8.055171350986e-03 2.315907902307e-09 -2.355812931418e-09 -1.993038216112e-09 1.828000596454e-07 8.400750984761e-07 -5.426217321827e-06 7.500000000000e-04 4.417864669111e-06 -2.323225989449e-12 4.262151221384e-12 4.623913076588e-12
41 1 1.246632416374e-02 5.099516776234e-03 3.709782826613e-03 2.961037701207e-09 2.746120005979e-09 -4.693988143281e-09 3.130929156673e-05 -2.277836058009e-06 2.806624922400e-06 7.500000000000e-04 4.417864669111e-06 3.922795742745e-13 -1.114435985371e-11 8.067895227133e-12
42 1 9.764564453109e-03 8.828841523355e-03 7.792396172912e-03 1.153113660477e-09 -2.575296076390e-09 -7.891230104859e-10 -3.289873536733e-06 3.365854635180e-06 -5.420734436166e-08 7.500000000000e-04 4.417864669111e-06 -2.521002202223e-12 2.375486944124e-12 9.336814891126e-13
43 1 1.165528634239e-02 4.654080822462e-04 5.742277779351e-03 1.939713690515e-09 -3.319186737772e-09 -5.649478702228e-10 3.211444786107e-06 -1.754768198045e-06 -2.323243254444e-06 7.500000000000e-04 4.417864669111e-06 -5.068535796119e-12 4.202868019603e-12 -4.333234983417e-13
44 1 6.683145431521e-03 1.448205170757e-03 6.332280977652e-04 -4.760883335944e-10 1.117881978573e-10 -1.479535867454e-10 -1.514001125582e-07 -5.991843763364e-07 -1.093709297964e-06 7.500000000000e-04 4.417864669111e-06 1.772903439321e-12 3.040248912911e-12 -5.816218415942e-12
45 1 3.754170676562e-03 4.609734742156e-03 8.614069026161e-03 9.019036390058e-10 -2.214834878012e-09 3.061067313616e-10 5.668984669820e-08 -9.315277148273e-07 3.891104602706e-06 7.500000000000e-04 4.417864669111e-06 -1.121443787854e-12 2.762064976287e-12 6.349451094422e-12
46 1 1.410984949085e-02 6.405583196915e-03 9.612346951078e-03 2.280599415680e-11 -3.633419078043e-09 7.761588240920e-10 6.658377147207e-06 -1.300677549475e-05 -5.369332140710e-06 7.500000000000e-04 4.417864669111e-06 -1.365501142161e-12 6.525447165525e-12 -2.318188748996e-12
47 1 1.037110408661e-03 4.079954182342e-03 6.757428139549e-03 1.502215404966e-09 -6.428913782758e-09 3.394372055327e-09 -4.051071356914e-06 -4.173724551603e-07 2.009788332352e-06 7.500000000000e-04 4.417864669111e-06 -1.415482706079e-12 4.717815662213e-12 -4.216517313343e-12
48 1 6.203220360812e-03 1.251220293141e-02 7.380915305648e-03 2.282783721256e-10 -2.587496602365e-09 -6.273395827001e-10 -5.988708766842e-07 9.202508021401e-08 -4.193382761408e-06 7.500000000000e-04 4.417864669111e-06 -2.189862238329e-12 1.416951092880e-12 3.010258186809e-13
49 1 2.277163704528e-03 1.188341758242e-02 6.683839808150e-03 -1.025831709560e-09 -6.746400236885e-09 -5.500410803527e-09 9.971128630067e-06 8.419427485682e-06 -1.907655623978e-07 7.500000000000e-04 4.417864669111e-06 -4.126540381792e-12 7.440666955892e-12 8.049808548721e-12
50 1 6.001848581185e-03 2.400462857352e-03 1.427791085094e-03 2.108064488213e-10 4.290572467732e-10 1.379075897937e-10 1.123570243262e-06 1.787526130058e-07 -1.514130735685e-06 7.500000000000e-04 4.417864669111e-06 4.955643387027e-12 4.804773134293e-12 1.469028981829e-12
51 1 8.365842190235e-03 1.489360941233e-03 1.372952761661e-02 -1.322741008124e-09 3.301203109538e-10 -5.868841761996e-10 2.676951899284e-06 -3.448647846930e-06 1.958149203593e-06 7.500000000000e-04 4.417864669111e-06 2.006182393924e-12 3.295418998375e-12 -2.006743915973e-12
52 1 1.137299857088e-02 1.311246380338e-02 6.603507700317e-03 2.278690499889e-09 -3.295537624693e-09 -2.648410566385e-09 -1.041892654376e-06 -5.340278170713e-07 -8.537195248654e-07 7.500000000000e-04 4.417864669111e-06 -2.227702013206e-12 1.073451258176e-12 3.577372165481e-12
53 1 6.459765524123e-03 2.792546514039e-03 1.459477388293e-02 -9.269265109570e-10 -1.706817003170e-09 5.789682760872e-09 6.173426141688e-06 2.425698533363e-06 1.025608560458e-05 7.500000000000e-04 4.417864669111e-06 1.192449427987e-11 1.142016200114e-12 -7.130685622606e-12
54 1 1.368377202769e-02 7.388080018812e-03 8.253504562809e-03 3.137435701783e-09 -3.875476803237e-09 -6.477939320355e-09 6.853958356452e-06 4.283259838724e-07 -3.045514128271e-06 7.500000000000e-04 4.417864669111e-06 -5.183649220528e-12 5.178803330145e-12 1.530882533558e-11
55 1 1.517038891976e-02 2.360190475073e-03 1.474772768430e-02 -5.689562771437e-11 -1.228644499275e-09 2.716751972402e-10 -1.655658097508e-06 1.094631323753e-07 2.008261489586e-07 7.500000000000e-04 4.417864669111e-06 -1.280737326227e-13 2.340953484618e-12 -5.861103941524e-13
56 1 1.637704565408e-03 1.121794830968e-03 2.559567356643e-03 7.666101868542e-10 3.851171098975e-10 8.826492232974e-10 4.692789854313e-07 -1.430982182709e-06 9.452988836575e-07 7.500000000000e-04 4.417864669111e-06 -4.881537298817e-13 -1.607428299402e-12 -1.277287623713e-12
57 1 1.164195176264e-02 1.011472617767e-02 1.015821449682e-02 5.623643717736e-09 -6.271681594413e-09 2.648700396656e-09 6.446835399754e-06 9.826585026423e-06 6.770569662537e-06 7.500000000000e-04 4.417864669111e-06 -7.225499614882e-12 7.939595014764e-12 -4.728273275364e-12
58 1 1.189758742363e-02 6.135002432575e-03 1.465584794214e-02 1.930935386294e-10 6.453562256926e-11 7.691739085572e-14 -2.037447956877e-07 1.580005152586e-07 7.153703165317e-06 7.500000000000e-04 4.417864669111e-06 -4.637084462151e-13 -1.625467693245e-12 1.278227568493e-13
59 1 2.625723461500e-04 1.483280571762e-03 8.377520583731e-03 1.189691121957e-09 -3.265147692186e-09 -6.080520373501e-10 1.043527758557e-06 9.915623267618e-07 -5.530441466928e-07 7.500000000000e-04 4.417864669111e-06 -6.939725096012e-12 1.058068147107e-11 4.470535443420e-13
60 1 7.341289215893e-03 1.138199633716e-02 8.704516044294e-03 2.250293586222e-09 -5.815719872048e-09 9.406654162055e-10 1.507750917091e-06 1.569236518254e-06 1.090902221492e-06 7.500000000000e-04 4.417864669111e-06 -4.883818983228e-12 8.055331024776e-12 2.029339569189e-12
61 1 1.270708525744e-02 1.058709823011e-02 6.966380294158e-03 -1.100959071254e-10 -3.077960375630e-09 -2.220298178667e-09 -1.552046967933e-06 3.722746365648e-06 -4.026273776836e-06 7.500000000000e-04 4.417864669111e-06 -7.379399985689e-14 5.059274030692e-12 3.472567697330e-12
62 1 4.529865148790e-03 1.529681451244e-02 7.577850448794e-03 9.081728612699e-10 -2.508140313709e-09 -7.845980334746e-10 1.365655443351e-06 -2.685650852427e-06 2.522350900910e-06 7.500000000000e-04 4.417864669111e-06 1.551646950572e-12 2.291658982604e-12 2.101811418201e-12
63 1 2.569337527485e-03 1.324405782371e-02 9.693006476412e-03 6.164902290357e-10 -5.542242205837e-09 -5.749704033437e-09 2.030163023532e-06 -2.690327053693e-06 -2.859295431365e-06 7.500000000000e-04 4.417864669111e-06 1.224512977171e-12 -3.392695470175e-12 6.456710581773e-12
64 1 9.253164647083e-04 9.572988748361e-03 2.332195001835e-03 -1.851817950248e-08 1.296191014747e-09 -2.110983834783e-08 1.420616120233e-05 -3.106428330918e-05 1.890202534163e-05 7.500000000000e-04 4.417864669111e-06 3.537442335440e-11 1.970075072348e-11 -8.626861684290e-12
65 1 2.010725671106e-03 5.531276014056e-03 6.285134520903e-04 -2.785611969198e-09 -8.683221669010e-10 -4.384702052654e-09 1.490849859743e-06 -7.451430232123e-06 -4.146333786286e-06 7.500000000000e-04 4.417864669111e-06 -4.502241577785e-12 3.174187935833e-12 7.931234460332e-12
66 1 1.307542381865e-02 1.398788112442e-02 8.421344681768e-03 4.171011440842e-09 -3.120711688234e-09 -3.352456931374e-09 3.273033059733e-06 5.193726938462e-06 -1.500399438174e-06 7.500000000000e-04 4.417864669111e-06 2.508107218078e-12 8.010983900807e-12 6.136743791225e-12
67 1 9.207263923430e-03 3.932172760829e-05 3.904467830308e-03 1.528362467858e-09 -1.585082846095e-09 -2.720095236041e-10 5.371970067381e-07 4.882730856913e-07 -2.977528700564e-07 7.500000000000e-04 4.417864669111e-06 -1.819701022583e-12 1.910205509875e-12 7.509869957437e-14
68 1 7.677082035957e-03 2.170643642811e-03 1.477894034404e-02 -1.546244914055e-09 -3.325321696637e-10 -3.332126295934e-10 1.250863592690e-06 1.486582879283e-06 -8.421739638222e-06 7.500000000000e-04 4.417864669111e-06 -5.573051639209e-13 2.707506671209e-12 -2.078016867525e-12
69 1 1.011226770433e-02 6.298173648249e-04 1.323798332423e-02 -6.875002023155e-10 -4.183013800241e-09 3.039429034733e-11 -2.042376177950e-08 -4.422593718857e-07 -6.434928244579e-06 7.500000000000e-04 4.417864669111e-06 1.452427708746e-12 4.789369561200e-12 3.986892027866e-13
70 1 8.550486961831e-03 1.205493454005e-03 9.097988997269e-03 6.057084410549e-10 -5.398621406778e-09 -2.386299640307e-09 -1.065456034098e-06 1.885583469614e-06 1.687103841877e-06 7.500000000000e-04 4.417864669111e-06 -9.013075408188e-13 7.579154910344e-12 4.723561959837e-12
71 1 8.016977558680e-03 8.612406173029e-03 1.091094832050e-02 2.017790859651e-10 -3.534460446443e-09 -1.770481143318e-09 2.474398014397e-06 -3.056968566412e-06 2.588893054052e-06 7.500000000000e-04 4.417864669111e-06 8.207101683822e-14 1.877718322389e-12 2.570783244214e-12
72 1 1.403451125207e-02 1.072435859206e-02 1.272155003884e-02 -3.284530229392e-09 -4.619785850235e-10 -1.359603521352e-09 2.289629592546e-06 6.073794559387e-06 1.814746487341e-06 7.500000000000e-04 4.417864669111e-06 6.648445438126e-12 1.894405054675e-12 6.832621890415e-12
73 1 1.387265225527e-02 5.202456476906e-03 1.045779764838e-02 4.173277685591e-10 -6.469251586512e-09 8.766334681222e-10 5.142486266668e-06 -2.974811940408e-06 -3.767907699262e-06 7.500000000000e-04 4.417864669111e-06 -2.539172268586e-12 1.228288102702e-11 -4.888717639433e-12
74 1 7.451627661618e-04 7.962748220320e-03 2.626984253536e-03 -9.861536682067e-07 -3.293522084584e-06 9.025946542714e-07 -4.356050514644e-03 1.307617146222e-03 8.108749222145e-05 7.500000000000e-04 4.417864669111e-06 6.137172132316e-10 2.050735945637e-09 -5.522159840394e-10
75 1 8.038578030015e-03 9.226259799457e-03 3.050219040029e-03 1.817335838717e-09 -6.412500442101e-10 -1.019877346222e-09 5.088500874739e-08 -2.752691431740e-07 -7.164939513789e-07 7.500000000000e-04 4.417864669111e-06 -3.111614068253e-12 8.097983176624e-13 1.896849537895e-12
76 1 7.839846989302e-03 6.611895288933e-03 5.552754743439e-03 1.039370688877e-09 -2.295196949891e-09 -2.727233670030e-09 9.822285198135e-07 -9.246783483688e-07 3.101948936165e-07 7.500000000000e-04 4.417864669111e-06 -2.577542701129e-12 3.143078257382e-12 3.066363878435e-12
77 1 9.883205377473e-03 6.476936858178e-04 7.219528444637e-04 2.679027938962e-10 -1.146600013867e-09 -2.092944516217e-11 8.688162115837e-07 1.710523370240e-07 -3.563040480153e-07 7.500000000000e-04 4.417864669111e-06 -9.823294857890e-13 3.183669934248e-13 -2.063225416972e-13
78 1 6.660765948023e-03 1.016720551013e-03 1.950434112698e-03 -1.666210129526e-10 9.458616588361e-11 -3.962968557739e-10 4.533854559446e-07 1.411364146845e-06 -1.163713366628e-06 7.500000000000e-04 4.417864669111e-06 6.942247123552e-13 -1.954185309879e-12 5.498332356623e-12
79 1 5.050486588655e-03 8.577160910395e-03 1.202611820881e-02 1.763992313700e-11 -1.280592444431e-09 -4.622980685533e-09 -6.955913424354e-06 -3.467477892779e-06 5.754711194932e-06 7.500000000000e-04 4.417864669111e-06 1.412468426937e-11 1.317528647770e-12 4.054495119828e-11
80 1 1.502838402999e-02 3.115999810441e-04 1.090417726399e-02 -3.165736496723e-09 9.138337363683e-10 -1.278211695294e-09 5.216496485216e-06 4.484054991140e-06 -3.450729145677e-06 7.500000000000e-04 4.417864669111e-06 2.393000264133e-12 -2.327327749915e-12 -4.036061316649e-13
81 1 1.351834413603e-02 9.560191549545e-03 8.503751667668e-03 2.647285370979e-09 -1.760518860892e-09 -3.663635911769e-09 -9.056369987855e-08 5.932751234365e-06 -2.123362827588e-06 7.500000000000e-04 4.417864669111e-06 -7.982161975927e-12 4.426866951962e-12 7.868821812277e-12
82 1 1.115732640362e-02 5.387025773059e-03 1.366017424432e-02 1.437094746941e-09 -1.100170356703e-09 -2.741391609614e-10 3.165427354155e-06 1.998890232282e-06 -1.619070331704e-06 7.500000000000e-04 4.417864669111e-06 -2.446181749532e-12 6.586720934940e-13 9.118478752430e-13
83 1 1.088410727078e-02 7.922924629572e-03 8.119835805372e-03 2.878565697190e-10 -3.133293125536e-09 7.905929393301e-10 -1.169235954260e-06 -8.228364282207e-07 -2.625018270275e-06 7.500000000000e-04 4.417864669111e-06 -8.801395637928e-13 3.835125723365e-12 -8.204593698676e-13
84 1 2.040152457056e-03 1.450995468635e-03 5.292201181474e-03 2.120288958663e-09 -2.109643099100e-09 1.474526122254e-09 -2.252543182635e-06 5.090726662831e-07 1.910429415804e-06 7.500000000000e-04 4.417864669111e-06 -3.772891446601e-12 1.448193059270e-12 -2.046950657768e-12
85 1 3.271320144617e-03 1.094095785497e-02 1.251518330092e-02 -1.265272298024e-08 2.132956833741e-10 -6.822042512419e-09 -1.322819291305e-05 -6.018406367349e-06 9.846026485630e-06 7.500000000000e-04 4.417864669111e-06 2.624784770579e-11 2.400827097635e-13 1.317799180415e-11
86 1 6.462626257261e-03 1.576985168670e-03 6.324001551363e-03 1.161175021344e-09 -1.743787495400e-09 -4.904133059293e-10 5.572567768535e-07 -2.284377930519e-06 -4.001255965001e-07 7.500000000000e-04 4.417864669111e-06 -7.088697645833e-13 2.227836172141e-12 1.098836531601e-12
87 1 1.199534414799e-03 1.458614203865e-02 9.421315199794e-03 2.234410175197e-09 3.988510716493e-10 3.751195567687e-10 1.020455272879e-05 2.531488438189e-06 -1.338130246533e-05 7.500000000000e-04 4.417864669111e-06 -2.843863760220e-12 -1.403607900121e-12 -1.646736423928e-12
88 1 2.593582321829e-03 1.256263013030e-04 2.597929209329e-03 1.815523444237e-09 7.880217461654e-11 3.918402966219e-10 4.752398689690e-08 1.209709798353e-06 3.004737204829e-08 7.500000000000e-04 4.417864669111e-06 -1.836623821036e-12 5.711827532408e-14 -1.558602108609e-12
89 1 1.306162058938e-02 6.119552943467e-03 1.127266605534e-02 1.854499424950e-09 -3.061800868031e-09 2.232453003544e-10 -1.246539421588e-06 -3.196468186630e-06 -3.928315396008e-06 7.500000000000e-04 4.417864669111e-06 -4.020206202741e-12 8.084575123341e-12 -4.424250428583e-13
90 1 1.458963112868e-02 1.011006811488e-02 3.809018825463e-03 1.589281156864e-09 -1.023693084268e-08 -6.987760931481e-09 7.537022359610e-07 1.029294544340e-05 -1.765246385980e-05 7.500000000000e-04 4.417864669111e-06 -4.519465202663e-12 1.122832496262e-11 8.336175021544e-12
91 1 2.758622257336e-03 4.536761219800e-03 1.467283594677e-02 -2.258866219285e-11 -6.673569111726e-10 -3.762055102837e-10 -7.817712142966e-07 -5.921621664610e-07 2.261744144507e-06 7.500000000000e-04 4.417864669111e-06 -7.395303967928e-13 -1.038447628740e-12 -2.093200864028e-12
92 1 8.475748531718e-03 7.848107275517e-03 6.038356389775e-03 2.284983169051e-10 -1.988248615853e-09 -1.848226665815e-09 -7.230214265746e-07 -6.133921877635e-07 2.671499965526e-07 7.500000000000e-04 4.417864669111e-06 -1.564124000852e-12 2.786321504159e-12 2.802978090741e-12
93 1 5.147397040437e-03 1.161507914224e-02 6.965483317887e-03 1.045313205621e-09 -4.601963999740e-09 -3.256463586948e-09 4.004797981693e-07 -3.380056400551e-06 6.894867602311e-06 7.500000000000e-04 4.417864669111e-06 -1.234190026690e-12 8.770426992720e-12 6.640607942750e-12
94 1 2.647970950533e-04 1.143884559606e-02 1.300179160015e-02 -3.083357369530e-09 -1.469368261028e-09 -1.709341110576e-09 -4.488057906710e-06 -2.759270769705e-06 -3.771104469518e-06 7.500000000000e-04 4.417864669111e-06 7.833192342000e-12 4.490110006780e-12 5.810846199852e-13
95 1 1.505352782021e-02 6.912280174358e-03 3.040339185962e-03 3.882910874590e-10 -1.931336467141e-08 1.089314489804e-08 4.067984836744e-06 -3.217892436323e-05 -6.575015789457e-06 7.500000000000e-04 4.417864669111e-06 -1.580308702993e-14 2.178271410594e-11 -2.302153209127e-11
96 1 4.574654788539e-03 7.803208902791e-03 6.326371929366e-03 -1.538874532530e-09 -1.322429554030e-09 -3.112711867752e-11 5.622889518752e-06 -2.784641316844e-05 -9.699102462576e-06 7.500000000000e-04 4.417864669111e-06 -3.290984648370e-13 6.267367652328e-12 2.502869560677e-12
97 1 3.750760960017e-03 7.218442624916e-03 1.232982608029e-02 6.089402600890e-10 -4.692587577716e-09 -9.059400064824e-10 -1.729831958389e-06 1.262281017534e-06 -5.408303419533e-06 7.500000000000e-04 4.417864669111e-06 -4.290872069485e-13 8.724438755857e-12 1.734496241648e-12
98 1 8.595995339711e-03 6.095808031588e-03 6.774959448675e-03 2.031896567679e-09 -2.665645880135e-09 -3.066420720933e-09 -2.062750082759e-06 -3.071861838380e-06 8.543659553342e-07 7.500000000000e-04 4.417864669111e-06 -3.296967588943e-12 3.548086529005e-12 4.474618990616e-12
99 1 1.209363203425e-02 1.638470688690e-03 7.890714956366e-03 1.151081080830e-09 -1.784360442722e-09 -8.384178210304e-10 -1.104718261754e-07 1.074979404713e-06 -4.885871639458e-07 7.500000000000e-04 4.417864669111e-06 4.920692561496e-12 -6.883414957380e-13 -2.663390376886e-11
100 1 7.168733902927e-03 6.051238284290e-03 2.613540439548e-03 -1.998079129113e-09 -3.245845306681e-10 1.917002082833e-09 1.667045243912e-06 -3.066858759128e-07 1.393784450965e-06 7.500000000000e-04 4.417864669111e-06 6.639694929360e-12 -1.046727876488e-12 -4.813940403965e-12
101 2 2.477205327137e-04 6.418107217951e-03 1.443082538670e-02 7.692980266169e-10 -1.373855660266e-10 -3.507049603447e-10 3.893986300323e-07 -6.882900350338e-07 1.191176550965e-06 1.000000000000e-03 1.047197551197e-05 -9.130240277281e-13 1.327414548401e-12 1.083441824712e-13
102 2 3.094022242336e-03 2.725845929443e-03 9.494943217379e-03 8.565685407345e-10 -3.016980179642e-09 1.579615925374e-09 -5.970690769231e-08 3.367289428282e-07 -5.415281242325e-07 1.000000000000e-03 1.047197551197e-05 -2.125535169049e-12 1.133754112763e-11 -7.802580855268e-12
103 2 8.706920713640e-04 4.564104397839e-03 1.446439242267e-02 6.926394943204e-10 -7.529745300855e-10 -2.994111195864e-10 -7.333141626368e-07 -6.423030113424e-07 -1.187737189395e-06 1.000000000000e-03 1.047197551197e-05 -3.189573938421e-12 1.262277202077e-12 -8.215100473806e-13
104 2 1.531877955868e-02 1.266248378189e-02 1.444073883510e-02 3.563178824755e-09 -1.523783336271e-09 -3.138689246101e-10 -1.315806189556e-06 -4.233129236731e-06 -4.260088247145e-07 1.000000000000e-03 1.047197551197e-05 -1.235438735268e-11 2.395791328110e-12 -2.751206974761e-12
105 2 1.341395080857e-02 4.449901719140e-03 1.218394200708e-02 8.579145856662e-10 -1.938087193388e-09 -4.951135302846e-10 3.361064017002e-07 -1.060947050548e-06 -1.053300013385e-06 1.000000000000e-03 1.047197551197e-05 -4.161316197276e-12 7.128471823903e-12 4.115265738673e-12
106 2 6.440138506996e-03 2.140437099427e-03 1.192684545677e-02 -3.797688033936e-53 -7.782673660844e-53 1.339100154471e-52 -4.551952431730e+02 -3.508965502609e+02 2.014160017109e+02 1.000000000000e-03 1.047197551197e-05 3.801318025260e-54 7.790112670476e-54 -1.340380123204e-53
107 2 5.545755339058e-03 8.463324484071e-03 8.390914836267e-04 -5.799434098490e-10 -8.586571826757e-10 -2.738751743943e-10 1.198232025681e-06 -3.636520425598e-07 1.533640152687e-06 1.000000000000e-03 1.047197551197e-05 6.758944261129e-12 -8.391158713379e-13 5.268405881432e-13
108 2 4.347843754973e-03 1.035911403697e-02 7.715984748112e-03 -1.528262877669e-10 -4.192358336450e-09 -3.358183362131e-09 1.095027283429e-07 4.103172875950e-06 -7.115249002565e-06 1.000000000000e-03 1.047197551197e-05 3.196837716964e-12 1.139312730658e-11 1.023602288197e-11
109 2 1.206725475557e-02 3.522400512890e-03 3.027923554199e-03 7.279640563980e-09 -2.251637780263e-09 -6.953912105215e-11 4.651047343305e-06 1.509788168456e-05 -3.397438941538e-06 1.000000000000e-03 1.047197551197e-05 -2.868874263994e-11 6.772931577260e-12 -1.852383342853e-12
110 2 7.218004878647e-03 1.153907858136e-02 2.637287889505e-03 1.907928739452e-09 -7.374641863987e-10 -5.973430512693e-10 -2.017045537827e-07 8.452856791429e-07 -1.512630211355e-06 1.000000000000e-03 1.047197551197e-05 -5.924859842773e-12 1.205152957955e-12 4.821627341780e-13
111 2 7.076731402341e-03 1.321768782542e-02 3.643301713359e-03 2.657570573541e-09 -8.555648343472e-10 -1.373926089076e-10 1.122442312112e-07 -1.258502592091e-07 6.042393243826e-07 1.000000000000e-03 1.047197551197e-05 -1.048060695736e-11 3.672049110716e-12 -2.560036520206e-12
112 2 8.870112481843e-04 5.270495216376e-03 5.520414717230e-03 6.021438744944e-09 -6.919775260366e-10 8.982374590317e-09 1.593727815042e-05 -3.501799380819e-06 -5.824675840226e-06 1.000000000000e-03 1.047197551197e-05 -3.132775318831e-11 -3.438652807224e-12 -3.685427119761e-11
113 2 3.856439364550e-04 1.083222858610e-02 9.131269675185e-03 3.367275059732e-09 -3.404098035182e-09 -6.232522514222e-09 3.790514996798e-07 9.649169921910e-07 4.024494371709e-07 1.000000000000e-03 1.047197551197e-05 -1.567113461993e-11 1.301529731472e-11 2.302727760762e-11
114 2 2.375995564475e-03 1.461241884997e-02 1.065700594798e-02 1.564678671126e-09 -6.942034549810e-09 -8.331725318049e-10 -2.404863947048e-06 -2.540865512328e-06 5.719240075716e-06 1.000000000000e-03 1.047197551197e-05 1.438973486016e-12 2.848908707473e-11 -7.322018291090e-12
115 2 1.477066235151e-02 5.879930408878e-03 1.196487531831e-02 5.684281932491e-10 -2.887311099744e-09 2.244333034762e-09 -6.853726695952e-06 -1.253090623730e-07 -1.385557509584e-06 1.000000000000e-03 1.047197551197e-05 -1.044076595204e-12 1.960347949315e-11 -1.378548217063e-11
116 2 1.166526168333e-03 2.489277910213e-04 7.709861419668e-03 8.139717336448e-10 -4.701666555389e-09 1.306019714315e-10 -2.128690282998e-06 -7.266325654892e-07 -5.391538224829e-07 1.000000000000e-03 1.047197551197e-05 -2.277183167531e-11 2.139085989789e-11 -1.338139539072e-11
117 2 3.354513876517e-03 1.138798089006e-03 1.438826756542e-02 -3.124148375317e-10 1.106176858091e-10 1.402281744215e-09 -9.862705315442e-08 -8.035940385159e-07 1.735512309375e-06 1.000000000000e-03 1.047197551197e-05 4.096945893701e-12 -5.530943079519e-12 -5.702511443336e-12
118 2 8.021491876958e-03 1.363174390224e-02 1.157326769755e-02 4.386584705357e-10 2.213441835879e-09 -4.803432333827e-09 -5.082086701089e-06 8.373548094414e-07 4.183160133309e-06 1.000000000000e-03 1.047197551197e-05 -1.774379171777e-12 -1.486566743621e-11 7.946900577327e-12
119 2 1.354670901056e-02 7.491245491134e-03 1.211255773544e-02 3.974908870667e-10 -9.972805016010e-10 -1.574070977372e-10 -2.238390428397e-06 -3.228824473046e-06 9.888147221434e-07 1.000000000000e-03 1.047197551197e-05 -4.298762664955e-12 3.982097436389e-12 6.549308386076e-13
120 2 7.885625621020e-03 1.466371441639e-02 4.494325285337e-03 1.913843135727e-09 -1.518747089282e-09 4.925555991148e-11 -6.126810076954e-08 3.823968349792e-07 2.581483074024e-07 1.000000000000e-03 1.047197551197e-05 -5.692625285334e-12 2.351673565261e-12 -7.200526396742e-13
121 2 3.004754603621e-03 1.264686120814e-02 2.446031634424e-03 1.569699052265e-09 1.414963079939e-09 6.659173185915e-10 -2.003303913781e-06 1.442722469594e-06 -2.442949491452e-06 1.000000000000e-03 1.047197551197e-05 -2.385401737718e-11 2.256858241615e-12 -3.538495388670e-12
122 2 5.510382774990e-03 1.932783210580e-04 1.235060173640e-02 1.019109149125e-09 -2.277939253491e-09 -3.987592853565e-09 -2.270478623535e-06 -1.201768035187e-06 3.306664753951e-06 1.000000000000e-03 1.047197551197e-05 -7.597618734707e-12 9.010059069419e-12 1.410651278123e-11
123 2 6.510606751596e-03 1.510399032827e-02 9.188368625666e-04 5.387663317513e-10 1.941099982203e-10 -7.025394147291e-11 -2.767863412500e-07 4.795925535180e-07 2.660150227116e-06 1.000000000000e-03 1.047197551197e-05 4.850677639649e-13 2.257560771110e-12 6.159987277703e-13
124 2 1.040855250362e-02 6.431154507365e-03 2.408512135339e-03 -2.255380439301e-10 2.529948048390e-10 -1.437227185019e-09 8.277069440551e-07 9.071428710034e-08 1.693284822770e-07 1.000000000000e-03 1.047197551197e-05 1.814784736441e-12 -2.526915969003e-12 3.909623663473e-12
125 2 8.030116173091e-03 1.128658670253e-02 7.129074069108e-03 6.534996925604e-10 -4.020985838282e-09 -1.112422861802e-09 3.949508055556e-07 8.769712278672e-07 -6.767305771744e-07 1.000000000000e-03 1.047197551197e-05 1.689783297086e-12 9.971834857985e-12 -2.474836945719e-12
126 2 1.269063806891e-02 9.310306801248e-03 1.306582901568e-02 1.234664344228e-09 -3.558432895401e-09 -9.406374623923e-10 4.684912246157e-06 4.110612979582e-06 -9.618740041288e-07 1.000000000000e-03 1.047197551197e-05 -6.309846937933e-12 1.334655544964e-11 4.239427627381e-12
127 2 1.364419358145e-02 6.980978322258e-03 1.354588168739e-03 -2.716397888246e-09 3.812458943188e-09 -6.891844175209e-09 -8.610934766684e-06 1.186894917679e-05 2.325291312476e-06 1.000000000000e-03 1.047197551197e-05 1.212291106917e-11 -1.188193261069e-11 1.927459940121e-11
128 2 6.147018637434e-03 1.057204045931e-02 1.447625228986e-02 -1.326909129920e-08 2.085226487347e-09 -5.633693544082e-11 -1.341665263917e-06 3.111886924813e-05 1.099640074617e-04 1.000000000000e-03 1.047197551197e-05 4.857055793457e-11 -9.634330000622e-13 7.707645437265e-13
129 2 3.468259872910e-05 9.927116785211e-03 7.465528038277e-03 4.590530458702e-09 -6.518980902804e-09 -6.205949055737e-09 -3.254054607843e-06 -1.388719131013e-06 -9.621595530509e-07 1.000000000000e-03 1.047197551197e-05 -2.057578884847e-11 9.734737879632e-12 2.876164382549e-11
130 2 8.974951429908e-03 5.401334931956e-05 7.691469392906e-03 2.301132893068e-09 -3.712139190313e-09 -1.283411580927e-10 6.186901688990e-08 1.801808867216e-07 3.564128995425e-07 1.000000000000e-03 1.047197551197e-05 -9.994862290758e-12 1.225444893622e-11 -1.019693471602e-12
131 2 1.122647243807e-03 9.163015117835e-03 3.843247860086e-03 -1.396123917918e-08 -1.380653938993e-08 -2.970402279354e-08 1.072914335555e-05 2.238568848159e-05 6.148658980136e-06 1.000000000000e-03 1.047197551197e-05 3.251982281817e-11 4.964374780424e-11 9.289949341772e-11
132 2 6.825982287033e-03 5.267334102156e-03 4.079291078345e-03 -2.445165703513e-09 -9.382066308517e-10 8.846931723852e-11 -1.089666765106e-06 -2.101427398485e-06 2.532603162101e-06 1.000000000000e-03 1.047197551197e-05 1.190444834685e-11 1.199533043522e-11 -7.107560170729e-12
133 2 8.215636586078e-03 1.492905112801e-02 9.434098961803e-03 1.929943596002e-09 -4.894398204531e-09 -8.104217777302e-10 1.151027077136e-06 -1.037425553437e-06 2.309743524390e-07 1.000000000000e-03 1.047197551197e-05 -1.036792362820e-11 1.770692343351e-11 1.908135380075e-12
134 2 5.969550989574e-03 6.361675077225e-04 1.055703351967e-02 1.456194696648e-09 -3.616742547785e-09 -3.416184054766e-09 -5.696878671465e-07 -5.716853212642e-07 3.050144428443e-06 1.000000000000e-03 1.047197551197e-05 -7.382297613967e-12 1.547758638600e-11 1.233614914831e-11
135 2 4.609978798528e-03 4.677737535472e-03 4.152434316277e-03 8.067696948053e-10 -6.261902217270e-09 2.336109651379e-10 1.203706828036e-06 -1.865500233149e-06 1.020380648447e-05 1.000000000000e-03 1.047197551197e-05 -7.747136543253e-12 2.006335508644e-11 3.370529786657e-12
136 2 1.038610382240e-02 5.036161473783e-03 8.279210992804e-03 1.328551399813e-09 -2.488524967655e-09 -2.214332992735e-09 -1.578244469562e-07 9.952719085988e-07 3.006480124310e-06 1.000000000000e-03 1.047197551197e-05 -7.922230521288e-12 4.016656078435e-12 1.030086554113e-11
137 2 7.676451243332e-03 7.374918176802e-03 7.447940066090e-03 1.333974098784e-09 -3.799564914010e-09 -2.303087077463e-09 3.656755104530e-06 1.728762793674e-06 -3.634059479893e-07 1.000000000000e-03 1.047197551197e-05 -4.269865237376e-12 1.237624194570e-11 7.658906495498e-12
138 2 1.081141432048e-02 1.521963568230e-02 8.162431338993e-03 2.527539601689e-09 -3.520456933194e-09 -1.003971519841e-09 -1.123960420076e-06 1.137594586104e-06 -3.154959548958e-07 1.000000000000e-03 1.047197551197e-05 -1.107953500332e-11 1.127627952204e-11 5.603112002185e-12
139 2 2.144928440797e-03 1.322438102742e-02 8.938429540191e-04 1.988650374197e-09 1.019326376932e-09 6.604981395949e-10 -8.814343994121e-07 1.184675148429e-06 -1.479774054526e-06 1.000000000000e-03 1.047197551197e-05 -7.411753669161e-12 -2.510233064213e-12 -2.543933514812e-12
140 2 1.031149844375e-02 6.534665644696e-03 1.316521380745e-02 2.737978196529e-10 -1.116122128376e-09 1.000290496107e-09 -2.650836684670e-06 -2.925513987173e-07 2.380615892551e-06 1.000000000000e-03 1.047197551197e-05 -3.161564909503e-12 1.077323699729e-13 4.247793810260e-13
141 2 6.227496671063e-04 5.198538678661e-03 3.490113434269e-03 1.016039593893e-08 -1.387472229049e-08 1.317371867579e-08 8.429805196012e-06 -3.590476509534e-05 4.431573922556e-06 1.000000000000e-03 1.047197551197e-05 -3.061504108792e-11 4.325166285895e-11 -5.594038406251e-11
142 2 6.680686752540e-03 4.772907381554e-03 1.442540542316e-02 -1.439498407694e-09 -2.526948673558e-09 8.698782645448e-10 -3.252533974066e-06 1.724051284224e-06 3.475203102591e-07 1.000000000000e-03 1.047197551197e-05 4.709500128466e-12 1.091310510615e-11 -7.430233633673e-12
143 2 3.564605081285e-03 5.307547623541e-03 9.714819298988e-04 -2.440576156869e-09 -6.308674515145e-10 1.153223173313e-09 6.034248740387e-07 -1.056455055626e-06 2.779337240129e-06 1.000000000000e-03 1.047197551197e-05 1.000262890939e-11 -1.086807197487e-12 1.151467458952e-13
144 2 9.236654417967e-03 3.224472691226e-03 5.998810046507e-03 1.822049020795e-09 -3.263536903150e-09 -3.379829983968e-10 -6.256852755691e-07 5.696269967158e-07 -5.486509804595e-07 1.000000000000e-03 1.047197551197e-05 -1.099658614343e-11 8.504070976035e-12 5.460630762290e-12
145 2 6.050857106789e-03 3.750207892012e-03 7.262972408524e-03 3.359663147845e-10 -2.164680145669e-09 -6.661875216973e-10 -1.408965205471e-06 5.825925569549e-07 2.499717450512e-06 1.000000000000e-03 1.047197551197e-05 -9.104256021499e-13 9.538049217033e-12 1.703418118326e-12
146 2 7.652354849093e-03 2.447635841956e-03 8.355583121444e-03 9.686656077183e-10 -2.944358478395e-09 -2.125019243222e-10 2.339180005154e-06 2.046427142126e-07 -3.646596106239e-06 1.000000000000e-03 1.047197551197e-05 -4.172807134948e-12 9.656098550395e-12 4.927120238274e-13
147 2 5.536425871881e-03 3.589436586558e-03 1.350658343559e-02 -1.985025405232e-09 -6.408266564626e-09 6.025869837522e-09 -4.642840758649e-06 -2.643573679963e-06 -1.317971315390e-06 1.000000000000e-03 1.047197551197e-05 9.469579032310e-12 1.931805179616e-11 -1.413059354189e-11
148 2 4.997988820203e-03 3.686394652668e-03 9.312131064693e-04 -6.238593189274e-11 1.621614592113e-10 6.295938510774e-10 -1.385889788009e-07 3.367612088917e-07 1.609912185583e-06 1.000000000000e-03 1.047197551197e-05 -2.317076009479e-12 -2.351289325836e-12 -4.096941164390e-12
149 2 9.669709969061e-03 9.448682570087e-03 1.057226575566e-03 -1.273184233650e-09 -5.773561439262e-10 -3.994044211757e-10 5.288734441441e-07 -1.095598407192e-06 4.754794557464e-07 1.000000000000e-03 1.047197551197e-05 4.810746127922e-12 2.921892153768e-12 5.852670569065e-13
150 2 4.737218868875e-03 1.228754573905e-02 1.444008775077e-02 -3.178487774846e-09 -1.283688419122e-08 -1.728087366620e-10 -1.436962704773e-05 3.803532177724e-06 -1.179977213687e-05 1.000000000000e-03 1.047197551197e-05 1.238007589692e-11 3.964834261032e-11 -6.464037602430e-13
151 2 2.852967404329e-03 3.774614591499e-03 6.005391702135e-03 2.582250853184e-09 -1.912418083988e-09 2.397172267282e-09 1.203762297968e-06 2.656209786536e-06 -5.286981178053e-06 1.000000000000e-03 1.047197551197e-05 -9.720269302874e-12 -1.783602944761e-12 -1.223016360723e-11
152 2 2.566514423233e-03 8.044357700925e-03 5.503321682139e-03 1.125949253199e-08 -1.573522372169e-09 -1.648666011663e-08 1.426532769690e-06 -2.750519855187e-05 -3.752294684272e-06 1.000000000000e-03 1.047197551197e-05 -4.476389252060e-11 1.172554365018e-11 4.263344923381e-11
153 2 5.952475567796e-03 6.341154655158e-03 8.158111168636e-03 1.673318429519e-09 -5.168298362708e-09 -2.132472862229e-09 7.008709289960e-07 -3.091270646326e-07 2.677877300988e-06 1.000000000000e-03 1.047197551197e-05 -1.189206209162e-12 1.258591237456e-11 4.342876244246e-12
154 2 4.388387507557e-03 7.144709006065e-03 3.501697260137e-03 -3.647655813099e-09 5.209930397491e-09 4.270757345527e-09 -1.719372878401e-06 2.621773035674e-06 -4.178558334674e-06 1.000000000000e-03 1.047197551197e-05 3.248258460662e-12 -2.035729555742e-11 -3.194869773770e-11
155 2 3.751961643540e-03 4.130257501077e-03 2.445496852773e-03 -5.526459840782e-10 -9.101339054187e-10 8.549156347769e-10 4.083374709989e-07 1.164687902195e-06 5.831094087520e-07 1.000000000000e-03 1.047197551197e-05 -1.984198025254e-12 -2.481014703428e-14 -3.094876202109e-12
156 2 1.309111434207e-02 1.199450585351e-02 6.237438919498e-03 2.343331688454e-09 -4.856060486263e-09 -4.875398582612e-09 -1.656815657817e-06 -8.197830563288e-07 -8.246731641221e-09 1.000000000000e-03 1.047197551197e-05 -7.229186556739e-12 8.855872789199e-12 1.764093114919e-11
157 2 4.663419101004e-03 5.799474781665e-03 9.418534176871e-03 3.210633726342e-09 -5.010103966290e-09 -6.598835785436e-10 2.481873521863e-06 2.659143165620e-06 -5.655093964612e-06 1.000000000000e-03 1.047197551197e-05 -1.032731938695e-11 1.733030755546e-11 -6.572093012820e-13
158 2 1.493546790657e-02 3.865671017595e-03 1.106065006951e-02 1.390368611718e-09 -4.364782967723e-09 -4.669575650903e-10 7.640108776815e-08 8.692163544529e-07 -1.608675445771e-06 1.000000000000e-03 1.047197551197e-05 -4.952739556011e-12 1.845827696238e-11 1.223568194381e-11
159 2 6.201923621670e-03 2.334031515048e-03 9.646878128381e-03 -1.853367052499e-10 -2.615253161981e-09 -1.806653977039e-09 1.567635759186e-06 -1.302580867033e-06 4.575691264482e-07 1.000000000000e-03 1.047197551197e-05 3.953908525718e-13 7.213631563690e-12 7.285049900141e-12
160 2 9.890672577254e-03 1.260398133149e-02 1.144387809611e-02 1.010008007239e-08 3.935416677863e-09 -4.821895577920e-09 1.481361099796e-05 -3.443208031694e-05 -2.626314818381e-06 1.000000000000e-03 1.047197551197e-05 -4.215730267521e-11 2.916652479383e-12 1.863614480221e-11
161 2 3.807633484451e-03 2.218627535228e-03 2.551633539305e-03 -3.883038369198e-10 -1.853667084019e-10 2.589907324260e-10 -9.146537295835e-08 1.022611561398e-06 -9.005050864894e-07 1.000000000000e-03 1.047197551197e-05 2.337993015276e-12 -7.727779886184e-13 -6.996041994710e-13
162 2 1.256271395222e-02 6.044104056530e-03 1.299805205846e-02 7.561883564459e-10 -1.037248057290e-09 -8.995130755241e-10 2.338613378600e-08 -2.549963550095e-07 7.413027996013e-07 1.000000000000e-03 1.047197551197e-05 -2.056217678084e-12 6.343404025537e-12 4.491349684752e-12
163 2 1.967086415133e-03 7.227476273920e-03 1.324401439692e-02 -1.921677943965e-09 -6.416542272184e-09 -2.663486272772e-09 -2.996030161345e-06 -1.391974362958e-06 -2.539624534832e-06 1.000000000000e-03 1.047197551197e-05 4.413592503395e-13 2.528009522970e-11 6.057738887018e-12
164 2 1.399519730151e-02 1.145779670501e-02 4.647969836965e-03 5.498118958764e-09 -4.291856255871e-09 -9.295783746120e-09 6.066042845394e-06 5.837407146798e-08 -9.289297224061e-07 1.000000000000e-03 1.047197551197e-05 -2.195956508998e-11 1.841158441503e-11 1.221975277367e-11
165 2 7.109330427435e-03 9.802640127970e-04 4.977475399535e-03 1.590810215136e-09 -1.880980767241e-09 -2.675731337789e-10 -3.284278546997e-07 1.167817219286e-06 3.461350569385e-07 1.000000000000e-03 1.047197551197e-05 -8.791350975580e-12 4.524049905180e-12 -2.539900865746e-12
166 2 1.242503451303e-02 9.218565155843e-04 4.264503519126e-03 2.323355320085e-09 -2.078038710823e-09 -6.964345552079e-10 -1.875094961525e-07 1.743721365239e-06 -7.088050890754e-07 1.000000000000e-03 1.047197551197e-05 -1.221599249102e-11 1.057896020099e-11 1.272876691223e-12
167 2 1.265096558675e-02 1.287139769593e-03 1.111848863648e-02 6.255762382080e-10 -1.710050622587e-09 2.842776690661e-10 -9.873113476680e-07 -1.500743497737e-06 -1.013142872691e-06 1.000000000000e-03 1.047197551197e-05 -2.448212779940e-12 4.743202137852e-12 -2.155064696423e-12
168 2 8.347973526053e-03 6.648839221101e-03 3.502224870584e-03 1.651886356462e-11 -1.210176901323e-09 9.192046080513e-10 5.984164397954e-07 3.104466246179e-06 -6.144108740845e-07 1.000000000000e-03 1.047197551197e-05 3.225091772026e-13 2.559933620062e-11 -7.651467938082e-12
169 2 1.406399274524e-02 1.402801009669e-03 6.574331387650e-03 1.154053916656e-09 -2.642580862031e-09 -2.152332786074e-10 -8.566580690558e-07 -1.153705202164e-06 -1.395336394928e-06 1.000000000000e-03 1.047197551197e-05 -5.575019323120e-12 4.004177879260e-12 3.204279891901e-13
170 2 6.840886032374e-03 1.239626829653e-02 1.443799062238e-02 -2.600103772532e-08 3.890851573839e-09 -7.111777805735e-09 5.825078584264e-06 2.123439107036e-05 -8.127899766066e-05 1.000000000000e-03 1.047197551197e-05 9.784779928254e-11 -8.658783791189e-12 2.088980693408e-11
171 2 7.023948643783e-03 5.550581942564e-03 9.612264822804e-03 3.086571789709e-09 -3.604688334831e-09 -1.288716557351e-09 1.048585656981e-06 -2.483247998896e-07 3.565743690101e-06 1.000000000000e-03 1.047197551197e-05 -6.951939880659e-12 1.308699512251e-11 5.785657545694e-12
172 2 7.660363443851e-03 3.708366457122e-03 1.228134975563e-02 5.055322964502e-09 -6.996078163978e-09 -2.364670837011e-09 -3.521527717510e-07 -2.712891779948e-06 2.645883760611e-06 1.000000000000e-03 1.047197551197e-05 -1.800993039130e-11 2.285203230228e-11 1.491822836059e-11
173 2 8.473055365677e-03 4.192968926062e-03 8.169459979430e-03 1.895876950186e-09 -3.481273835024e-09 -1.852897349488e-09 -3.574593084906e-06 1.151365488873e-06 2.442102845206e-06 1.000000000000e-03 1.047197551197e-05 -8.887178331943e-12 9.538009044655e-12 9.605781080230e-12
174 2 1.137739298475e-02 4.108095965104e-03 6.937186677537e-03 2.349843431840e-09 -4.029066935644e-09 -1.777811866826e-09 -4.571067597663e-06 1.168793165031e-06 2.235603300652e-07 1.000000000000e-03 1.047197551197e-05 -8.517860303498e-12 1.279536766024e-11 9.957392480954e-12
175 2 1.173227454079e-02 6.972235857302e-03 1.057654060400e-03 6.376688016588e-10 1.622369220935e-09 1.221892185589e-09 1.963963449900e-06 -3.045401999916e-06 -1.585402576668e-06 1.000000000000e-03 1.047197551197e-05 -5.225253423343e-13 -9.031111974864e-12 -1.689598015009e-12
176 2 9.585870548189e-03 8.913797182275e-03 1.439448629277e-02 -6.495651913819e-09 1.721174572661e-09 -2.831506715460e-09 -2.452963031097e-06 4.723229762901e-06 1.780383932776e-05 1.000000000000e-03 1.047197551197e-05 2.142214069806e-11 -4.564337755246e-13 1.844551423319e-11
177 2 1.009837321395e-02 3.810551280530e-03 1.003823322380e-03 3.627705165957e-10 -7.808837242175e-10 -5.542949798696e-10 -3.675494080316e-07 -1.124667581849e-06 9.594151070457e-07 1.000000000000e-03 1.047197551197e-05 -2.435505246548e-12 -3.242390656477e-12 -3.512821330100e-12
178 2 1.633286719160e-03 1.047465601991e-02 1.254672036689e-02 -8.204191034935e-09 -7.335191669420e-09 -2.266843823334e-09 -3.555916504386e-06 6.234796946677e-06 -2.554575387602e-06 1.000000000000e-03 1.047197551197e-05 1.660835386199e-11 1.900956333089e-11 2.445550360520e-12
179 2 1.236664353624e-02 5.592086145190e-03 9.816365887434e-03 3.419767116323e-09 -2.791499690224e-09 -1.577358916126e-09 -1.721531209273e-06 -1.729862140065e-06 -1.976617886540e-06 1.000000000000e-03 1.047197551197e-05 -1.525630792206e-11 6.732092360629e-12 6.493467681786e-12
180 2 5.655439004617e-03 8.746169833235e-03 8.109045988034e-03 6.502243202084e-10 -5.085515222701e-09 -8.883730162301e-11 2.492517903810e-06 5.272658550647e-06 1.038989929742e-06 1.000000000000e-03 1.047197551197e-05 -1.003662567241e-11 1.377056025387e-11 2.730715350642e-12
181 2 4.881340915525e-03 8.855768630953e-03 1.443376839084e-02 -4.600996493153e-09 -1.134999433123e-09 1.071081080732e-09 -9.872391411902e-07 4.997422593279e-06 3.235717413546e-06 1.000000000000e-03 1.047197551197e-05 1.476401859789e-11 2.715476319779e-12 -6.458791817258e-12
182 2 1.029687805773e-02 1.036278962641e-03 6.654298393944e-03 1.963279838291e-09 -3.289241776090e-09 -3.419216655994e-10 1.143040808310e-06 5.502927823691e-07 -9.262271514899e-07 1.000000000000e-03 1.047197551197e-05 -8.351553155439e-12 2.133025135117e-11 1.916927184845e-12
183 2 1.212959827471e-02 6.879078892310e-03 8.490128492915e-03 2.210015897490e-09 -4.183360569472e-09 -1.772759610220e-09 1.606390587746e-06 4.161881760994e-06 2.288334185599e-06 1.000000000000e-03 1.047197551197e-05 -1.707175431783e-11 1.527162566512e-11 1.092791386597e-11
184 2 1.129763387804e-02 1.174819688375e-02 1.255351450178e-02 6.478162674239e-09 -2.195321647031e-09 2.374128190558e-09 8.166797274864e-06 1.600990514116e-05 1.066583403781e-05 1.000000000000e-03 1.047197551197e-05 -2.418694982644e-11 1.718256000345e-11 -1.050221287005e-11
185 2 3.622335866954e-03 1.982783075484e-03 5.458428156343e-03 2.106679032923e-09 -2.257330600975e-09 8.855171565575e-10 1.669592353389e-06 3.109493869800e-07 -1.421697694134e-06 1.000000000000e-03 1.047197551197e-05 -6.326478602566e-12 6.529033811209e-12 -5.147990519569e-12
186 2 8.131799475517e-03 8.246408853303e-03 1.179635890408e-03 -1.140986666555e-09 -1.107812964649e-09 2.624097212649e-10 -7.924018067007e-07 1.662164613340e-06 -2.492762600943e-07 1.000000000000e-03 1.047197551197e-05 1.278603901404e-11 -1.664458065602e-12 7.036538257863e-13
187 2 1.242866335404e-02 4.283527728964e-03 8.416529679290e-03 2.633529423537e-09 -1.833904430534e-09 -1.149538268300e-09 2.044305676850e-06 -8.844699907585e-07 -8.831070848085e-07 1.000000000000e-03 1.047197551197e-05 -1.163424857410e-11 5.704806673503e-12 -2.331027190741e-12
188 2 3.670982776552e-03 1.051688495890e-02 1.444858428026e-02 -1.830495237495e-08 -6.779063680782e-09 -6.191781351262e-10 -7.333455143648e-06 1.706668415901e-05 5.737056021472e-06 1.000000000000e-03 1.047197551197e-05 7.193090946347e-11 3.329551119011e-11 4.495709628045e-12
189 2 8.964450221686e-03 1.077525315011e-02 1.245009097686e-02 1.257620703594e-09 -8.127778946370e-10 7.481539004589e-11 8.271744091692e-08 1.607000914895e-05 3.454448389167e-05 1.000000000000e-03 1.047197551197e-05 -3.351969537067e-12 5.598399285255e-12 -1.808902622706e-12
190 2 1.735792301602e-03 4.590429339532e-03 1.966589971042e-03 1.280402463353e-08 -4.853131354040e-09 -4.106707354446e-09 3.227771561589e-06 3.315768680531e-05 -9.876580803697e-06 1.000000000000e-03 1.047197551197e-05 -3.569727828336e-11 2.631559828429e-11 1.608584451500e-11
191 2 2.244116355298e-03 4.151241810020e-03 1.309327705609e-02 1.011819481139e-09 -3.400220514448e-09 -1.366894884152e-11 -1.267562044703e-06 6.362489927152e-08 -7.838422670190e-07 1.000000000000e-03 1.047197551197e-05 -2.458421035425e-12 8.516471761315e-12 -1.167332444781e-12
192 2 1.526577478790e-02 9.473480543259e-03 5.261681069215e-03 2.811454706241e-09 -1.143972064702e-08 -1.048688342149e-08 -6.185663867435e-06 3.870322032976e-06 -1.065296588384e-05 1.000000000000e-03 1.047197551197e-05 2.545366121176e-12 2.922614481112e-11 4.249715936918e-11
193 2 1.300453887642e-04 5.574493344926e-03 1.022293328288e-02 -1.445224394250e-09 -5.161523600465e-09 2.443022352451e-09 3.232524070916e-06 2.320457194144e-06 4.545640329566e-06 1.000000000000e-03 1.047197551197e-05 6.705701109761e-12 2.255397479135e-11 -1.830072984620e-11
194 2 1.383142194884e-02 5.702981336488e-03 2.851962839933e-03 3.336005154997e-09 4.897185387667e-09 -5.163927102598e-10 -8.452623237953e-07 8.067846935040e-06 -1.243301045817e-05 1.000000000000e-03 1.047197551197e-05 -2.143986783396e-11 -2.458882562503e-11 -1.078254594314e-11
195 2 1.343292606292e-02 1.400082454258e-02 1.410182486719e-02 -2.204631576730e-10 -2.772803426623e-10 3.833846704374e-10 2.102590436898e-06 1.134271636619e-06 -1.553053740765e-07 1.000000000000e-03 1.047197551197e-05 -1.845970244688e-12 2.193052551030e-12 -1.067109900944e-12
196 2 1.158111697613e-02 1.635731389416e-03 2.703098873115e-03 9.828400546357e-10 -2.040193753799e-09 -3.729909595149e-10 -6.099209847758e-07 -2.506042784548e-07 3.079676125569e-07 1.000000000000e-03 1.047197551197e-05 -7.161295645286e-12 8.194628292963e-12 -2.105729216461e-12
197 2 7.887608367365e-03 2.940921097623e-03 1.046168875466e-02 2.297197120613e-09 -2.484487432870e-09 -4.675257815960e-09 4.716319196512e-06 6.830952509737e-06 6.963397452825e-07 1.000000000000e-03 1.047197551197e-05 -7.975205948607e-12 5.784380173779e-12 1.768225409480e-11
198 2 1.084409314000e-02 4.983495030521e-03 3.567314107505e-03 3.011017457141e-09 1.148681984590e-10 -4.806806693320e-09 1.324789800421e-06 3.516480970721e-06 2.360413584141e-06 1.000000000000e-03 1.047197551197e-05 -1.309561438643e-11 -9.586758685120e-12 2.429984829402e-11
199 2 5.980481249962e-03 1.177293860899e-02 4.140836644344e-03 3.187716239247e-09 2.584939671395e-10 -4.774227660466e-10 9.049252107513e-07 -1.476449076032e-07 -8.210675770573e-07 1.000000000000e-03 1.047197551197e-05 -1.554792571519e-11 9.760778082811e-14 -4.054831840923e-12
200 2 4.920429273901e-03 1.044232057903e-04 1.443680499702e-02 -9.270993451799e-09 -9.802480876050e-09 2.796989454023e-09 -1.085784089810e-05 6.735604737999e-06 -1.497716990414e-05 1.000000000000e-03 1.047197551197e-05 4.225161302069e-11 2.638092553899e-11 -1.200866317431e-11
201 2 1.202775876140e-02 6.789380464877e-03 3.522585067055e-03 4.272349670002e-09 -4.174593884151e-09 -4.643218177276e-09 -2.730358016799e-06 4.102875072886e-06 -7.078421803062e-06 1.000000000000e-03 1.047197551197e-05 -2.515745537224e-11 1.430069446647e-11 2.612733344567e-11
202 2 1.428931335280e-02 1.248472682196e-02 1.283519108139e-02 1.139766596931e-09 -2.637331460549e-09 4.791995459235e-10 -6.804715509342e-07 6.840516598659e-06 4.935754895336e-07 1.000000000000e-03 1.047197551197e-05 1.182491510281e-12 3.599192235246e-12 -1.235812431595e-12
203 2 1.443120756508e-02 1.533805453523e-02 5.074362141416e-03 1.458771307709e-09 -3.518290998427e-09 2.000703081878e-10 4.434993349574e-07 -5.386960880443e-07 -1.243370518767e-06 1.000000000000e-03 1.047197551197e-05 -2.677126317717e-12 1.233740030824e-11 1.044903737041e-11
204 2 6.890282225134e-03 5.767069836719e-03 6.645869655636e-03 2.394713210951e-09 -3.031513755966e-09 -2.655101923669e-09 -1.067138648832e-06 7.458716847717e-07 1.638925714149e-06 1.000000000000e-03 1.047197551197e-05 -3.914376978315e-12 8.198037543293e-12 9.862114818812e-12
205 2 8.850505380015e-03 1.216985613003e-02 3.192632151458e-03 2.294465675380e-09 -1.931739561762e-09 3.349703314459e-10 -7.077128988773e-07 -2.156260185209e-06 2.004188936583e-09 1.000000000000e-03 1.047197551197e-05 -4.718840876043e-12 1.250007399922e-12 2.032488616287e-12
206 2 9.108307767224e-03 1.457954676421e-03 1.207686114433e-02 1.040319508272e-09 7.541093752321e-10 -2.410290264946e-09 -1.976063601575e-06 -2.563258240381e-06 -3.017486300689e-06 1.000000000000e-03 1.047197551197e-05 -7.165172826500e-12 -8.731620208453e-12 1.524437113588e-11
207 2 2.923810961410e-03 7.037575636324e-03 7.109427685514e-03 -5.304579130157e-09 1.912805747814e-10 -4.980066978011e-09 -5.127051476053e-06 9.144357254824e-06 -3.702886426552e-06 1.000000000000e-03 1.047197551197e-05 3.393862121287e-11 -8.659849700905e-12 3.982608532692e-11
208 2 1.034154392101e-02 1.277142396652e-02 5.350725020521e-03 2.517211700607e-09 -3.515113170188e-09 -1.492211216780e-09 6.754043027084e-08 4.696275885962e-07 2.386610446386e-07 1.000000000000e-03 1.047197551197e-05 -8.361439778053e-12 9.283720926676e-12 2.624311691121e-12
209 2 7.691931987609e-03 1.472556386708e-02 2.486242140242e-03 1.356918847811e-09 1.299799550530e-09 -3.138414653202e-10 -2.974679655458e-06 1.389775969530e-06 -4.915882181170e-06 1.000000000000e-03 1.047197551197e-05 -3.035560511453e-12 -4.292754732547e-12 2.755188690147e-12
210 2 1.097672543593e-02 8.495223617040e-03 2.204974692265e-03 3.456318492694e-10 -1.764517065044e-09 -8.174785584036e-10 4.363981331143e-06 3.874667528502e-07 7.910848293625e-08 1.000000000000e-03 1.047197551197e-05 2.119942068411e-12 -1.870092067195e-13 2.056512156135e-12
211 2 4.278748871471e-03 8.666094827308e-03 4.876374299827e-03 1.168058759172e-08 1.287141881910e-09 5.862541789710e-10 1.640321256073e-06 8.890825751234e-06 4.628729002418e-06 1.000000000000e-03 1.047197551197e-05 -5.393866807446e-11 -1.132831634451e-11 -6.100041396689e-12
212 2 7.919162944441e-03 7.918838513781e-03 1.443813839441e-02 2.203633064807e-09 -6.123251001728e-09 1.327503630707e-09 -1.149011131906e-06 -1.840285154070e-07 -3.328207371856e-06 1.000000000000e-03 1.047197551197e-05 -1.295098522423e-11 3.588744440720e-11 -4.272773521110e-12
213 2 3.430286435597e-03 7.388029865030e-03 1.446978354553e-02 -2.153518727984e-09 -3.694093243178e-09 -1.216558295085e-09 -3.335339591574e-06 1.640090957197e-06 2.272960880746e-06 1.000000000000e-03 1.047197551197e-05 8.967033315593e-12 1.268349141992e-11 3.442347001093e-12
214 2 1.214978615045e-03 6.731646496317e-03 1.146858100852e-02 1.274048677730e-09 -5.210510828454e-09 -1.029203254648e-09 -1.305683479387e-07 -1.181345633740e-08 -1.183422098480e-07 1.000000000000e-03 1.047197551197e-05 -8.023659485714e-12 2.067571246291e-11 1.812630012033e-12
215 2 7.753322684565e-03 1.313110335565e-02 7.641130289419e-03 2.164673551994e-09 -4.879412246630e-09 -7.119933172816e-10 9.265471905410e-07 -3.540928294368e-07 -1.698946171126e-07 1.000000000000e-03 1.047197551197e-05 -5.413159956346e-12 2.027380652825e-11 1.233810829627e-12
216 2 6.707819856238e-03 4.742750749896e-04 8.775073708654e-03 2.373659794943e-09 -4.238609638009e-09 -1.967277337797e-09 -5.732941998481e-07 -4.175186571247e-07 -4.649090376253e-07 1.000000000000e-03 1.047197551197e-05 -6.718010240505e-12 9.052816576940e-12 1.316492823834e-11
217 2 1.884958108085e-04 1.102791273765e-02 2.475122768497e-03 -1.198746001567e-08 1.957412060665e-09 -1.179648511235e-08 -4.977764322432e-07 1.541873606051e-05 -2.228207165150e-05 1.000000000000e-03 1.047197551197e-05 -8.319388257818e-13 1.525985819093e-11 7.046810962515e-11
218 2 9.520334464043e-03 8.030050132485e-03 1.272470537507e-02 -1.221832329556e-10 -1.765537707146e-09 -1.256955175022e-09 3.398255347643e-07 -1.930849635027e-06 -1.179679654843e-06 1.000000000000e-03 1.047197551197e-05 -6.691056476891e-12 -3.620148155364e-12 7.433124190395e-12
219 2 3.937009476065e-03 1.478105181041e-02 5.776900871504e-03 2.211161894049e-09 -3.052615566428e-09 -5.953833929661e-11 1.451658058473e-06 -1.563640247232e-06 3.171943757478e-07 1.000000000000e-03 1.047197551197e-05 -5.014372944962e-12 2.331548254951e-12 7.482206498899e-12
220 2 9.886329562460e-03 1.069435683320e-02 2.557160828127e-03 1.193791521439e-09 -2.293166151795e-09 -6.636949997998e-10 6.367997722933e-07 4.452429343902e-06 -3.789128675397e-07 1.000000000000e-03 1.047197551197e-05 1.219845331945e-13 3.445586223498e-12 -5.057664800863e-13
221 2 1.141540799523e-02 1.205608375796e-02 1.023376898740e-02 7.919249351132e-09 -5.267996770351e-09 -9.229176583597e-10 8.582354793306e-07 3.868214383115e-06 4.513247871424e-06 1.000000000000e-03 1.047197551197e-05 -4.489951487742e-11 -8.210650315201e-12 1.668241255350e-11
222 2 4.058592422477e-03 3.322574855808e-03 1.142232153774e-02 3.811104901095e-09 -3.697701201298e-09 9.607866543238e-10 8.387792574659e-07 -1.591351767432e-06 1.819118871440e-06 1.000000000000e-03 1.047197551197e-05 -9.054201817937e-12 1.110205171009e-11 -6.016141260230e-13
223 2 1.406740785384e-02 1.337875490949e-02 7.233464274556e-03 1.461206513856e-09 -5.934209520943e-09 -4.461848607688e-09 -3.419169475036e-07 -2.589034943784e-06 -4.009099329067e-06 1.000000000000e-03 1.047197551197e-05 -3.916979312961e-12 1.738787611417e-11 1.596803693035e-11
224 2 6.710843068556e-03 9.189674065180e-04 1.443317786988e-02 -7.629095199997e-10 -4.345737318793e-09 -1.299337266865e-09 -1.037631564059e-06 -8.132881390458e-07 1.094536186483e-05 1.000000000000e-03 1.047197551197e-05 9.469106284579e-12 1.078017306390e-11 -2.001315515732e-12
225 2 7.171837612539e-03 7.330438677413e-03 1.168447205675e-02 -8.585456813104e-11 5.295922952883e-09 9.669360949743e-11 -8.430097748735e-06 -8.961295728080e-07 6.302153898920e-07 1.000000000000e-03 1.047197551197e-05 -3.228831285642e-12 -1.929559773485e-11 -1.023796824871e-11
226 2 1.438796716203e-02 9.820328344595e-03 1.001913434808e-02 1.188654751719e-09 -2.856460360931e-09 -5.082739254062e-09 9.870573959322e-08 -7.350713047324e-07 -2.683671970829e-06 1.000000000000e-03 1.047197551197e-05 -8.713665091934e-12 2.133985351266e-11 2.028655151155e-11
227 2 1.408141813709e-02 5.177338041077e-03 9.529685208640e-04 -1.043873632669e-09 3.755908277795e-09 9.517284635354e-10 -2.249337583683e-06 -1.552332762992e-06 4.038616752555e-06 1.000000000000e-03 1.047197551197e-05 4.399369275617e-12 -1.000637497173e-11 -7.556598333283e-12
228 2 1.048874044516e-02 8.296470643785e-04 4.553735502325e-03 1.673344036301e-09 -1.821300842706e-09 -7.851103124183e-11 -5.260320971258e-07 -4.515411331970e-07 2.824217679609e-07 1.000000000000e-03 1.047197551197e-05 -7.462419764950e-12 8.918495880313e-12 -4.188908065054e-12
229 2 1.212212489169e-03 4.806087502583e-03 1.158100641811e-02 1.973911114146e-09 -4.733917344354e-09 -1.170879433862e-10 -2.727197791818e-07 -1.080532909594e-06 4.217085228370e-07 1.000000000000e-03 1.047197551197e-05 -7.932576999515e-12 1.891713324239e-11 -2.400269056129e-12
230 2 9.765931678320e-03 1.052262616538e-02 7.434966227765e-03 -1.865235351306e-10 -3.766461023092e-09 -1.115202728082e-09 1.977360260224e-06 -2.325797964446e-06 1.024343868451e-06 1.000000000000e-03 1.047197551197e-05 -1.794366779645e-12 6.956332745337e-12 -1.207017823401e-11
231 2 1.124248291059e-02 1.140173961484e-02 6.506772423910e-03 1.533575299745e-09 -3.188430173716e-09 -1.260217403787e-09 -1.382003636491e-06 7.155738908890e-07 -3.074610504023e-07 1.000000000000e-03 1.047197551197e-05 -5.399544420658e-12 4.372746553585e-12 1.580237943665e-12
232 2 9.208622343464e-03 5.352793382829e-03 4.563814273188e-03 2.510827877734e-09 -2.317109242760e-09 -1.268629213781e-09 6.791470084483e-07 8.018412411230e-08 7.903082942943e-07 1.000000000000e-03 1.047197551197e-05 -1.378711425173e-11 5.352149233079e-12 -2.131819765777e-12
233 2 1.251517543561e-03 8.857967120690e-03 9.315574082587e-03 4.935920314816e-11 -6.491085313384e-09 -1.709013366275e-09 -5.279391264089e-07 1.237735234707e-06 3.359528381700e-08 1.000000000000e-03 1.047197551197e-05 -2.999831536896e-14 2.522673580796e-11 7.619677972005e-13
234 2 2.775939821729e-03 7.843239249775e-03 1.111255917846e-02 2.984889267014e-09 -4.217681098875e-09 -1.379458839076e-09 -7.276727965829e-07 -7.566716317221e-07 6.364263855747e-07 1.000000000000e-03 1.047197551197e-05 -1.420657284041e-11 1.551340607167e-11 1.369775903897e-12
235 2 2.078607678523e-03 3.132676161259e-03 1.133619359462e-02 2.129505694653e-09 -4.470269026859e-09 1.004691938647e-09 7.512570938578e-07 -2.321621307054e-06 -5.878171524789e-07 1.000000000000e-03 1.047197551197e-05 -6.462141158011e-12 1.459387168215e-11 -1.229530209790e-12
236 2 2.474166043149e-03 1.191461560993e-02 1.368371535441e-02 -7.839237496036e-09 1.065894628652e-09 -1.564287920000e-09 6.168946154568e-07 5.021249738655e-06 -1.929485267511e-05 1.000000000000e-03 1.047197551197e-05 2.739754991231e-11 -3.261150285868e-12 3.516692119875e-12
237 2 1.433841551037e-02 1.097692419137e-02 1.438633368157e-02 -8.359319596414e-10 -1.348360634740e-10 -1.672564612547e-09 -1.013356486396e-06 -1.950391660281e-06 -6.549450507345e-06 1.000000000000e-03 1.047197551197e-05 3.376242315260e-12 1.185210424235e-12 4.356236727878e-12
238 2 9.801707504037e-03 7.318196095296e-03 6.951471879789e-03 5.331297547042e-11 -2.300003077819e-09 -6.498921210860e-10 1.564322312979e-06 -5.976129618428e-07 4.103282475507e-07 1.000000000000e-03 1.047197551197e-05 -1.762802024220e-12 4.679128991228e-12 4.526208728492e-12
239 2 3.461073341570e-03 8.932773066620e-03 6.892952399892e-03 -6.404933397453e-09 -2.432217259143e-09 -3.818845542412e-09 4.637432698567e-06 5.163038718477e-06 5.554319038278e-06 1.000000000000e-03 1.047197551197e-05 2.256703012253e-11 1.797688191912e-12 -5.102486806890e-12
240 2 1.309496111033e-04 3.865179530413e-03 1.287044202189e-02 1.494975767411e-09 -3.231861854939e-09 -3.499834541035e-10 -1.729748166977e-06 -7.815039784562e-07 6.717079050078e-07 1.000000000000e-03 1.047197551197e-05 -1.036710376138e-11 1.063153048787e-11 -9.888838147218e-12
241 2 1.314352366678e-02 7.276578037376e-03 1.442194658022e-02 1.888986958668e-09 -9.269563149813e-10 -2.176058692714e-11 -1.137289215908e-06 -2.007089099573e-06 -6.537796530548e-06 1.000000000000e-03 1.047197551197e-05 -7.313910737809e-12 6.063113706016e-12 1.954770533122e-12
242 2 1.169170796018e-02 1.119571754041e-02 1.000928032545e-03 -2.087029459995e-103 -1.666273151069e-103 3.393016759883e-104 1.900874384754e+03 -4.128075715661e+03 -3.241497174506e+02 1.000000000000e-03 1.047197551197e-05 2.089024331286e-104 1.667865845631e-104 -3.396259949237e-105
243 2 1.212217155585e-02 2.736954314512e-03 1.233160580436e-02 8.647470869238e-10 -1.534181668084e-09 -2.508783317440e-10 3.774719530152e-07 1.704461525931e-07 3.838921056443e-07 1.000000000000e-03 1.047197551197e-05 -1.018724600823e-11 2.438710716369e-13 8.943183388677e-12
244 2 6.389496039418e-03 6.661095485619e-03 1.444619778597e-02 1.420006673903e-10 -3.317355681706e-10 -1.175130701166e-09 1.608587678094e-07 -3.947367081452e-07 -2.720210762779e-06 1.000000000000e-03 1.047197551197e-05 -4.640395696094e-13 1.141881904807e-12 -4.393309288532e-13
245 2 6.993066521681e-03 7.713281478136e-03 4.564242860780e-03 4.431160487357e-11 -1.017655448376e-09 -9.879321146091e-10 1.603510116011e-06 1.332187446379e-06 1.365662250784e-07 1.000000000000e-03 1.047197551197e-05 -3.693169246057e-12 6.771654440338e-13 5.356488930204e-12
246 2 1.795030738166e-03 1.414535486354e-02 1.325320425398e-02 2.129939007158e-09 -4.645691383637e-09 -4.002783711178e-10 2.141155003569e-06 1.864830985151e-06 2.559374325367e-07 1.000000000000e-03 1.047197551197e-05 -9.166685318379e-12 1.758304978354e-11 -2.907041225751e-12
247 2 3.133504596872e-03 1.311392051116e-02 1.225791781425e-02 -1.719601340804e-09 -3.216584623577e-09 -4.445176858537e-09 1.472746010085e-06 3.089932298198e-06 -6.367938633653e-07 1.000000000000e-03 1.047197551197e-05 7.551753221502e-12 1.360026998121e-11 1.176538762895e-11
248 2 1.456095929525e-02 6.019594331939e-03 4.673601619945e-03 9.110782079254e-10 -5.929610619779e-09 1.511578963185e-08 1.721104736863e-05 -2.247831399373e-05 1.002135422708e-06 1.000000000000e-03 1.047197551197e-05 -1.137958328568e-11 3.401329130326e-11 -7.314898217772e-11
249 2 4.334690680057e-03 7.364474217574e-03 8.297553324385e-03 -8.943823914922e-10 -6.070774077152e-09 -5.555786615968e-09 5.582955719800e-06 -6.131640014379e-06 -2.318436545966e-06 1.000000000000e-03 1.047197551197e-05 -3.347586362476e-12 2.099348410375e-11 9.227849334362e-12
250 2 1.033671173569e-02 1.282862515614e-02 1.016706426351e-03 -1.419873157135e-09 -1.989755369747e-09 -3.324291380624e-10 -7.162199130071e-06 -5.396512737370e-06 -2.865551938630e-06 1.000000000000e-03 1.047197551197e-05 2.982469517884e-12 2.118405925301e-12 -4.207163880878e-12
251 2 1.318900688696e-02 3.003679209204e-03 5.900760272222e-03 1.354442345925e-09 -3.426639304193e-09 -2.032542313998e-09 -2.423500553776e-06 5.272237827285e-07 1.851429344732e-06 1.000000000000e-03 1.047197551197e-05 -4.137883071003e-12 9.907909939999e-12 5.826281106359e-12
252 2 1.259380212451e-02 1.068694775831e-02 1.161851117980e-02 1.995573552666e-09 1.762852725939e-09 -6.610284869351e-09 -2.901577738417e-06 -3.456225009144e-06 -8.341020826839e-06 1.000000000000e-03 1.047197551197e-05 7.743021338235e-14 -1.146585010021e-11 6.179828769304e-12
253 2 1.024200188702e-02 1.283232744110e-02 8.868961034595e-03 2.931268065780e-09 -4.985511073319e-09 3.280084900636e-10 2.605028935207e-06 -5.264485884503e-08 7.844121395453e-07 1.000000000000e-03 1.047197551197e-05 -1.780730770752e-11 1.443505835261e-11 -1.215081805984e-12
254 2 1.301665884513e-02 1.107768629732e-02 9.772669601733e-03 4.843421874552e-09 -1.466981154122e-09 -4.648893058084e-09 4.414965087905e-07 1.427016760659e-06 -1.122968931128e-06 1.000000000000e-03 1.047197551197e-05 -1.116730514471e-11 -1.444421192046e-11 2.828364023437e-11
255 2 9.588618821210e-03 9.107548265942e-03 1.123235709945e-02 -1.675626400195e-09 5.372173987995e-10 1.317606337780e-09 2.604368881250e-06 6.560030611719e-07 6.129939030701e-06 1.000000000000e-03 1.047197551197e-05 5.768574863633e-12 1.569990077289e-12 -1.471804631979e-11
256 2 4.505272222635e-03 1.049406623891e-02 5.770022328342e-03 -3.051592492522e-09 -2.541337074695e-09 -2.809478597835e-09 2.142927901561e-06 -7.950179241505e-07 3.171211432852e-06 1.000000000000e-03 1.047197551197e-05 1.358336318222e-11 6.273081700324e-12 1.122364874140e-11
257 2 1.080525451147e-02 2.051656003141e-03 9.238757509395e-04 6.709869419266e-10 -1.443227921215e-09 2.590485234263e-10 4.571789364702e-07 4.406723545446e-07 -8.310213452105e-07 1.000000000000e-03 1.047197551197e-05 -1.505143724232e-12 1.204148204297e-12 -3.141174511159e-12
258 2 8.206792589273e-03 5.961745005127e-04 9.819256142603e-04 -1.398761042908e-10 8.354749981178e-10 -2.584705121411e-10 -7.972324630993e-07 -5.572820590179e-07 -1.700541415652e-06 1.000000000000e-03 1.047197551197e-05 3.284758963520e-12 -7.844808746784e-13 3.755213232222e-13
259 2 3.564288804615e-04 1.368638696860e-03 5.528621572309e-03 1.997382936929e-09 -3.804644160594e-09 2.498736264526e-09 1.664756021913e-06 -3.214939842606e-07 4.426285408286e-07 1.000000000000e-03 1.047197551197e-05 -7.079948454396e-12 8.696454539056e-12 -9.550270146402e-12
260 2 1.120890560103e-02 9.580905818880e-03 5.883793546163e-03 5.053483901439e-10 -3.122259435403e-09 2.796466177067e-10 -3.266206764272e-07 -2.230624585646e-07 -8.622546766591e-07 1.000000000000e-03 1.047197551197e-05 -1.250665858460e-12 6.150732968293e-12 2.040904795786e-12
261 2 3.064551387892e-03 3.386504975506e-03 8.786828966965e-04 -1.050005424312e-09 -1.749547711344e-10 2.942930538755e-10 1.294002663047e-07 -9.703213641928e-07 -1.366135918076e-06 1.000000000000e-03 1.047197551197e-05 1.434090901168e-12 -2.484387184550e-12 -2.625255347564e-12
262 2 1.168349806068e-02 1.419439780461e-03 1.380597719336e-02 -3.360409646005e-10 -2.837424564476e-09 3.687455689253e-10 -2.798228796687e-06 1.469095623766e-06 -8.552776772857e-07 1.000000000000e-03 1.047197551197e-05 -1.564363033823e-13 3.801463539510e-12 4.796415905701e-12
263 2 6.018222360532e-03 1.475139424933e-02 4.745143167228e-03 2.079598529405e-09 -2.100706253249e-09 2.351778511810e-10 7.055013234941e-08 -5.215878924637e-07 3.203507147257e-07 1.000000000000e-03 1.047197551197e-05 -6.002083029361e-12 5.660407298496e-12 -2.644467677570e-12
264 2 4.886464251323e-03 3.452578340640e-03 5.587280022174e-03 2.147271961212e-09 -2.719709474327e-09 1.731403202175e-09 -2.390855043509e-06 -3.039344706244e-06 1.357181296385e-06 1.000000000000e-03 1.047197551197e-05 -5.866235028905e-12 4.890319021159e-12 -1.121145350453e-11
265 2 6.311462205327e-03 1.198163943555e-02 9.963413053051e-03 1.105654639164e-09 -3.959676760295e-09 -5.448525005520e-10 8.106573341875e-07 -2.644430446929e-07 -3.214032748227e-07 1.000000000000e-03 1.047197551197e-05 -2.788619310696e-12 1.134121185172e-11 2.164281998524e-12
266 2 1.091269449921e-02 8.542200469810e-03 9.901161969924e-03 6.870106999371e-11 8.404943039889e-11 5.183704221915e-10 -1.080713330247e-06 9.449398420745e-07 -4.361939635541e-06 1.000000000000e-03 1.047197551197e-05 -2.146103494872e-12 8.127936490087e-13 -1.294375860266e-12
267 2 5.540490037553e-03 1.303256595889e-03 7.608433241250e-03 1.580670856626e-09 -2.055477744450e-09 2.141715798773e-10 1.185672149591e-06 3.126991196136e-06 -2.086465827975e-06 1.000000000000e-03 1.047197551197e-05 -7.492137784336e-12 8.341828436555e-12 -3.211790261541e-12
268 2 1.055067251401e-02 6.518449151087e-03 9.433219269102e-03 1.867138773462e-09 -4.410361390627e-09 2.101613789884e-10 2.822071735561e-06 -1.861872397571e-06 -4.564347032926e-06 1.000000000000e-03 1.047197551197e-05 -1.071467985819e-11 1.442726221260e-11 -7.450651323919e-13
269 2 2.249317548086e-03 5.301557791427e-03 6.867171884443e-03 1.087538020648e-09 -3.200422395443e-09 3.620189233687e-09 -1.615649488014e-06 3.907125562201e-07 1.041852099205e-05 1.000000000000e-03 1.047197551197e-05 -1.441593065061e-11 -6.271118946429e-12 1.247521259074e-11
270 2 6.314349889768e-03 1.056182421396e-02 7.611670887510e-03 1.219314406164e-10 -4.434223724764e-09 8.261749118896e-10 2.434968070766e-06 1.870107717673e-06 -4.234150296001e-07 1.000000000000e-03 1.047197551197e-05 5.432981768893e-13 1.438948186347e-11 -1.549291905866e-12
271 2 1.256208247648e-02 1.316603514054e-02 1.255392239482e-02 1.576081553635e-09 4.385513677749e-10 -1.478761238258e-10 -4.060081457097e-06 -5.249816907251e-06 -3.605419069274e-06 1.000000000000e-03 1.047197551197e-05 -8.136718567185e-12 -1.742933207598e-12 1.064846113728e-11
272 2 4.892202742650e-03 1.095877644372e-02 1.305855602599e-02 -2.556604411002e-08 -2.065424034403e-08 2.285839195140e-10 1.698716930327e-05 -1.282863216156e-05 -3.019214473138e-05 1.000000000000e-03 1.047197551197e-05 7.729332190857e-11 6.877402707660e-11 7.028084703771e-12
273 2 1.521124667172e-02 1.475639774690e-02 1.445385396246e-02 4.595363024151e-10 -2.184894150038e-09 -2.413707952531e-10 -2.061420062610e-06 -4.722724727306e-07 -2.033889591417e-06 1.000000000000e-03 1.047197551197e-05 -2.881421531044e-12 8.598583454765e-12 -2.838792536657e-13
274 2 4.850636089253e-03 1.384158806444e-02 1.333410072709e-02 4.056683036015e-09 -8.267775204997e-09 -6.827632102540e-09 9.638752734880e-06 -6.376081012899e-06 6.311373114980e-06 1.000000000000e-03 1.047197551197e-05 -1.569272837464e-11 3.357445138058e-11 2.149575448132e-11
275 2 1.464563897745e-02 5.171350594162e-03 6.500493214881e-03 3.895411042949e-10 -6.461006857936e-09 -2.893748920256e-09 6.765619059750e-06 -7.715623804184e-06 -1.819884168467e-06 1.000000000000e-03 1.047197551197e-05 -1.162016961524e-11 2.308645117733e-11 2.628250383573e-11
276 2 4.340508622197e-03 7.062332532482e-03 1.080218020541e-03 -1.265470889482e-09 2.584810723902e-12 3.055121670218e-11 -3.204412772321e-06 -1.709754591980e-06 -3.360135788279e-06 1.000000000000e-03 1.047197551197e-05 3.725785418518e-12 -3.599693027257e-12 2.738916699376e-12
277 2 1.436227412579e-02 1.212690199905e-02 8.930261925885e-03 3.997966294541e-09 -2.550348725452e-09 -5.447586075725e-09 3.787024683854e-07 1.252118920277e-06 -1.396685724170e-06 1.000000000000e-03 1.047197551197e-05 -4.451686832620e-11 6.266056816909e-12 5.569662889876e-11
278 2 1.405873484224e-02 3.605482645655e-03 2.941465945878e-03 1.050922491812e-08 -2.562290616673e-08 -6.555232702903e-09 -9.989938291417e-06 -1.058974498091e-05 -1.959887814120e-05 1.000000000000e-03 1.047197551197e-05 -4.148342262554e-11 8.479488092322e-11 2.451106745234e-11
279 2 9.942798017639e-03 1.095257604218e-02 9.289114688008e-03 3.384416777889e-09 -5.031752684198e-09 -3.966087608917e-10 -9.796837089902e-07 7.593229239018e-06 -2.158479010147e-06 1.000000000000e-03 1.047197551197e-05 -1.212068010993e-11 1.530787379498e-11 2.935950835565e-11
280 2 2.957188311350e-03 1.114583581627e-03 3.866855094114e-03 1.757721848275e-09 -4.715215543274e-10 1.842781794263e-10 7.103027516021e-07 6.190082813687e-07 2.541160240357e-06 1.000000000000e-03 1.047197551197e-05 -6.415509627051e-12 -5.667724306123e-14 -7.714010592876e-13
281 2 1.321338579157e-02 9.798678080384e-03 5.600009714514e-03 -1.276657175009e-09 -6.725719807874e-09 -7.847483743064e-10 -3.605228017933e-06 -2.100081981047e-06 3.108823283266e-06 1.000000000000e-03 1.047197551197e-05 8.858858392693e-12 2.823082481733e-11 -7.475109198274e-12
282 2 1.414060347060e-02 9.283167578626e-03 1.178785021459e-02 -1.471583041583e-09 -1.302234340282e-09 -3.313717817535e-09 -2.243953747218e-06 -1.145843090530e-06 2.456480805452e-06 1.000000000000e-03 1.047197551197e-05 -1.558389934384e-13 5.005492840452e-12 1.338615920814e-11
283 2 1.792318484274e-03 1.212398833009e-03 9.371955062745e-03 1.917395078192e-97 -3.020214964213e-97 -2.210545061697e-97 1.462412343369e+03 1.184485124149e+03 6.469322979412e+02 1.000000000000e-03 1.047197551197e-05 -1.919227805745e-98 3.023101813796e-98 2.212657994440e-98
284 2 9.067665056174e-03 8.635739144458e-03 9.356650407692e-03 1.383147134028e-09 -1.752175630802e-09 -1.352985613449e-09 -3.124185828643e-07 -3.507306174002e-06 5.072038853838e-06 1.000000000000e-03 1.047197551197e-05 -9.728449043313e-12 7.853723823591e-12 2.703237868656e-12
285 2 1.277090535530e-02 1.265680274380e-02 3.794708365213e-03 3.193857842795e-09 -2.621246139982e-09 -2.125024614344e-10 1.441337558870e-06 5.734802750197e-06 1.653185085837e-06 1.000000000000e-03 1.047197551197e-05 -3.189763349271e-12 1.027347568147e-11 -9.895130179696e-12
286 2 1.332043360301e-02 2.744532545962e-03 7.780558233768e-03 1.497000871319e-09 -2.072192590577e-09 -1.562253196968e-09 1.775638315905e-08 -6.952794591762e-07 -8.743773625545e-07 1.000000000000e-03 1.047197551197e-05 -9.688510712795e-12 3.650891583848e-12 9.007606854721e-12
287 2 9.296951508106e-03 1.441804475081e-02 1.337385152883e-03 -3.984342947274e-10 -3.893513906689e-10 -4.052452770969e-09 4.991754271077e-06 1.699211123472e-06 1.016044085809e-06 1.000000000000e-03 1.047197551197e-05 4.172599346738e-12 2.563131145888e-12 1.182437546947e-11
288 2 4.328257154384e-03 1.662046509692e-03 1.063523038141e-02 1.720759524841e-09 -4.223607772639e-09 -2.875982002049e-11 -5.242848656926e-07 4.536891296281e-06 -2.693257989911e-06 1.000000000000e-03 1.047197551197e-05 -4.523081363877e-12 1.531701694014e-11 -1.360845926436e-14
289 2 6.441173346259e-03 9.152792993636e-03 1.112282747109e-02 -1.672013866129e-09 -1.729080231800e-08 2.465298399036e-09 2.135731660466e-05 -2.296068293100e-06 6.272396980738e-06 1.000000000000e-03 1.047197551197e-05 1.452977837926e-12 5.941061451786e-11 -7.424958023484e-12
290 2 8.002155846860e-03 1.293859881343e-02 1.007560193638e-03 -4.058744603952e-10 -6.856243647945e-10 -2.895621134542e-09 -4.310345976186e-06 9.657116279615e-07 -8.764749794994e-07 1.000000000000e-03 1.047197551197e-05 2.902187644249e-12 2.039619308957e-12 7.041261376422e-12
291 2 1.293985168636e-02 2.379530177683e-04 8.134663225059e-03 2.495225338343e-09 -1.814921896648e-09 -4.809916383151e-10 -5.579596467515e-07 8.898023348521e-07 1.491277748699e-06 1.000000000000e-03 1.047197551197e-05 -2.066008590031e-12 3.364781429932e-12 -8.241866930357e-12
292 2 9.848372546782e-03 5.033915707686e-03 6.294021176196e-03 3.005044311854e-09 -3.701358063843e-09 -1.537740662163e-09 2.812318155496e-07 9.235241086682e-07 -1.456687727395e-06 1.000000000000e-03 1.047197551197e-05 -1.326604304875e-11 1.105866261313e-11 8.812501070389e-12
293 2 1.298886899221e-03 8.382792088613e-03 7.335737235247e-03 1.149596930287e-07 -4.042467574159e-08 -1.570402957889e-07 5.941927535642e+02 1.782603568190e+03 -5.433854742570e+01 1.000000000000e-03 1.047197551197e-05 -2.503403121327e-10 8.057748242252e-11 3.450501198488e-10
294 2 9.635348572710e-03 1.095345379767e-02 5.581639255207e-03 1.782609128578e-09 -2.509747978332e-09 -1.027576553700e-09 -4.909056846439e-07 1.178543602769e-07 -1.385906047243e-06 1.000000000000e-03 1.047197551197e-05 -5.300276929004e-12 6.293870658473e-12 4.125978137935e-13
295 2 2.447529907297e-05 1.946535044187e-03 1.313446285704e-02 4.536950411292e-10 -2.931984659095e-09 8.163971733838e-10 -1.980575581753e-07 -3.132118108533e-07 -1.760352104560e-06 1.000000000000e-03 1.047197551197e-05 -1.057938842206e-11 1.276848943194e-11 -8.268733814739e-13
296 2 1.170935074801e-03 1.263309718784e-02 1.228482746213e-02 2.593897677722e-10 -3.403017181914e-09 -3.025309123506e-09 1.563785539741e-06 1.047244815143e-06 -8.589766940149e-07 1.000000000000e-03 1.047197551197e-05 -4.721794687903e-12 1.181177138108e-11 5.856935511926e-12
297 2 1.518861651893e-02 1.121509532364e-02 6.092083896010e-03 5.110824551361e-09 -8.363873702034e-09 -9.974822191246e-09 1.729115134752e-06 -1.417793451734e-06 5.915262410824e-06 1.000000000000e-03 1.047197551197e-05 -7.901315172617e-12 1.842372526599e-11 2.634244805396e-11
298 2 7.847713352227e-03 8.824871180002e-03 1.271897919350e-02 4.315057515636e-09 7.342393469021e-09 4.848419937396e-09 1.265070061932e-05 1.729081398462e-06 -8.339803067852e-06 1.000000000000e-03 1.047197551197e-05 -3.659084264273e-11 -1.561622132853e-11 -1.479834075104e-11
299 2 8.809316299826e-03 6.249575946406e-03 8.578656371128e-03 2.445376193158e-09 -2.582314924526e-09 -2.618826297537e-09 -3.834933686380e-06 -1.389215676649e-06 1.728240847852e-06 1.000000000000e-03 1.047197551197e-05 -1.237268431111e-11 8.577447982206e-12 1.314343938641e-11
300 2 8.729286271594e-04 1.272860813780e-02 9.397150521864e-03 -2.242558308552e-09 -1.312756189878e-09 -4.950402916600e-09 -1.814218229503e-06 -4.095775313796e-06 6.424668291889e-06 1.000000000000e-03 1.047197551197e-05 1.061733094833e-11 8.637894330880e-12 1.302025212003e-11
301 2 1.471706523168e-02 8.405530636205e-03 3.791872720444e-03 -8.759348580370e-09 -1.813346587729e-08 8.410092191911e-10 -8.988178623502e-06 5.669303584362e-06 2.771151903059e-06 1.000000000000e-03 1.047197551197e-05 1.954441128026e-11 4.736349295330e-11 -4.084989247219e-11
302 2 1.406855114863e-02 1.337696897488e-02 5.257899860115e-03 3.035426687359e-09 -3.614361465240e-09 -3.127180460189e-09 2.729454039936e-06 3.503623411793e-07 -1.324486684951e-06 1.000000000000e-03 1.047197551197e-05 -1.279591548075e-11 2.055127318810e-12 1.449673058583e-11
303 2 4.596386636880e-03 1.353713489554e-02 4.480320268745e-03 2.271793264142e-09 -1.640391350821e-09 1.473231945541e-10 -2.694108237704e-08 6.828322463060e-07 -5.904678601451e-07 1.000000000000e-03 1.047197551197e-05 -1.019840362217e-11 3.080082610604e-12 -3.604380165295e-13
304 2 2.452016147966e-04 1.225426045726e-02 7.594787258515e-03 2.891660331501e-09 -6.441739769172e-09 -7.102201048945e-09 -1.140058358695e-06 -1.108081316435e-07 -3.210292019186e-06 1.000000000000e-03 1.047197551197e-05 3.117906353943e-11 3.337937914078e-11 -1.403421403080e-11
305 2 6.720309746812e-03 1.352673120197e-02 1.291329524835e-02 6.179334195647e-09 5.068200509180e-09 -1.811406858905e-09 -6.862483151873e-06 3.470347777484e-06 1.470399279399e-06 1.000000000000e-03 1.047197551197e-05 -1.910696932277e-11 1.259731245582e-12 1.123355558384e-11
306 2 7.727442584117e-03 9.453188975428e-03 8.267298270337e-03 1.459125651379e-09 -5.091642185668e-09 -2.621255691435e-09 2.185395001959e-06 5.586760225930e-07 1.336704121259e-06 1.000000000000e-03 1.047197551197e-05 -1.266431132795e-13 1.405035968744e-11 1.066110482142e-11
307 2 1.466676163914e-02 3.414063397714e-03 9.378748961395e-04 -1.101570202795e-09 1.661011264808e-09 3.084007365432e-09 5.749452607056e-07 -2.726676380002e-06 -2.942152127239e-06 1.000000000000e-03 1.047197551197e-05 4.321698881265e-12 -7.381226781446e-12 -1.402250485803e-11
308 2 1.037134838931e-02 8.007190854906e-03 5.159876584650e-03 4.364080491088e-10 -2.157842640024e-09 -8.978229646373e-11 1.662639263127e-07 -9.034485404345e-07 4.397397469066e-07 1.000000000000e-03 1.047197551197e-05 1.628862899733e-11 -3.308446591591e-13 1.063320677745e-11
309 2 1.392054849563e-02 1.222917248059e-02 8.766561834863e-04 3.525767958061e-09 -2.159971661697e-10 1.852588767188e-09 -9.242867247083e-07 4.353079807059e-06 2.050035021145e-05 1.000000000000e-03 1.047197551197e-05 -4.045051816919e-11 -4.732603737084e-12 5.932461563615e-13
310 2 1.005102311534e-02 2.274488370180e-03 3.458233656631e-03 7.262999756451e-10 -1.797919700639e-09 -1.111928927114e-09 -3.543588558077e-07 2.039240015450e-07 -3.591931208186e-09 1.000000000000e-03 1.047197551197e-05 -1.225717159219e-11 9.556235720690e-12 -8.132888730989e-13
311 2 1.329317851918e-02 5.656610566382e-04 1.453378725404e-02 1.425970157370e-10 -1.503923604628e-09 3.506416672954e-10 -1.553640830607e-06 5.533766043765e-09 -9.779673929437e-09 1.000000000000e-03 1.047197551197e-05 1.504737359410e-12 3.820257003323e-12 -4.745112992335e-13
312 2 6.017353193904e-04 1.396551507997e-02 1.089493440063e-02 -8.545784959867e-10 -1.817494854601e-09 -2.043943131355e-09 4.158585281579e-06 2.680617975882e-06 -1.161014719986e-05 1.000000000000e-03 1.047197551197e-05 6.347475366069e-12 4.188494688946e-12 4.858346253953e-12
313 2 1.051997975248e-02 1.459033672403e-02 6.004039135175e-03 1.581742424904e-09 -3.243959812290e-09 -1.576545244817e-09 -2.883173026020e-07 1.400739670518e-06 1.090297951295e-06 1.000000000000e-03 1.047197551197e-05 -3.870093877736e-12 -2.087187315855e-12 -4.320510209034e-12
314 2 4.123387072961e-03 1.103965359514e-03 8.866684838817e-03 8.062364643969e-10 -3.585926609072e-09 3.615169508042e-10 1.417278817611e-06 -3.523998537686e-06 1.650511345024e-06 1.000000000000e-03 1.047197551197e-05 -1.324107098001e-12 1.076659919012e-11 2.988497775024e-13
315 2 1.239156166354e-02 1.069070477149e-02 1.442278263436e-02 -1.569890063481e-09 -7.146203195273e-09 1.727621347960e-09 -4.074250497207e-06 6.399264006997e-06 1.654185617673e-05 1.000000000000e-03 1.047197551197e-05 2.991078270395e-12 2.692122668647e-11 -5.804734438258e-12
316 2 2.438879674504e-03 2.872909172293e-03 1.451126714091e-02 -3.833851584137e-10 -1.270535157418e-09 3.454604608719e-10 -8.894319647092e-07 2.781549365910e-07 -9.666737369220e-07 1.000000000000e-03 1.047197551197e-05 1.679000583471e-12 4.636369238199e-13 -3.866504595543e-12
317 2 1.221560240184e-03 1.922363868376e-03 3.880177760473e-03 1.137469557656e-09 -1.679979176892e-09 3.035051680719e-09 2.406402732959e-06 1.886072702877e-06 -1.687302159390e-06 1.000000000000e-03 1.047197551197e-05 -4.785133766276e-12 1.653226312242e-12 -7.186177621633e-12
318 2 2.975851591693e-03 1.462172519689e-03 9.303595152177e-04 -1.034436452716e-09 1.317841679983e-10 9.672174262684e-12 6.214876441889e-08 -8.790627329297e-07 7.123070600705e-07 1.000000000000e-03 1.047197551197e-05 7.860449427259e-12 -2.500431283348e-12 -9.993690203778e-13
319 2 1.148878102366e-04 7.447213750912e-03 1.003317992236e-02 -3.611097722680e-09 -5.074065936475e-09 3.173716673383e-09 -3.824173234718e-06 8.319054753123e-06 -5.827669346185e-06 1.000000000000e-03 1.047197551197e-05 2.542750785412e-11 2.662162392473e-11 -3.011550745270e-11
320 2 2.427283384384e-03 1.480948129148e-02 4.699616366478e-03 2.878354978885e-09 1.412442192620e-10 -9.196552173827e-10 3.783815108885e-07 9.111165698760e-08 -2.550984948634e-06 1.000000000000e-03 1.047197551197e-05 -1.337307566077e-11 -3.059641358293e-12 5.224650417182e-12
321 2 1.399711030590e-02 2.434374078843e-03 1.185148554157e-02 7.052982887702e-10 -2.028707468842e-09 2.874299767970e-10 -1.121313254366e-06 -5.873602985769e-08 -6.167780565852e-07 1.000000000000e-03 1.047197551197e-05 -1.369488011380e-12 7.520726011599e-12 2.728629802650e-12
322 2 1.494133099523e-02 3.121709261540e-03 6.810763484698e-03 1.769873515735e-09 -1.567616167045e-09 7.084634487923e-10 3.584923640929e-06 -2.008541087768e-07 6.858825592695e-07 1.000000000000e-03 1.047197551197e-05 2.003274152533e-12 -1.570009331061e-12 1.884388565653e-12
323 2 9.151602128172e-03 1.131400714777e-02 9.098022363264e-04 -1.943947595636e-09 -9.569107501651e-10 3.320761593244e-10 9.032284999258e-07 -1.712234998167e-06 7.372336718009e-07 1.000000000000e-03 1.047197551197e-05 7.296673700880e-12 5.343160623958e-12 -1.166138709961e-12
324 2 1.400428002842e-02 9.048801689923e-03 1.447035085099e-02 1.672520844823e-09 -7.965273042354e-10 -8.762549848940e-10 -1.038647522927e-06 -2.310571174458e-06 7.996694685577e-06 1.000000000000e-03 1.047197551197e-05 -8.789352584490e-12 2.059489053983e-12 4.889686662999e-12
325 2 1.039644709654e-02 1.076807233324e-02 1.114362473980e-02 1.476460385259e-09 1.448678304728e-09 5.894853591466e-10 -8.658370168985e-06 -1.136923267849e-05 -1.181159892276e-05 1.000000000000e-03 1.047197551197e-05 1.694549657665e-11 -4.902587559413e-12 -2.037108541720e-11
326 2 7.505386602207e-03 2.785512351176e-03 6.459206341885e-03 1.836486030106e-09 -1.797835833077e-09 2.783994067599e-10 -1.227603415252e-06 -6.627292948926e-07 -4.137974141493e-07 1.000000000000e-03 1.047197551197e-05 -8.485884141189e-12 2.687091650155e-12 1.757007821471e-12
327 2 9.937029761160e-04 8.671879539533e-03 1.125464393625e-02 1.446500903321e-09 -5.141604163039e-09 -2.795015629279e-09 -8.274068620800e-07 -2.378651211970e-06 3.960270892957e-07 1.000000000000e-03 1.047197551197e-05 -8.560892427507e-12 2.028652888881e-11 5.552297616930e-12
328 2 1.533547234637e-02 1.407258157561e-02 1.268424498634e-02 1.017359422113e-09 -2.884398291803e-09 -8.360895757272e-10 1.910752847578e-06 -1.550200777164e-06 -6.806743458890e-07 1.000000000000e-03 1.047197551197e-05 -4.580063784000e-12 1.769809188051e-11 -2.061943047794e-13
329 2 4.464238679374e-04 1.237261770070e-02 1.105635704136e-03 -1.321857782071e-10 9.074858622695e-09 -3.141593418471e-09 1.585982775195e-05 1.300727576177e-06 -9.169573357295e-06 1.000000000000e-03 1.047197551197e-05 2.230932129701e-11 -1.287300334498e-11 3.612872772866e-12
330 2 8.963178009778e-04 2.962246646250e-03 9.830930074475e-03 1.691655782227e-09 -4.144617368816e-09 1.675945356369e-09 2.829770125775e-07 2.726050810670e-06 8.988801627821e-07 1.000000000000e-03 1.047197551197e-05 -4.733623647154e-12 1.031098840192e-11 -1.365762249127e-11
331 2 6.626211176683e-03 1.393233565454e-02 8.987395597747e-03 1.996187547515e-09 -4.782810694052e-09 -1.569500077682e-09 -1.646944840702e-07 1.039607332333e-07 -1.735939252410e-07 1.000000000000e-03 1.047197551197e-05 -6.165727033253e-12 1.531434582408e-11 3.897884198289e-12
332 2 1.352828831120e-02 1.425854582541e-02 1.124817263426e-02 3.403585555390e-09 -1.162670084266e-09 -1.338916988521e-09 1.771273949847e-06 1.201131088577e-06 4.201325801916e-06 1.000000000000e-03 1.047197551197e-05 -9.595086664690e-12 4.280012463649e-12 1.928212605081e-12
333 2 5.156605002046e-03 8.767171364260e-04 5.644902181123e-03 1.562940914893e-09 -2.402962789823e-09 -2.962335104599e-10 -1.410030578784e-06 1.425010830692e-06 7.937059099430e-07 1.000000000000e-03 1.047197551197e-05 -3.384418810405e-12 7.801433608325e-12 2.170190893750e-12
334 2 9.426354293923e-03 1.370896486899e-02 3.951194023172e-03 1.450160590435e-09 -1.646635456172e-09 2.436409451360e-12 -5.334164711816e-07 4.066411408075e-08 -2.321258093968e-07 1.000000000000e-03 1.047197551197e-05 -1.510503516516e-12 7.588393610028e-13 1.078089047482e-12
335 2 6.135620883640e-03 8.096236605712e-03 1.318706390576e-02 -6.610211384465e-10 5.180652777830e-09 -1.021331913308e-09 4.151203697691e-06 -2.113093669885e-06 4.517790372376e-06 1.000000000000e-03 1.047197551197e-05 -6.249900191145e-12 -1.418061833290e-11 -8.327407786405e-12
336 2 7.352170261399e-03 1.183575452602e-02 1.250496301474e-02 -1.314869652047e-08 -4.943114000284e-09 -3.850513153338e-09 1.996761669235e-05 -3.470490151723e-05 -3.156015959318e-05 1.000000000000e-03 1.047197551197e-05 5.896167927878e-11 8.220783264050e-12 1.095390586056e-11
337 2 5.173945204519e-03 3.854977775208e-03 8.978703034196e-03 8.001878175606e-10 -1.143396809540e-09 3.496977388738e-10 1.814134388532e-07 4.291200226602e-07 -1.812491698551e-06 1.000000000000e-03 1.047197551197e-05 -1.710945856468e-13 9.562125839126e-12 -2.099740567305e-12
338 2 1.516256746075e-02 1.006461023157e-02 9.155042806431e-04 -1.591867049388e-08 -2.066047348502e-10 -4.715896664697e-09 -2.230671961939e-06 -1.555552152622e-05 1.380103308911e-05 1.000000000000e-03 1.047197551197e-05 4.996622254313e-11 6.778181033149e-12 4.410919602372e-12
339 2 3.118706977152e-03 1.174815723481e-02 9.180011280761e-03 1.843249539852e-09 -6.247838273720e-09 -6.786369294170e-09 1.439572556306e-06 -5.287505691706e-06 -3.170129246525e-07 1.000000000000e-03 1.047197551197e-05 -2.151908418234e-11 1.395266508152e-11 2.365744025642e-11
340 2 3.753732702945e-03 2.879766017243e-03 1.318962876896e-02 -2.020190122217e-10 -4.553390236295e-09 2.017992305204e-09 -6.090105910471e-07 -2.653472544880e-06 -2.112229835235e-06 1.000000000000e-03 1.047197551197e-05 7.920906071081e-12 1.246230958729e-11 -2.728244857116e-12
341 2 9.254431605483e-03 8.107229886577e-03 2.739912641910e-03 2.748876331276e-10 -1.830091932363e-09 -8.526353056307e-10 -7.843863778806e-08 2.771651054670e-07 -1.449563854556e-06 1.000000000000e-03 1.047197551197e-05 2.999215159568e-12 5.279685664351e-12 6.653215185024e-12
342 2 5.528670290486e-04 1.115590648628e-02 4.324704216339e-03 4.173737167760e-09 -6.197014755157e-09 -1.181201349162e-08 3.805124679000e-06 2.236908649111e-07 -7.857342184335e-06 1.000000000000e-03 1.047197551197e-05 -1.256659432160e-11 1.098031252019e-11 2.928499656160e-11
343 2 4.394886467676e-04 1.773595160431e-03 1.125375512462e-02 1.673698544948e-09 -3.623037835850e-09 1.101531443011e-09 4.772435949344e-07 -9.610884068169e-07 -3.045859231367e-06 1.000000000000e-03 1.047197551197e-05 -8.876077535172e-12 1.348093273212e-11 -7.102919717479e-12
344 2 1.028911339265e-02 9.355764733810e-03 3.824936876639e-03 2.233083606017e-09 -3.066623555903e-09 -8.040183883180e-10 -1.191687492648e-06 -3.708487717628e-07 -2.040122449186e-06 1.000000000000e-03 1.047197551197e-05 -4.823406838099e-12 5.967034048266e-12 3.925265108460e-12
345 2 4.756592125476e-03 6.510988985337e-03 1.347439862610e-02 4.193159093452e-10 -2.644913520404e-09 -6.449010892357e-10 -1.762568702271e-06 8.903539871373e-08 4.001225825561e-06 1.000000000000e-03 1.047197551197e-05 -1.019263905547e-13 1.140414416060e-11 9.690760817217e-12
346 2 3.161844390661e-03 7.283480829101e-04 6.862164773083e-03 9.647700420587e-10 -3.622743250451e-09 -6.412693433053e-10 1.367715868525e-07 -8.127125008083e-07 -6.239856153944e-07 1.000000000000e-03 1.047197551197e-05 3.632283836875e-12 3.651794480656e-12 5.742902953984e-12
347 2 9.943711204085e-03 5.638770933632e-04 2.458115661604e-03 8.691615023588e-10 -1.814290991045e-09 -1.743495496174e-10 -6.983131912787e-07 -9.086282822416e-09 -1.096182572261e-07 1.000000000000e-03 1.047197551197e-05 -3.749815646920e-12 5.372855990677e-12 -1.473328027655e-12
348 2 8.073078604788e-03 1.052609156891e-02 1.425408679483e-02 -2.779241956301e-07 1.269780170731e-06 -2.577336881255e-06 2.275996680683e-02 1.953095606803e-03 -1.492078287768e-03 1.000000000000e-03 1.047197551197e-05 9.849911355650e-10 -4.509108183088e-09 9.156727218626e-09
349 2 1.081942004182e-02 9.486869805108e-03 1.269050937290e-02 -8.613644868281e-10 -1.893099815932e-09 2.423356000894e-09 4.113887406433e-06 -2.514017272070e-07 1.057655189888e-06 1.000000000000e-03 1.047197551197e-05 5.254460896397e-12 6.006488459969e-12 -8.457599329571e-12
350 2 9.456820173608e-04 1.093120701127e-02 1.444085477949e-02 -2.042613122269e-09 3.268572504027e-09 -4.502110317712e-10 3.284543042186e-06 1.304715331360e-06 1.230543752895e-05 1.000000000000e-03 1.047197551197e-05 8.001117413845e-12 -1.269067215451e-11 2.709760670410e-12
351 2 4.260292859995e-03 1.510133352379e-02 1.027590376680e-02 1.216881965810e-09 -4.867161121639e-09 -1.160295445242e-09 8.953974413136e-07 -4.110309208085e-07 3.341155646389e-06 1.000000000000e-03 1.047197551197e-05 -9.172823831518e-13 1.346356983360e-11 9.509928050464e-13
352 2 1.811235223066e-03 1.321338583889e-02 7.620173948490e-03 2.759580285951e-09 -5.376101513029e-09 -2.898606351232e-09 1.796905606293e-06 -3.523431914399e-06 3.860848992275e-06 1.000000000000e-03 1.047197551197e-05 -7.644185172172e-12 1.650621062764e-11 4.988276684359e-12
353 2 2.424905244742e-03 7.212162736487e-03 8.273136623736e-04 5.096125860407e-10 -3.845168821865e-10 1.176933844578e-09 1.422410735751e-06 3.161382702870e-06 4.264322154193e-06 1.000000000000e-03 1.047197551197e-05 -1.266820139737e-13 -6.618195684169e-12 1.751697708862e-11
354 2 1.412662455369e-03 1.342461533931e-02 2.703963024333e-03 3.770730412396e-09 5.040781657827e-09 -1.035382793244e-09 -1.101193198873e-06 -1.100300184196e-06 -1.870874021440e-06 1.000000000000e-03 1.047197551197e-05 1.711375921141e-12 -2.144428264153e-11 2.008025288115e-12
355 2 5.243783186729e-03 1.720162983064e-03 1.347348857545e-02 -2.222255565437e-09 -8.532080411870e-09 7.086867770745e-10 1.023974628283e-05 -1.580110949049e-06 6.980216787915e-07 1.000000000000e-03 1.047197551197e-05 3.360175356310e-12 3.660571149433e-11 -4.674951614571e-13
356 2 5.988487261194e-03 1.315235665437e-02 5.820005759197e-03 2.109263785744e-09 -2.256651405603e-09 -4.230479141974e-11 7.301709491319e-07 -7.849767654187e-07 9.577791684968e-07 1.000000000000e-03 1.047197551197e-05 -7.989013377011e-12 5.348987231791e-12 1.891880107338e-12
357 2 1.637449615311e-03 2.279501247491e-04 1.445837928037e-02 1.042328818201e-09 -2.630254160335e-09 5.078852533564e-10 -1.862626500580e-06 -1.041463701561e-06 1.220733829883e-06 1.000000000000e-03 1.047197551197e-05 -2.913157739855e-12 7.926382662214e-12 -4.660023201976e-13
358 2 1.459752656313e-02 8.529349436887e-03 1.947304011447e-03 -2.690332553131e-09 1.532923744385e-11 6.005892555349e-09 2.654093879191e-05 -1.313217974822e-05 -3.185980930929e-06 1.000000000000e-03 1.047197551197e-05 3.974578784937e-12 1.747469480160e-12 9.811462298081e-12
359 2 2.790720196246e-03 5.793161434452e-03 1.225520395843e-02 2.383917618620e-10 -4.468569685430e-09 5.428637121894e-10 7.817361858350e-07 -1.534126247294e-06 2.944522275586e-06 1.000000000000e-03 1.047197551197e-05 -2.629405152189e-12 1.782352693208e-11 -1.913260528019e-12
360 2 1.272921822622e-02 5.295550504875e-03 6.258358485594e-03 -7.741874854118e-10 -4.824838596360e-09 -5.312168514098e-09 5.677725874927e-06 2.063318179163e-06 1.057230215678e-06 1.000000000000e-03 1.047197551197e-05 7.050386523675e-12 1.429461686721e-11 2.863863101239e-11
361 2 8.662815352408e-03 8.528815332985e-03 4.518901435126e-03 7.982729483998e-10 -1.492948032326e-09 -1.190018743752e-09 6.423091783296e-07 -2.980025436884e-07 -7.444274082011e-07 1.000000000000e-03 1.047197551197e-05 -1.686933346404e-11 1.007374040733e-11 -1.285411993951e-12
362 2 8.421766187141e-03 9.499364208000e-03 6.414440027419e-03 1.695244588638e-12 -2.826740205799e-09 -2.528754941853e-09 3.073615455898e-07 1.367676354188e-06 1.863746511571e-07 1.000000000000e-03 1.047197551197e-05 1.626527337844e-12 1.029282657338e-11 5.410324774782e-12
363 2 4.432205546007e-03 1.040681331206e-02 9.591588743297e-03 2.339506384505e-09 -5.480738383687e-09 -2.543131063276e-09 1.605234953278e-06 -2.305018437131e-06 -1.043878646115e-06 1.000000000000e-03 1.047197551197e-05 2.737535743527e-12 2.119649841245e-11 1.815040716516e-12
364 2 1.168855355111e-02 5.101875309316e-03 1.148187365463e-02 6.530143252322e-10 -9.113639056083e-10 -1.532338260692e-09 5.088060324135e-09 -3.989388907590e-07 5.008510341988e-08 1.000000000000e-03 1.047197551197e-05 -3.816394710258e-12 3.726094786182e-12 8.248081130458e-12
365 2 7.862310563705e-03 1.009954526491e-03 1.066847602624e-02 1.455446489480e-09 -1.100057398123e-09 -3.727388714508e-09 -5.720044438918e-06 -1.325952485257e-06 -1.980172755935e-06 1.000000000000e-03 1.047197551197e-05 -4.913199086326e-12 1.484466539658e-12 1.294510377907e-11
366 2 3.225450674331e-03 1.357314892213e-02 1.442652730432e-02 4.859170802483e-09 -2.191152779831e-09 -7.654799403351e-10 -8.917138404073e-07 -3.598359779465e-06 4.792584587793e-06 1.000000000000e-03 1.047197551197e-05 -1.886435118368e-11 4.976589448909e-12 8.359674251061e-13
367 2 8.884912543059e-03 4.874577554847e-04 5.546306442632e-03 1.601214414143e-09 -1.636473703709e-09 -4.991788308312e-10 -3.374347775265e-07 -4.239554096537e-07 -2.818716664167e-07 1.000000000000e-03 1.047197551197e-05 -7.652050650047e-12 9.563153317960e-12 -3.481854274327e-13
368 2 3.133774188645e-03 8.780536431928e-03 8.808234970667e-03 -9.282656696222e-10 -6.982103953854e-09 -3.681442049254e-09 3.072610963088e-08 -5.134089327102e-07 -7.998242241778e-07 1.000000000000e-03 1.047197551197e-05 3.569376553517e-12 2.786085705848e-11 1.054222092197e-11
369 2 1.166968518188e-02 1.704345231254e-03 9.493320609198e-03 1.991367618952e-09 -2.018151100222e-09 -5.758198658456e-10 1.827447615217e-07 1.525136877724e-07 7.572043686179e-10 1.000000000000e-03 1.047197551197e-05 -1.657827620681e-11 9.830076691838e-12 3.111456098444e-11
370 2 7.865350136658e-03 4.515584626686e-03 5.666837118583e-03 2.771819451891e-09 -2.794183702047e-09 -1.250085226333e-09 -7.689093248179e-07 -1.642376313798e-07 -4.330419994948e-07 1.000000000000e-03 1.047197551197e-05 -1.242771484768e-11 7.106655478609e-12 3.509065729302e-12
371 2 9.598447366409e-03 1.328339904248e-02 7.081359801252e-03 2.774689279712e-09 -3.751479083941e-09 -2.572919235066e-10 -3.301933808068e-07 -9.503052344624e-08 5.194830440033e-07 1.000000000000e-03 1.047197551197e-05 -1.336021134201e-11 1.025821864373e-11 -1.228473348626e-12
372 2 5.462805111727e-03 3.299674461167e-03 2.754411425568e-03 -4.228768955142e-10 -6.283899364189e-10 1.081608437870e-09 1.066157602140e-06 -1.658441527142e-06 1.628062230344e-07 1.000000000000e-03 1.047197551197e-05 -4.535544516856e-13 1.640001217806e-12 -7.585878539279e-12
373 2 9.744627663885e-03 2.896274038084e-03 8.797828179207e-03 1.851823243551e-09 -2.745236654542e-09 -6.434015083462e-10 -7.431416874502e-07 1.069986697320e-06 -3.246284514578e-06 1.000000000000e-03 1.047197551197e-05 -7.496747696083e-12 1.895109573080e-11 -1.268638638899e-11
374 2 1.359023777259e-02 4.430374698735e-03 4.691321665946e-03 9.824225874135e-10 -6.619850843350e-09 -9.265111642510e-09 -4.860238023998e-06 -3.739452578131e-06 3.477023584272e-07 1.000000000000e-03 1.047197551197e-05 -5.866869443742e-12 9.911050381735e-12 3.344090854100e-11
375 2 1.126886975360e-02 5.954943809770e-03 5.171811081360e-03 8.537474052157e-10 -1.197142736965e-09 -3.345464746310e-09 1.810196248449e-06 -4.176682560473e-06 -4.883968140000e-08 1.000000000000e-03 1.047197551197e-05 -5.433143488442e-12 -1.892148438532e-12 1.636705037373e-11
376 2 3.436312886891e-03 1.425370026062e-02 3.200132785975e-03 2.595296182242e-09 1.209553789795e-10 -2.797034583196e-10 1.029461998394e-06 -8.933534258317e-07 5.544609258410e-07 1.000000000000e-03 1.047197551197e-05 -9.992554809335e-12 1.459736287904e-12 7.072744135557e-13
377 2 1.036643371084e-02 2.562960700261e-03 1.295375408833e-02 8.253285912875e-10 -1.620042934596e-09 -6.588790209709e-10 6.791337844000e-07 -1.150302864263e-06 -9.589905504857e-07 1.000000000000e-03 1.047197551197e-05 -9.268766880726e-12 -5.021947507092e-13 1.423362978098e-11
378 2 4.423754291612e-03 4.863367981565e-03 1.445172209790e-02 4.666735851296e-10 -1.544009365154e-09 6.011866875737e-10 -1.212042525777e-06 -6.767787710763e-07 -3.190163147183e-06 1.000000000000e-03 1.047197551197e-05 -1.568518581040e-13 2.310998922592e-12 3.325537103585e-12
379 2 1.310831330023e-02 1.515186037026e-02 6.342087074842e-03 1.932811127167e-09 -3.503431847581e-09 3.159627299085e-10 -1.395588284073e-06 3.707463433643e-07 2.250313040696e-06 1.000000000000e-03 1.047197551197e-05 -8.565833733819e-12 1.200007740101e-11 1.214434440854e-11
380 2 1.353208071834e-02 5.723513431868e-03 7.965619649012e-03 2.365552127327e-09 -3.884936712651e-09 -8.362754030947e-09 -8.200950595678e-06 7.779711344602e-06 -1.300873997347e-07 1.000000000000e-03 1.047197551197e-05 -1.057175080976e-11 4.865414170828e-12 3.835716263948e-11
381 2 6.555559607029e-03 1.015637821612e-02 1.268734567762e-02 -1.809722150378e-08 -8.091472544358e-09 -1.199575160625e-10 -3.314092434247e-05 1.243262706488e-05 3.762213257317e-05 1.000000000000e-03 1.047197551197e-05 7.333786921226e-11 1.996894925957e-11 4.730459035674e-13
382 2 8.681669683456e-04 8.433886235182e-03 9.461120697527e-04 4.031525638769e-09 9.190293618658e-09 1.815810269603e-08 -1.698996031658e-05 3.059066709654e-06 8.657226854043e-06 1.000000000000e-03 1.047197551197e-05 -1.714297301374e-11 -1.820598420388e-11 -3.501599989972e-11
383 2 1.484595787661e-02 8.587207150931e-03 8.691215167677e-03 9.082065973390e-10 -4.871610772498e-09 -1.786814944999e-09 -2.543023602367e-06 -4.773477961458e-06 -2.664655683046e-06 1.000000000000e-03 1.047197551197e-05 1.192643800449e-11 2.920087013137e-11 4.007488984098e-11
384 2 1.310326420822e-02 1.298779446922e-02 9.988567926028e-03 5.261003278116e-09 -1.364744756909e-09 -3.604867143181e-09 2.500217602992e-07 2.298433426338e-07 1.844987155293e-07 1.000000000000e-03 1.047197551197e-05 -1.504464699804e-11 -2.264486560713e-12 1.077564131768e-11
385 2 6.482297105017e-03 1.132269846395e-02 5.904261404435e-03 1.403758797878e-09 -1.987962664141e-09 -6.315373298178e-11 2.746587049145e-07 -9.075980667220e-07 -1.698676248786e-06 1.000000000000e-03 1.047197551197e-05 -3.280221515102e-12 6.320518080441e-12 5.156228292181e-12
386 2 6.366528479816e-03 1.427855863190e-02 1.452421689008e-02 3.363742584394e-10 5.736815791508e-09 6.100517855374e-10 1.946711561969e-06 4.204664710225e-06 3.895006172827e-05 1.000000000000e-03 1.047197551197e-05 -8.516187397411e-12 -6.763780546396e-12 -1.675571992745e-12
387 2 9.028117705488e-03 1.405296368992e-04 1.449786887972e-02 -1.394639529443e-09 -7.403601209289e-10 -5.839053905344e-10 -6.604264161982e-08 9.103670281701e-07 2.793634896669e-07 1.000000000000e-03 1.047197551197e-05 9.854603227590e-12 6.990490391504e-12 -3.164801907221e-12
388 2 1.404886857570e-02 1.826362835021e-03 4.648181116885e-03 3.604565271439e-09 -3.470002160305e-09 9.694367871144e-10 1.454536590635e-06 -3.474644930118e-06 -6.404674986636e-07 1.000000000000e-03 1.047197551197e-05 -1.490057256286e-11 1.182260137307e-11 -3.211114731391e-12
389 2 7.099473681229e-03 4.491551278940e-03 2.336847276184e-03 -4.625847215370e-10 -1.827941453356e-10 4.829752414712e-10 3.547656873956e-07 3.784466754680e-07 2.338767798138e-07 1.000000000000e-03 1.047197551197e-05 1.442433318172e-11 3.592623975082e-12 -4.326887749331e-12
390 2 2.270169226680e-03 1.206739877498e-02 1.087164058951e-02 -6.598955952566e-10 -4.631444279230e-09 -5.607801658098e-09 -2.556312472106e-06 2.129207934031e-06 8.166407753559e-07 1.000000000000e-03 1.047197551197e-05 -7.034860997959e-13 1.407284733043e-11 1.552010561566e-11
391 2 1.338614035047e-02 7.456594698376e-03 4.827198449904e-03 -2.410143554801e-09 -8.742545647126e-09 6.044371243538e-09 -8.038425767621e-06 -9.624685846017e-07 5.661072079426e-07 1.000000000000e-03 1.047197551197e-05 1.072959620177e-11 2.420780586240e-11 -2.428201767661e-11
392 2 4.501639045606e-03 4.790170401835e-03 1.250533543651e-02 3.348326558814e-09 -4.667732720421e-09 1.107870401816e-09 -5.027529145633e-07 -1.847416904914e-06 -3.814547810006e-06 1.000000000000e-03 1.047197551197e-05 -1.085440736168e-11 1.926298605846e-11 -2.367585009080e-12
393 2 7.084656455495e-03 6.673946225747e-03 8.936268814110e-04 -8.694813463592e-10 -1.594676718880e-09 3.330351838717e-10 1.672284669329e-06 -7.508085358387e-07 1.570173399063e-06 1.000000000000e-03 1.047197551197e-05 1.761909724873e-11 -6.294289347391e-12 1.827904077836e-12
394 2 9.895201484862e-03 7.519709974942e-03 9.192299996147e-04 -6.954508096391e-11 3.743579294730e-10 -9.455892444770e-10 -2.894127909417e-07 1.214786945638e-07 1.404031391225e-06 1.000000000000e-03 1.047197551197e-05 -1.433652202089e-12 -2.544725669740e-13 4.168768708202e-12
395 2 8.729578550630e-03 1.247696524765e-02 1.425896910828e-02 -1.332122429303e-08 -1.899630573997e-08 -1.690524791054e-08 9.216496798388e-06 -1.622909265767e-05 5.072246368218e-05 1.000000000000e-03 1.047197551197e-05 4.222003826468e-11 6.765660489603e-11 6.715521264818e-11
396 2 9.834255682554e-03 1.831235996158e-03 1.449348071707e-02 -4.242640533108e-10 -9.617551317250e-10 -3.425288852080e-10 -1.376284746079e-07 1.201488516001e-06 -2.245532487760e-06 1.000000000000e-03 1.047197551197e-05 8.088912030962e-12 1.391227948958e-11 -2.442440563790e-11
397 2 4.868262685784e-03 1.275761840638e-03 1.033169107822e-03 -6.410483466482e-10 1.452232715853e-09 -4.012047414699e-10 1.225073408884e-06 1.183533078244e-06 5.909992992968e-07 1.000000000000e-03 1.047197551197e-05 5.313565952057e-12 -2.498049536358e-12 -1.085374441025e-12
398 2 1.110447486316e-02 7.636092216653e-03 1.445614759993e-02 7.422534134242e-10 1.200120952468e-09 -7.162433948470e-10 -5.387892975132e-07 -1.621638621571e-06 -6.224628248813e-06 1.000000000000e-03 1.047197551197e-05 -7.732253304527e-12 -7.599278772971e-12 -6.340212957444e-13
399 2 6.256216648694e-03 1.011860213747e-02 9.427114095224e-03 1.511777003270e-09 -4.467578977480e-09 1.840398631170e-09 -4.317772978420e-06 -8.859984045498e-07 8.126183403427e-07 1.000000000000e-03 1.047197551197e-05 -1.495965477327e-11 1.467194150185e-11 -6.588522770337e-12
400 2 1.372016101623e-03 1.319422646886e-02 4.615151998821e-03 1.951346638719e-09 2.137626551651e-09 -4.099810929382e-09 4.165550534731e-06 3.782618224572e-07 5.196986304543e-08 1.000000000000e-03 1.047197551197e-05 -2.793921882462e-11 1.286068913601e-11 3.226429209864e-11
401 3 4.029289876472e-03 2.775139629784e-03 7.469107228522e-03 9.922191913331e-10 -2.335377469459e-09 1.267242653476e-09 -8.676297460442e-07 -6.487656879840e-07 2.246210236746e-06 1.250000000000e-03 2.045307717181e-05 -7.423149473168e-12 7.313064129611e-12 -1.356414343698e-11
402 3 1.036976805367e-02 2.700046683055e-03 1.084432349697e-02 2.251961508390e-09 -1.884923849035e-09 -1.011810538967e-09 -5.419947218705e-07 -1.020470457881e-07 7.563436957169e-07 1.250000000000e-03 2.045307717181e-05 -2.045592157069e-11 9.045409235343e-12 1.756186894119e-11
403 3 4.462939651655e-04 6.354010636506e-03 1.343767162794e-03 4.227096778526e-09 6.342139269437e-11 7.703466577190e-09 2.173046957301e-05 9.511687826244e-06 -7.153191117579e-06 1.250000000000e-03 2.045307717181e-05 -1.231036196734e-11 -1.349348900622e-12 -4.820739793590e-11
404 3 3.149376123551e-03 8.902638817080e-03 2.984535838249e-03 -5.095658230319e-10 7.633470313477e-09 3.783100281692e-09 8.710997115726e-07 2.512012028901e-06 -3.092152376629e-06 1.250000000000e-03 2.045307717181e-05 -1.188641622573e-12 -4.905898085632e-11 -3.591163473287e-11
405 3 5.873568129283e-03 1.225071540866e-02 1.142336908185e-03 9.575317536310e-10 -1.998967952541e-10 -1.907241134730e-10 3.126146217779e-08 4.613301298966e-07 3.179222852359e-07 1.250000000000e-03 2.045307717181e-05 9.293858008518e-13 -3.179537259715e-12 -2.985627183067e-12
406 3 4.224758695043e-03 1.114633789497e-02 3.093292654004e-03 2.412886070893e-09 1.788036014039e-09 -1.944468283424e-10 1.920474447618e-07 1.050377608969e-06 9.886269205823e-07 1.250000000000e-03 2.045307717181e-05 -9.686387160144e-12 -1.258311002732e-11 -7.287721670142e-12
407 3 1.344238043675e-02 1.077534733432e-02 2.390165303339e-03 -1.613643920770e-08 7.717462829527e-09 1.132963684954e-08 1.869457390252e-05 9.390730878677e-06 1.544650857895e-05 1.250000000000e-03 2.045307717181e-05 1.206719574325e-10 -5.717877289259e-11 -7.012729151171e-11
408 3 2.926157251760e-03 1.476909665253e-02 8.561267795805e-03 1.439572827936e-09 -4.978480438318e-09 -1.583185539278e-09 1.248898762617e-06 2.334872391273e-06 -4.270295785660e-07 1.250000000000e-03 2.045307717181e-05 -2.361915609504e-11 4.603810650883e-11 1.956664599740e-11
409 3 1.670840612028e-03 2.247081338311e-03 7.040680602263e-03 1.630384612579e-09 -4.064193420930e-09 1.709424041873e-09 2.751795010843e-06 5.540006925665e-07 4.269536072105e-07 1.250000000000e-03 2.045307717181e-05 -6.806764330896e-12 2.654197769601e-11 -2.339543284029e-11
410 3 1.232978751317e-02 1.323253944028e-02 1.791412325437e-03 -2.289919180312e-09 -5.491736638168e-09 1.517005399048e-09 -4.753969953826e-06 3.735596072136e-07 -4.409457755688e-06 1.250000000000e-03 2.045307717181e-05 2.275455276926e-11 3.169622346994e-11 -4.636725376004e-12
411 3 2.590750003556e-03 9.974877333343e-03 1.059487635872e-02 1.308868898278e-09 -5.031311695786e-09 -2.912989917452e-09 -3.515793094112e-07 1.502419327617e-06 5.774853779378e-07 1.250000000000e-03 2.045307717181e-05 -1.395836411517e-11 3.252230913164e-11 2.281791952323e-11
412 3 7.947735789938e-05 3.438423533852e-03 4.723405180574e-03 1.235759759842e-09 -2.842633190369e-09 7.318923125294e-10 -5.924200409291e-06 -3.256518021835e-07 2.641134210440e-06 1.250000000000e-03 2.045307717181e-05 -1.743146783696e-11 9.361437359946e-12 -6.530414883421e-12
413 3 1.419510246624e-02 1.497633703130e-02 1.088756634937e-03 6.080005029400e-10 -1.923022045632e-10 -1.225658631070e-10 3.547841670767e-07 2.013388316992e-07 2.412198605579e-06 1.250000000000e-03 2.045307717181e-05 -2.574552304881e-12 8.946601984620e-12 6.054732174460e-12
414 3 4.449089833610e-03 1.181659600040e-02 1.118995509142e-02 -8.635044830480e-10 -2.942615273573e-09 -1.740079187546e-09 -2.125122740949e-06 -3.764300746609e-06 3.560563619655e-07 1.250000000000e-03 2.045307717181e-05 9.094696681082e-12 2.256979087665e-11 9.537037345547e-12
415 3 1.125746399361e-02 1.458407053989e-02 3.527933809644e-03 1.371889397690e-09 -1.812268799465e-09 -4.942098616529e-10 1.114288629175e-06 5.185836139407e-07 -2.005267299201e-07 1.250000000000e-03 2.045307717181e-05 -4.731987573113e-12 9.470460454223e-12 -1.464748406435e-12
416 3 6.728079454530e-03 3.094071669885e-03 4.465674764267e-03 8.321269822329e-10 -2.056134973898e-09 7.530356698215e-10 5.039472524416e-07 2.351223254936e-06 1.357576680806e-08 1.250000000000e-03 2.045307717181e-05 -9.534966577250e-12 1.294134044280e-11 -1.411819623635e-11
417 3 1.216895016884e-02 1.235660076184e-02 8.173000812164e-03 3.041288575385e-09 -2.407113056147e-09 -2.997629128531e-09 -4.273158263688e-08 1.594185074695e-06 5.175709124006e-07 1.250000000000e-03 2.045307717181e-05 -1.780854157006e-11 -6.300521651261e-12 1.538472538839e-11
418 3 1.158289628229e-02 3.769568448041e-03 1.424671645374e-02 2.257627567908e-10 -1.799984402430e-09 -6.408831264308e-10 -1.453469301235e-06 -1.885325999809e-07 -4.413211404609e-07 1.250000000000e-03 2.045307717181e-05 -9.522877004475e-12 4.734175867352e-12 1.244304648310e-11
419 3 9.071005234225e-03 3.965511907762e-03 2.881928312080e-03 9.985225422271e-10 -8.802576274079e-10 -8.713613292399e-10 7.722494254611e-08 1.297836418433e-06 -8.220119961393e-07 1.250000000000e-03 2.045307717181e-05 -2.144280091180e-11 -4.573236814463e-12 4.483775278155e-12
420 3 1.423179469222e-02 1.729017432440e-03 9.669189055041e-03 1.580883543253e-09 -3.106758078149e-09 5.451590347307e-10 -1.289208562922e-06 4.051801016414e-07 8.848856542843e-07 1.250000000000e-03 2.045307717181e-05 -1.611000256168e-11 2.672456022480e-11 5.565901898666e-12
421 3 1.169883330385e-02 7.095322214666e-05 1.170103795404e-03 1.306504930946e-09 -2.333385474453e-09 -1.083103174198e-09 1.452619683810e-06 6.978896317123e-07 1.377158029985e-07 1.250000000000e-03 2.045307717181e-05 -6.783631771141e-12 1.083643036536e-11 5.515799041658e-12
422 3 6.029122354472e-03 4.126094896301e-03 1.095168803969e-02 4.942057061029e-09 -4.801359178451e-09 -5.203371046035e-10 1.191706959445e-06 3.312355241730e-06 -3.668098517431e-06 1.250000000000e-03 2.045307717181e-05 -3.022180945318e-11 3.079533839053e-11 6.863090318546e-12
423 3 1.196302183160e-02 7.566135187773e-03 6.486594649422e-03 -7.588653818597e-10 -2.844765180240e-09 1.254151673311e-09 7.349836360301e-07 -6.976913581047e-07 -8.420222805804e-07 1.250000000000e-03 2.045307717181e-05 4.580679475021e-12 2.169894705431e-11 -1.336185168941e-12
424 3 1.023767736596e-04 6.603742640076e-03 8.018265046163e-03 4.367156156953e-09 -1.032202618837e-09 2.932560875615e-10 1.182323032472e-05 -1.984426443392e-05 1.740123981007e-06 1.250000000000e-03 2.045307717181e-05 -3.863098788079e-11 -6.082281284711e-12 -2.044016250165e-11
425 3 1.167802003930e-02 1.513570065901e-02 1.238513536772e-02 1.334230828482e-09 -4.327745132612e-09 -5.186638949260e-10 2.570795289309e-06 5.037540354079e-07 4.272217855534e-06 1.250000000000e-03 2.045307717181e-05 -1.134444637937e-11 2.444066126988e-11 1.778298188371e-12
426 3 3.849372085135e-03 1.304217431437e-02 6.988351466560e-03 4.413897499804e-10 -4.894657933914e-09 -2.084503999419e-09 3.140479390995e-07 3.251512286259e-06 -3.771571807621e-06 1.250000000000e-03 2.045307717181e-05 -1.991441754812e-12 3.925199485381e-11 3.780413240946e-12
427 3 3.898263147600e-05 8.157900275677e-03 1.311572734400e-02 1.220383451075e-09 -3.892703442200e-10 -1.687111114199e-09 -1.778659392473e-06 3.517818966882e-06 -3.425567040227e-06 1.250000000000e-03 2.045307717181e-05 -8.161014183088e-12 3.555901568487e-13 1.597149444769e-11
428 3 7.022028574857e-03 7.745240637526e-03 9.514688833320e-03 2.082031207752e-09 -4.056861307038e-09 -3.466155235449e-09 -2.813456901152e-06 -1.006729076087e-06 -2.166168252669e-06 1.250000000000e-03 2.045307717181e-05 -1.427285785144e-11 2.474106555438e-11 2.604491987686e-11
429 3 4.637730748817e-03 1.319353402873e-02 9.186347893783e-03 2.280405518845e-09 -5.270023826052e-09 -2.406456718548e-09 -1.018194662617e-06 -1.379267957568e-06 8.387761701633e-07 1.250000000000e-03 2.045307717181e-05 1.835377827939e-11 2.250489524858e-11 2.493753392570e-11
430 3 5.867215229958e-03 1.383597885403e-02 1.106389775924e-02 1.899635789326e-09 -3.287204937087e-09 -1.755728449522e-09 -1.002451418840e-06 5.706539161128e-07 -1.147739355296e-06 1.250000000000e-03 2.045307717181e-05 -3.996077597622e-12 2.214611980746e-11 6.118610458521e-12
431 3 1.473251237238e-02 1.485776907574e-03 2.504923402124e-03 -9.912307769031e-10 -1.310955202567e-10 1.618478896390e-09 5.449378015196e-07 -1.215879716178e-06 -1.463459673392e-06 1.250000000000e-03 2.045307717181e-05 7.078058373446e-12 6.277324955852e-13 -1.529260463337e-11
432 3 1.137476073188e-02 1.114831168424e-02 4.311862830960e-03 4.306973205475e-09 -4.475065953161e-09 8.247995868775e-11 -3.138179361607e-08 -2.572179608597e-06 -5.370341377915e-07 1.250000000000e-03 2.045307717181e-05 -2.959183895175e-11 3.754780388652e-11 -6.169948016945e-12
433 3 9.111043223046e-03 7.033647368995e-03 1.086403495262e-02 1.064279837452e-09 -1.055086543568e-09 -1.411002717828e-10 -1.081927788608e-06 -4.899370626579e-08 -1.232989437313e-06 1.250000000000e-03 2.045307717181e-05 -1.310887900708e-11 3.990757450239e-12 3.543991038303e-12
434 3 2.331943684697e-03 3.780768214860e-03 3.932329893965e-03 6.339421272010e-10 -1.123524405384e-09 1.964989981701e-09 -1.279242604303e-06 -6.028916428123e-07 1.356222386198e-06 1.250000000000e-03 2.045307717181e-05 -2.991660291490e-12 -1.942028059119e-12 -9.314843442737e-12
435 3 1.022293929670e-02 1.095036736212e-02 1.422928133526e-02 4.580623808027e-09 7.313868798213e-10 -2.133569342478e-09 1.379922171922e-06 -1.592884031828e-05 -2.549685121373e-05 1.250000000000e-03 2.045307717181e-05 -3.408975998101e-11 -7.126645991536e-12 1.580824760831e-11
436 3 5.270287132665e-03 6.419403959737e-03 1.140679616000e-02 3.173863345240e-09 -4.570251835026e-09 3.200271960706e-10 -1.863630891410e-06 -2.021200121239e-06 5.894503452255e-06 1.250000000000e-03 2.045307717181e-05 -1.072399752478e-11 2.803316975414e-11 -5.307365098356e-12
437 3 5.436374679843e-03 6.447660817281e-03 5.250813628066e-03 -2.590120532134e-10 -9.722030553695e-10 1.453274264978e-09 1.832408328745e-06 4.017069624816e-06 -2.376403669862e-06 1.250000000000e-03 2.045307717181e-05 7.438391538480e-12 -3.404479941560e-12 -4.728541043440e-12
438 3 1.449717646317e-02 4.067303610493e-03 9.004144026432e-03 1.429577382719e-09 -3.527200532087e-09 -7.325149297389e-10 1.627481244316e-07 -9.993127647937e-07 -8.613087019944e-07 1.250000000000e-03 2.045307717181e-05 -1.687110271294e-12 2.012344965784e-11 7.546993990310e-12
439 3 1.225582548402e-03 1.523431931859e-02 1.206639950467e-03 6.668257005936e-10 8.239065610232e-10 2.466615574554e-10 -5.616112347906e-07 -9.676297876676e-08 -1.568042785058e-06 1.250000000000e-03 2.045307717181e-05 -2.170521147432e-12 -1.186554369541e-12 -3.437430065696e-12
440 3 9.790448760083e-03 1.510045094431e-02 1.084468711732e-02 2.269032208705e-09 -4.712858102062e-09 -2.377172270103e-10 4.587551034876e-07 1.283345158099e-06 1.281341498099e-06 1.250000000000e-03 2.045307717181e-05 -2.457507769829e-11 3.552228042245e-11 -3.567202519748e-12
441 3 2.038468681187e-03 1.636468963276e-03 1.277750187023e-02 6.081652101032e-10 -3.807570023345e-09 1.169789912451e-09 -1.203386960976e-06 -3.156298962360e-07 1.340928284826e-06 1.250000000000e-03 2.045307717181e-05 -3.837166745839e-13 1.946064300155e-11 -4.914010671561e-12
442 3 1.341923478737e-03 4.690616502757e-03 8.614089033628e-03 6.959067026089e-10 -4.455690287893e-09 2.867483889432e-09 3.628958130115e-08 -2.163718331217e-06 1.990343904522e-07 1.250000000000e-03 2.045307717181e-05 -2.432589247213e-11 2.503133899626e-11 -2.882536624571e-11
443 3 8.120018581497e-03 1.048164668438e-02 1.044232711006e-02 -1.261792462542e-09 -4.283866357932e-09 3.354068653003e-09 1.988546411982e-06 -3.000552056643e-06 -8.871421373877e-07 1.250000000000e-03 2.045307717181e-05 2.116712591615e-11 2.478166100351e-11 -2.238257791326e-11
444 3 4.410584488594e-04 1.421810175225e-02 6.256043601108e-03 2.208574010417e-09 -5.240978035555e-09 -1.239916174272e-09 2.897820879711e-06 3.464101453949e-07 2.035632587788e-06 1.250000000000e-03 2.045307717181e-05 -2.254950919342e-11 1.590004425672e-11 -1.883612678329e-11
445 3 1.131140455869e-02 1.318755391334e-02 1.425229514488e-02 -2.543778506164e-09 -2.839232715335e-09 8.174919251542e-10 -3.143833293335e-06 3.248915080145e-06 2.014549620735e-05 1.250000000000e-03 2.045307717181e-05 2.224233998173e-11 2.257584675659e-11 -1.714148314146e-11
446 3 3.629328101826e-03 1.480999692703e-02 1.137915609214e-03 1.285515161184e-09 4.487877936614e-10 -4.677938008395e-11 -2.274519095874e-07 6.240287789550e-07 1.079206948121e-06 1.250000000000e-03 2.045307717181e-05 -1.715480521224e-12 -1.015113377024e-12 -4.206338232537e-13
447 3 9.911304431098e-03 4.540783524847e-03 1.245725513604e-02 4.107090343343e-10 -1.397342675637e-09 -1.184517921153e-09 -8.677150756959e-07 9.837084664667e-08 1.394738428248e-06 1.250000000000e-03 2.045307717181e-05 -5.319021322655e-12 4.739848977531e-12 1.789748474385e-11
448 3 1.490329762062e-02 1.285363199359e-02 3.282580662351e-03 5.339951503480e-09 3.014258589052e-09 -3.662547563353e-09 3.262736388561e-06 -1.091442684251e-06 4.166092517226e-06 1.250000000000e-03 2.045307717181e-05 -1.995194541140e-11 -7.657126782389e-11 1.059671622746e-11
449 3 8.313606210028e-03 1.277192228079e-02 9.685335173398e-03 1.822749456102e-09 -4.665251006836e-09 1.009487093237e-10 -2.552959463101e-06 -4.948127983547e-07 -4.409689087176e-07 1.250000000000e-03 2.045307717181e-05 -1.790918784162e-11 2.949775895552e-11 7.983727022128e-12
450 3 8.833288517693e-03 5.594340687316e-03 1.163414452291e-03 1.337574963011e-10 -3.239313446012e-10 -5.109946128161e-10 1.477650079016e-07 4.215431958883e-07 1.690465429143e-08 1.250000000000e-03 2.045307717181e-05 -1.191919144065e-11 1.117007683589e-11 -1.146699059815e-11
451 3 6.271036922329e-03 7.662466634181e-03 2.553712313836e-03 -1.428007173870e-09 -5.268883961368e-10 2.126359605765e-10 -2.156041824209e-06 8.885736353472e-08 -1.765649100616e-06 1.250000000000e-03 2.045307717181e-05 6.801278089222e-12 -8.608839753823e-12 3.070218987551e-12
452 3 4.531651650306e-03 1.019189665982e-02 1.063294163176e-03 -2.349272645950e-10 1.213835589427e-09 5.780185026023e-10 -7.595698754751e-07 5.553146353775e-07 -2.494934961858e-06 1.250000000000e-03 2.045307717181e-05 3.318398945596e-11 -5.572813699656e-12 -3.489669721956e-12
453 3 2.107156448907e-03 1.039077913480e-02 7.960652738045e-03 2.088301979474e-09 -8.127317202397e-09 -9.002922733583e-09 -4.313637402781e-06 6.837902392432e-07 -2.067822684387e-06 1.250000000000e-03 2.045307717181e-05 -2.609741667833e-11 5.826146440486e-11 5.445025637352e-11
454 3 8.609251776263e-03 3.660276158990e-03 1.420210088057e-02 9.426835421234e-10 -2.172087480744e-09 -7.988391389109e-10 -1.563100512558e-06 -1.192607909751e-06 2.430164084446e-06 1.250000000000e-03 2.045307717181e-05 -1.065294358237e-11 1.592096866672e-11 -6.519493957467e-12
455 3 9.126621219265e-03 4.728188040837e-03 1.017326109230e-02 1.109226288917e-09 -1.164861619894e-09 -1.501543242578e-09 1.869943916974e-06 -1.284297000804e-06 4.262145584587e-07 1.250000000000e-03 2.045307717181e-05 -1.083688074055e-11 7.276025768673e-12 1.816936822820e-11
456 3 1.312324657751e-02 8.083979879674e-03 9.978726782379e-03 1.581727427251e-10 -2.098216307324e-09 -3.465391284448e-09 -2.867619953716e-06 -6.963001686956e-07 1.497048049719e-06 1.250000000000e-03 2.045307717181e-05 7.399802601325e-12 9.180785757612e-12 3.436748977036e-11
457 3 6.213715800487e-03 9.104163271881e-03 6.035700197909e-03 -9.564983010923e-10 -1.848576524671e-09 -9.632626462086e-10 5.602157512120e-07 -2.248674137798e-06 -5.266312942419e-07 1.250000000000e-03 2.045307717181e-05 8.023488829216e-12 1.481325558655e-11 6.041441171734e-12
458 3 1.354404505557e-02 2.582169108418e-03 1.393815814063e-02 9.217719766912e-11 -1.946647735385e-09 -7.048849520000e-12 9.756908869857e-07 -6.428546175437e-07 5.139345108438e-07 1.250000000000e-03 2.045307717181e-05 3.822525091761e-12 9.787671388652e-12 -3.685295426762e-12
459 3 1.159876172451e-02 9.712662631934e-03 8.232236737424e-03 8.391361645757e-10 -1.924324855853e-09 2.824723697587e-10 -9.237751140426e-08 -2.376974658654e-07 1.668931154185e-06 1.250000000000e-03 2.045307717181e-05 -1.211642319609e-11 8.931405414672e-12 -3.311748234855e-12
460 3 8.150762888251e-03 1.274296825470e-02 5.511657398200e-03 2.104253255630e-09 -2.528470036021e-09 -3.846990369802e-10 8.172463283618e-07 1.463355753095e-07 -9.726173536624e-07 1.250000000000e-03 2.045307717181e-05 -1.485986622641e-11 1.594657111784e-11 3.149559286768e-12
461 3 3.463786872023e-03 1.521393396782e-02 1.239216068865e-02 1.052782812001e-09 -4.250594329608e-09 -1.480341933920e-09 1.954396884184e-06 2.693182296019e-06 -1.304996315127e-06 1.250000000000e-03 2.045307717181e-05 -6.148363190557e-12 2.449716977019e-11 6.360993861529e-12
462 3 1.182613332664e-03 2.575282993980e-03 1.428812463553e-03 -1.849786346174e-09 -5.232648667597e-10 1.806239886447e-09 3.019784433752e-07 2.181229720947e-06 1.100267826022e-06 1.250000000000e-03 2.045307717181e-05 1.613603476570e-11 -1.393766073417e-11 -1.799260655941e-11
463 3 1.402507908516e-02 3.894468992044e-04 1.258215445910e-02 2.643342611305e-10 -1.726875925010e-09 4.896158614141e-10 7.197405837026e-07 -4.164138681280e-08 2.640701690062e-07 1.250000000000e-03 2.045307717181e-05 6.759663102631e-12 5.719285186661e-12 -7.114763717584e-12
464 3 4.379065407393e-03 5.141830141893e-03 6.917440349847e-03 1.305761262123e-09 -3.080807417234e-10 1.466445551678e-09 1.966867935485e-06 1.315367414191e-06 -3.858331984680e-06 1.250000000000e-03 2.045307717181e-05 -6.330324572805e-13 -1.582930974687e-11 -6.506726554658e-12
465 3 2.987294350106e-03 4.797252451821e-03 1.031948736903e-02 2.037596872469e-09 -3.713354403182e-09 1.310899875158e-09 -1.696548851717e-07 1.539920166205e-06 4.176836675302e-07 1.250000000000e-03 2.045307717181e-05 -1.554723800805e-11 2.301667611552e-11 -1.557606624723e-11
466 3 7.580760254051e-03 1.026645824030e-04 1.264895919010e-02 1.247586689023e-09 3.449034568290e-09 -4.385059671158e-09 2.841732789647e-06 1.876068798612e-06 1.379470422222e-06 1.250000000000e-03 2.045307717181e-05 -1.181662857015e-11 -3.050873606747e-11 4.204523179615e-11
467 3 9.524298565793e-03 1.408590403581e-02 1.299820249927e-02 -7.577938638447e-09 -5.236661713427e-09 -1.415605042811e-09 1.367585352057e-06 -6.810314711955e-06 -1.403414845392e-05 1.250000000000e-03 2.045307717181e-05 4.485665916808e-11 3.104775075325e-11 1.635277286775e-11
468 3 1.198934522262e-02 1.496991328807e-02 9.933721372548e-03 2.269090570944e-09 -2.367094691853e-09 -6.775298705238e-10 2.530791942948e-07 -1.200909837373e-06 3.430721151885e-07 1.250000000000e-03 2.045307717181e-05 -1.157974663459e-11 1.997800083925e-11 9.523324795977e-13
469 3 1.197940457005e-02 4.807237186620e-03 1.209323378685e-03 -9.285359561471e-10 6.976568462675e-10 3.786213998799e-10 -8.780495328883e-07 -6.251224497617e-07 -4.256155446553e-08 1.250000000000e-03 2.045307717181e-05 1.097912732888e-11 -6.565965883432e-12 2.913501828771e-12
470 3 3.222345855890e-03 9.003879972890e-03 1.294797928144e-02 -6.888179930662e-09 -5.493215035700e-09 9.521058058487e-10 3.996704555890e-06 -7.317682362183e-06 6.701713798124e-06 1.250000000000e-03 2.045307717181e-05 4.613410551597e-11 2.640643561302e-11 -2.055957753935e-11
471 3 6.951934680115e-03 1.003886996513e-02 1.197807036073e-03 -3.641905217772e-10 -7.384348001758e-10 9.504402295850e-11 -1.831348934635e-07 -4.022880569648e-08 -5.685514357117e-07 1.250000000000e-03 2.045307717181e-05 8.617896555764e-12 2.681146472679e-12 -2.156612959903e-12
472 3 1.007819930222e-03 7.131245151259e-03 4.445294190654e-03 4.774955892476e-09 -7.524731507421e-09 -1.244211327359e-09 -2.673600758326e-05 2.737926662408e-05 -3.624300879437e-06 1.250000000000e-03 2.045307717181e-05 -5.163550808145e-11 3.115616755942e-11 -1.323456331090e-11
473 3 1.242921190843e-02 9.017040624347e-03 3.727082550593e-03 8.089652902894e-10 -9.686071600361e-09 -9.298341267783e-11 2.176585585453e-07 -9.116685234967e-08 -3.951203410296e-06 1.250000000000e-03 2.045307717181e-05 1.492967881242e-11 5.619228989112e-11 -5.924103012496e-12
474 3 2.226071450882e-03 6.857201752324e-03 9.226780991754e-03 -1.169371463502e-09 -5.787540019883e-09 2.176346705512e-09 -1.982049813033e-06 8.594403216051e-06 -7.876348870492e-08 1.250000000000e-03 2.045307717181e-05 1.630280325464e-11 4.728179921643e-11 -3.239442071288e-11
475 3 2.166321766060e-03 1.014553651862e-02 1.111324375693e-03 -2.431456252298e-09 9.358931420566e-09 -3.102004600034e-10 -5.991614457498e-06 -3.007353751576e-06 -2.190460437924e-06 1.250000000000e-03 2.045307717181e-05 -3.381004359985e-11 -5.376346891416e-11 2.068510129905e-11
476 3 1.428830460329e-02 8.221662624288e-03 6.660164535004e-03 2.731042624034e-09 -2.985399162503e-09 -2.778877269593e-09 1.366434085578e-06 5.162325527734e-06 6.845753451220e-07 1.250000000000e-03 2.045307717181e-05 -2.421808989757e-11 1.028625075329e-11 -2.284100251765e-11
477 3 7.062475163472e-03 1.505158046359e-02 6.750094789014e-03 2.451721017935e-09 -3.387425092098e-09 -9.123377528878e-10 8.428399901935e-07 -5.126333677684e-07 -2.483860573035e-07 1.250000000000e-03 2.045307717181e-05 -2.362983802882e-11 2.222457216808e-11 3.119452512393e-12
478 3 1.506775146649e-02 1.168173352632e-02 1.099404839634e-02 -1.103963244572e-10 -3.165203138900e-09 -4.216599509989e-09 -6.504203868526e-09 -1.502813931926e-06 1.965574843513e-06 1.250000000000e-03 2.045307717181e-05 4.023102542274e-12 1.853141470132e-11 2.924727089056e-11
479 3 8.277579828843e-03 5.985103597529e-03 1.355102342814e-02 -5.158226657089e-10 -3.229055606753e-09 -4.571831654915e-10 2.529215032474e-06 -9.384481895495e-07 -7.043473993528e-07 1.250000000000e-03 2.045307717181e-05 2.281708298271e-12 4.394271293005e-12 -1.326321522298e-11
480 3 1.398579937037e-02 4.934534937935e-03 1.422169827825e-02 5.882639920972e-10 -1.344354809279e-09 -2.394964531970e-10 -1.234810433363e-06 -2.320411520053e-07 -1.200882505427e-06 1.250000000000e-03 2.045307717181e-05 -4.113816586655e-12 1.076286965493e-11 2.231665448328e-12
481 3 5.277839280774e-03 5.522915492683e-03 2.274633394533e-03 -2.580726413876e-09 3.917827185743e-10 2.094836394037e-09 1.629385527949e-06 1.043153217607e-07 9.778137537966e-07 1.250000000000e-03 2.045307717181e-05 1.376070680383e-11 -1.174766377044e-11 -2.146054327863e-11
482 3 1.353001841645e-02 1.470920219632e-02 3.283879480469e-03 1.152901933622e-09 -2.121923757687e-09 -9.095071083174e-10 1.532481896587e-07 -1.292215703588e-07 5.064601455278e-07 1.250000000000e-03 2.045307717181e-05 -1.429814160383e-11 2.225153405827e-11 -2.917629908902e-12
483 3 7.815049168583e-03 2.899899673668e-03 1.153648060869e-03 5.749931125922e-11 -2.353743972264e-10 5.383904343054e-11 1.108330542728e-07 -1.252915591107e-08 2.977021295477e-07 1.250000000000e-03 2.045307717181e-05 5.597217009010e-12 -4.290404874165e-12 2.283847091883e-13
484 3 1.264946715307e-02 3.456397933056e-03 1.040402142620e-02 1.155819910209e-09 -2.134476283318e-09 -8.982591728046e-10 -7.953774041731e-07 -7.063683883287e-08 -1.646837096531e-07 1.250000000000e-03 2.045307717181e-05 -1.467100130994e-11 1.139427411844e-11 1.570226841841e-11
485 3 3.032858845047e-03 5.967027941691e-03 5.022949097369e-03 1.907819173918e-09 -8.529141225477e-09 -3.996631625172e-09 -6.491452388949e-06 1.219135640522e-06 -7.638221431795e-06 1.250000000000e-03 2.045307717181e-05 -9.589243133033e-12 8.041001880853e-11 -6.503286779597e-12
486 3 8.071386931226e-03 1.499594463322e-03 3.154435952809e-03 4.886708280249e-10 -1.403186631781e-09 -7.845734333222e-10 4.514196451881e-07 -1.885500956333e-07 4.809300782091e-08 1.250000000000e-03 2.045307717181e-05 -3.431106713237e-12 1.075923131603e-11 -3.800369664838e-12
487 3 1.919725271303e-03 1.010197573311e-02 5.658311630730e-03 2.415095291624e-09 -1.010549704118e-08 -1.580384958035e-08 4.680005524400e-06 -6.808321724845e-07 9.584311644293e-06 1.250000000000e-03 2.045307717181e-05 -2.853557579939e-11 5.359305297434e-11 9.122435621321e-11
488 3 5.870020938932e-03 9.632797610583e-03 3.750212822069e-03 2.479870850333e-09 1.228599901368e-09 -2.070907950432e-09 7.761396634722e-07 -2.636747953934e-07 -1.514087176916e-06 1.250000000000e-03 2.045307717181e-05 -2.150538565932e-11 -1.427383447220e-11 1.773116541563e-11
489 3 1.121104757690e-02 3.006620517087e-03 5.079677203346e-03 1.204070466786e-09 -4.264703212912e-09 -8.396127333156e-10 2.342732841634e-06 2.488833049862e-07 -7.940624198518e-07 1.250000000000e-03 2.045307717181e-05 -1.846262781428e-11 2.979774865673e-11 6.665615043585e-12
490 3 6.422984156599e-04 1.520451136562e-02 3.632103373140e-03 1.645369374992e-09 3.007284891344e-10 -1.815608098544e-10 1.745539717218e-06 9.626402809017e-07 3.449916649677e-06 1.250000000000e-03 2.045307717181e-05 -1.683221419216e-11 -1.064165493742e-11 -8.711078862628e-12
491 3 5.497931183090e-03 1.172914300013e-03 3.484228243935e-03 3.311507656497e-10 -1.427082921210e-09 -1.772913977955e-10 1.453080142946e-06 -4.472230497260e-07 6.152165143309e-07 1.250000000000e-03 2.045307717181e-05 -2.172668826335e-12 7.068209869916e-12 -6.334655263875e-12
492 3 3.128359770905e-03 1.200167414721e-02 4.942766382274e-03 -1.405766661558e-09 -5.737738534684e-10 -3.674259508907e-09 2.019383758952e-06 -5.194457004207e-06 -2.073308546058e-06 1.250000000000e-03 2.045307717181e-05 1.289252806833e-11 6.823440906533e-12 1.572486593850e-11
493 3 1.145493768852e-02 7.291907658437e-03 1.155360300491e-02 2.118112200790e-10 -1.426649339298e-09 -9.333145706300e-10 4.023725793826e-07 1.184793758098e-06 -8.398137041673e-08 1.250000000000e-03 2.045307717181e-05 -2.463966505045e-12 1.324158008956e-11 1.219958917095e-11
494 3 1.461813899892e-02 1.462075906175e-02 9.314949832581e-03 1.601729647942e-09 2.336632395048e-09 -2.504111964278e-09 -1.187446058077e-06 -3.867871964063e-06 6.612552654084e-06 1.250000000000e-03 2.045307717181e-05 -1.571949211747e-11 -1.820530169797e-11 1.544181949861e-11
495 3 2.496349276038e-03 6.482848454267e-03 2.737802668662e-03 3.734242734725e-09 -9.705144054835e-09 -3.915117749790e-09 7.889961594582e-06 -9.430681201322e-06 2.155111912563e-05 1.250000000000e-03 2.045307717181e-05 -1.163447938662e-11 7.288659791182e-11 3.474317293449e-12
496 3 4.704739599446e-03 8.350478720860e-03 1.015840247194e-02 -3.035914007383e-10 -8.700446786885e-09 -3.831326627016e-09 -1.850907894227e-06 2.308040637103e-06 -2.955724879274e-06 1.250000000000e-03 2.045307717181e-05 -8.921408463123e-14 5.310126013371e-11 -7.553627832518e-12
497 3 1.268125720943e-02 8.934033812313e-03 1.087113149134e-03 -5.511128263572e-10 5.626427483566e-09 -5.184394898332e-10 -3.891297015547e-06 -1.146133099030e-07 6.340044657282e-06 1.250000000000e-03 2.045307717181e-05 9.603245421080e-12 -3.699465867908e-11 6.690452891815e-12
498 3 7.924428395578e-03 1.058391467656e-02 4.421172340923e-03 1.781654980244e-09 -1.398894578900e-09 -8.164429216212e-10 4.239646748784e-07 -2.167571878707e-07 2.278787077747e-07 1.250000000000e-03 2.045307717181e-05 -1.718973205807e-11 6.433109735053e-12 1.105776349272e-11
499 3 5.504776207291e-03 1.417839713655e-02 2.552131094734e-03 2.219325204800e-09 -3.819108149500e-10 7.246639046393e-11 4.199886240777e-07 2.510021534424e-07 -9.414060787469e-07 1.250000000000e-03 2.045307717181e-05 -1.138428991227e-11 1.085237153934e-11 3.081773703692e-12
500 3 1.292069124028e-02 2.236206192507e-03 1.174161719571e-03 -3.018575485904e-10 1.716492609714e-10 1.265070587199e-10 2.939209645722e-07 -1.894221136593e-07 2.583054486316e-06 1.250000000000e-03 2.045307717181e-05 1.234073213162e-12 -1.960769819633e-12 -3.264255948783e-12
