ITEM: TIMESTEP
200000
ITEM: NUMBER OF ATOMS
500
ITEM: BOX BOUNDS pp pp ff
0.0000000000000000e+00 1.5370634520482899e-02
0.0000000000000000e+00 1.5370634520482899e-02
0.0000000000000000e+00 1.5370634520482899e-02
ITEM: ATOMS id type x y z radius mass fx fy fz
1 1 0.0153486 0.0102396 0.0123436 0.00075 4.41786e-06 3.23854e-12 2.7942e-12 2.33308e-12
2 1 0.00526612 0.0143938 0.00668311 0.00075 4.41786e-06 -8.09392e-14 2.82948e-14 -1.4112e-13
3 1 0.0015672 0.0131597 0.0146377 0.00075 4.41786e-06 9.18689e-14 2.497e-13 4.5165e-14
4 1 0.00999458 0.00113472 0.00944923 0.00075 4.41786e-06 -6.50336e-15 4.76151e-13 -2.73798e-13
5 1 0.00928481 0.00176466 0.00149975 0.00075 4.41786e-06 -7.83838e-14 -1.20395e-13 -8.58472e-14
6 1 0.0121023 0.0090092 0.0146609 0.00075 4.41786e-06 -1.47539e-13 2.98887e-14 -6.06991e-15
7 1 0.00111338 0.00184047 0.014653 0.00075 4.41786e-06 4.26298e-13 -1.75422e-13 -9.095e-14
8 1 0.011869 0.00174644 0.00644736 0.00075 4.41786e-06 -2.96926e-13 -4.94789e-14 -1.91124e-13
9 1 0.0107321 0.00258223 0.00698757 0.00075 4.41786e-06 -3.87903e-13 3.2325e-14 -1.81365e-13
10 1 0.00671024 0.00902743 0.0146724 0.00075 4.41786e-06 -8.78128e-13 -2.19061e-13 -5.26902e-13
11 1 0.00608027 0.00738984 0.00687552 0.00075 4.41786e-06 4.71276e-13 4.67648e-13 2.67373e-13
12 1 0.0118054 0.0144122 0.00708916 0.00075 4.41786e-06 1.41608e-13 6.07429e-13 -2.3762e-13
13 1 0.00240753 0.0142308 0.00635499 0.00075 4.41786e-06 -5.99447e-14 1.69779e-14 7.29207e-13
14 1 0.00987772 0.00370547 0.00736107 0.00075 4.41786e-06 7.08635e-14 9.14231e-14 7.5472e-14
15 1 1.65985e-05 0.00438167 0.00213117 0.00075 4.41786e-06 -5.89677e-13 -9.3528e-14 -2.01653e-13
16 1 0.000541365 0.00928478 0.0146318 0.00075 4.41786e-06 8.83151e-14 -2.15073e-14 1.40477e-13
17 1 0.0142853 0.00662991 0.0133666 0.00075 4.41786e-06 -2.46676e-14 3.55227e-13 -1.41169e-13
18 1 0.0094891 0.00201548 0.00499725 0.00075 4.41786e-06 -7.60487e-14 2.77124e-13 1.5493e-13
19 1 0.00999643 0.00677516 0.00402516 0.00075 4.41786e-06 5.68737e-13 3.28497e-13 -2.96175e-13
20 1 0.0122819 0.00905169 0.0114118 0.00075 4.41786e-06 2.60013e-13 6.09371e-13 2.10043e-13
21 1 0.0129044 0.0115506 0.0130535 0.00075 4.41786e-06 -3.73634e-13 -3.78092e-14 -1.24375e-13
22 1 0.000828119 0.000136638 0.0129331 0.00075 4.41786e-06 -3.30796e-14 -7.64681e-14 -8.73614e-14
23 1 0.00420396 0.012976 0.00142036 0.00075 4.41786e-06 -2.72965e-13 -6.17325e-13 -2.38458e-14
24 1 0.00909208 0.00176237 0.00768661 0.00075 4.41786e-06 6.33241e-15 9.1745e-14 -2.43328e-14
25 1 0.00925546 0.0067989 0.00538431 0.00075 4.41786e-06 1.16432e-12 5.69943e-13 -4.26772e-13
26 1 0.0125551 0.0139975 0.00482362 0.00075 4.41786e-06 1.51384e-12 1.62774e-13 7.29393e-13
27 1 0.0119244 0.0134355 0.011061 0.00075 4.41786e-06 -7.93829e-14 6.4347e-13 -7.47645e-16
28 1 0.0126454 0.0135879 0.00618766 0.00075 4.41786e-06 -4.71231e-14 1.67274e-14 -2.05335e-13
29 1 0.0114146 0.00291316 0.00823984 0.00075 4.41786e-06 -1.93244e-13 4.32589e-14 -9.00134e-14
30 1 0.0106528 0.00156436 0.00818475 0.00075 4.41786e-06 -4.86983e-13 2.82769e-13 -5.20821e-15
31 1 0.00204005 0.00923041 0.0146005 0.00075 4.41786e-06 -3.31765e-12 1.79046e-12 3.5825e-13
32 1 0.00046256 0.00301017 0.00820784 0.00075 4.41786e-06 1.44607e-13 1.04422e-13 -1.30329e-14
33 1 0.000864512 0.00590688 0.0129225 0.00075 4.41786e-06 2.99305e-14 -1.7556e-14 6.78393e-14
34 1 0.0019406 0.00598922 0.0146176 0.00075 4.41786e-06 -1.08694e-322 1.08694e-322 1.08694e-322
35 1 0.0110367 0.00388139 0.0093764 0.00075 4.41786e-06 -3.84601e-14 -9.59251e-14 3.58879e-14
36 1 0.00050488 0.00703557 0.00624387 0.00075 4.41786e-06 -2.39332e-13 1.47013e-12 -1.06214e-12
37 1 0.0017877 0.0114908 0.00242982 0.00075 4.41786e-06 8.6139e-13 -8.60243e-13 -2.16053e-12
38 1 0.00694256 0.00385039 0.00917725 0.00075 4.41786e-06 1.08694e-322 1.08694e-322 -1.08694e-322
39 1 0.0134982 0.0109293 0.00812318 0.00075 4.41786e-06 -3.75389e-13 2.65831e-13 1.57483e-13
40 1 0.00700756 0.00491465 0.00805517 0.00075 4.41786e-06 -1.95177e-14 2.81257e-13 2.26162e-13
41 1 0.0124663 0.00509952 0.00370978 0.00075 4.41786e-06 2.81491e-13 -3.881e-13 3.4514e-13
42 1 0.00976456 0.00882884 0.0077924 0.00075 4.41786e-06 -5.24673e-14 -4.85841e-14 8.59374e-14
43 1 0.0116553 0.000465408 0.00574228 0.00075 4.41786e-06 -8.82157e-14 1.02356e-13 -1.38854e-13
44 1 0.00668315 0.00144821 0.000633228 0.00075 4.41786e-06 -8.82129e-14 3.29863e-15 -2.79317e-14
45 1 0.00375417 0.00460973 0.00861407 0.00075 4.41786e-06 -3.55297e-14 -1.66229e-13 8.89755e-14
46 1 0.0141098 0.00640558 0.00961235 0.00075 4.41786e-06 -2.28597e-13 -1.03887e-13 1.81267e-13
47 1 0.00103711 0.00407995 0.00675743 0.00075 4.41786e-06 -5.74341e-14 -1.10145e-13 -1.09325e-13
48 1 0.00620322 0.0125122 0.00738092 0.00075 4.41786e-06 -1.00975e-13 4.30964e-13 -1.32586e-14
49 1 0.00227716 0.0118834 0.00668384 0.00075 4.41786e-06 3.88865e-13 -7.71731e-13 1.63899e-13
50 1 0.00600185 0.00240046 0.00142779 0.00075 4.41786e-06 -5.47635e-14 1.05275e-13 1.31628e-13
51 1 0.00836584 0.00148936 0.0137295 0.00075 4.41786e-06 1.61482e-13 -6.2913e-14 -1.30107e-13
52 1 0.011373 0.0131125 0.00660351 0.00075 4.41786e-06 -1.10569e-13 -3.23465e-13 6.02593e-13
53 1 0.00645977 0.00279255 0.0145948 0.00075 4.41786e-06 -5.23142e-14 9.85296e-13 3.24497e-14
54 1 0.0136838 0.00738808 0.0082535 0.00075 4.41786e-06 7.92282e-14 -8.16249e-14 1.3351e-13
55 1 0.0151704 0.00236019 0.0147477 0.00075 4.41786e-06 -7.65847e-14 6.4597e-14 -4.97093e-13
56 1 0.0016377 0.00112179 0.00255957 0.00075 4.41786e-06 -6.02675e-14 -1.19211e-13 -1.35119e-13
57 1 0.011642 0.0101147 0.0101582 0.00075 4.41786e-06 -2.93561e-13 6.65401e-14 -7.32887e-14
58 1 0.0118976 0.006135 0.0146558 0.00075 4.41786e-06 -4.99228e-15 4.77702e-15 -4.90823e-15
59 1 0.000262572 0.00148328 0.00837752 0.00075 4.41786e-06 1.62215e-13 3.92145e-13 -7.56196e-15
60 1 0.00734129 0.011382 0.00870452 0.00075 4.41786e-06 -3.78525e-13 1.6958e-13 -1.25624e-13
61 1 0.0127071 0.0105871 0.00696638 0.00075 4.41786e-06 5.36423e-14 7.725e-14 4.18991e-13
62 1 0.00452987 0.0152968 0.00757785 0.00075 4.41786e-06 9.25153e-14 1.66923e-13 7.14746e-14
63 1 0.00256934 0.0132441 0.00969301 0.00075 4.41786e-06 2.44598e-13 3.7592e-14 -2.13924e-14
64 1 0.000925316 0.00957299 0.00233219 0.00075 4.41786e-06 7.06912e-12 1.67357e-12 -8.12735e-12
65 1 0.00201073 0.00553128 0.000628513 0.00075 4.41786e-06 -7.5346e-14 -7.14358e-13 -3.4197e-13
66 1 0.0130754 0.0139879 0.00842134 0.00075 4.41786e-06 -3.91481e-14 8.37805e-13 4.32814e-13
67 1 0.00920726 3.93217e-05 0.00390447 0.00075 4.41786e-06 3.72402e-13 3.38705e-12 1.27223e-12
68 1 0.00767708 0.00217064 0.0147789 0.00075 4.41786e-06 -1.53499e-13 -7.00057e-14 -1.82474e-13
69 1 0.0101123 0.000629817 0.013238 0.00075 4.41786e-06 7.78414e-14 -4.30532e-14 -1.98012e-13
70 1 0.00855049 0.00120549 0.00909799 0.00075 4.41786e-06 -2.17982e-13 2.96895e-13 2.45173e-13
71 1 0.00801698 0.00861241 0.0109109 0.00075 4.41786e-06 -3.84936e-14 2.12436e-13 -2.20473e-13
72 1 0.0140345 0.0107244 0.0127216 0.00075 4.41786e-06 -1.17997e-12 5.62439e-13 8.96659e-13
73 1 0.0138727 0.00520246 0.0104578 0.00075 4.41786e-06 3.28027e-14 6.3048e-14 -1.33938e-13
74 1 0.000745156 0.00796273 0.00262699 0.00075 4.41786e-06 7.26646e-11 2.42782e-10 -6.68357e-11
75 1 0.00803858 0.00922626 0.00305022 0.00075 4.41786e-06 -3.91622e-13 -7.88736e-13 4.03236e-13
76 1 0.00783985 0.0066119 0.00555275 0.00075 4.41786e-06 6.8008e-14 8.30514e-15 1.59291e-13
77 1 0.00988321 0.000647694 0.000721953 0.00075 4.41786e-06 -4.87418e-14 -1.48216e-13 1.46443e-14
78 1 0.00666077 0.00101672 0.00195043 0.00075 4.41786e-06 -1.45805e-13 4.23247e-14 -3.56095e-14
79 1 0.00505049 0.00857716 0.0120261 0.00075 4.41786e-06 -1.92739e-13 -1.61806e-14 1.94296e-14
80 1 0.0150284 0.0003116 0.0109042 0.00075 4.41786e-06 -8.82144e-14 3.63135e-13 9.08422e-15
81 1 0.0135183 0.00956019 0.00850375 0.00075 4.41786e-06 -7.87376e-13 9.04051e-14 5.13991e-13
82 1 0.0111573 0.00538703 0.0136602 0.00075 4.41786e-06 3.64259e-14 -1.22846e-14 1.82305e-14
83 1 0.0108841 0.00792292 0.00811984 0.00075 4.41786e-06 -6.32036e-14 -2.16558e-14 1.5196e-13
84 1 0.00204015 0.001451 0.0052922 0.00075 4.41786e-06 2.32384e-14 -7.84058e-14 -5.77065e-14
85 1 0.00327132 0.010941 0.0125152 0.00075 4.41786e-06 -6.13216e-13 4.40737e-13 -1.95851e-13
86 1 0.00646263 0.00157699 0.006324 0.00075 4.41786e-06 -1.22664e-13 2.40772e-13 -3.86488e-14
87 1 0.00119953 0.0145861 0.00942132 0.00075 4.41786e-06 1.71488e-13 -1.43467e-14 5.95411e-13
88 1 0.00259358 0.000125626 0.00259793 0.00075 4.41786e-06 3.25937e-14 5.70823e-14 -2.42598e-13
89 1 0.0130616 0.00611955 0.0112727 0.00075 4.41786e-06 7.88214e-14 6.21527e-13 -8.7077e-14
90 1 0.0145896 0.0101101 0.00380902 0.00075 4.41786e-06 -4.78115e-13 -1.08964e-13 -8.14999e-14
91 1 0.00275862 0.00453676 0.0146728 0.00075 4.41786e-06 -1.39496e-13 -1.31051e-13 -2.35865e-13
92 1 0.00847575 0.00784811 0.00603836 0.00075 4.41786e-06 9.27709e-14 1.91708e-13 3.11043e-14
93 1 0.0051474 0.0116151 0.00696548 0.00075 4.41786e-06 5.84896e-14 2.37637e-13 1.19832e-13
94 1 0.000264797 0.0114388 0.0130018 0.00075 4.41786e-06 -8.74139e-13 -1.4003e-12 -3.34563e-13
95 1 0.0150535 0.00691228 0.00304034 0.00075 4.41786e-06 1.24109e-13 1.45177e-12 -1.02197e-13
96 1 0.00457465 0.00780321 0.00632637 0.00075 4.41786e-06 1.3671e-12 -3.35634e-12 -2.51342e-12
97 1 0.00375076 0.00721844 0.0123298 0.00075 4.41786e-06 -1.11603e-13 2.13355e-14 -1.61686e-14
98 1 0.008596 0.00609581 0.00677496 0.00075 4.41786e-06 6.31177e-14 1.03955e-13 -3.48506e-13
99 1 0.0120936 0.00163847 0.00789071 0.00075 4.41786e-06 -3.09118e-13 -1.40134e-13 -2.12584e-13
100 1 0.00716873 0.00605124 0.00261354 0.00075 4.41786e-06 4.69123e-13 -1.41875e-13 -1.19134e-13
101 2 0.000247721 0.00641811 0.0144308 0.001 1.0472e-05 -1.80937e-13 -4.47301e-14 -2.46298e-13
102 2 0.00309402 0.00272585 0.00949494 0.001 1.0472e-05 -9.15526e-13 1.64177e-13 -6.37927e-14
103 2 0.000870692 0.0045641 0.0144644 0.001 1.0472e-05 -5.71056e-13 3.10984e-13 1.19959e-14
104 2 0.0153188 0.0126625 0.0144407 0.001 1.0472e-05 -2.56229e-13 1.99513e-15 9.28709e-13
105 2 0.013414 0.0044499 0.0121839 0.001 1.0472e-05 2.32717e-14 1.21748e-13 5.15383e-14
106 2 0.00644014 0.00214044 0.0119268 0.001 1.0472e-05 2.05282e-116 4.20689e-116 -7.23845e-116
107 2 0.00554576 0.00846332 0.000839091 0.001 1.0472e-05 -6.30703e-13 2.55924e-13 1.31674e-13
108 2 0.00434784 0.0103591 0.00771598 0.001 1.0472e-05 -9.35973e-14 1.72981e-12 8.61917e-13
109 2 0.0120673 0.0035224 0.00302792 0.001 1.0472e-05 -6.85521e-13 5.69188e-14 3.19654e-14
110 2 0.007218 0.0115391 0.00263729 0.001 1.0472e-05 -3.80369e-12 -8.28158e-12 -2.60263e-12
111 2 0.00707673 0.0132177 0.0036433 0.001 1.0472e-05 2.8607e-12 1.60474e-13 -6.2351e-13
112 2 0.000887011 0.0052705 0.00552041 0.001 1.0472e-05 -4.45101e-13 1.95593e-12 -7.64827e-13
113 2 0.000385644 0.0108322 0.00913127 0.001 1.0472e-05 5.5704e-12 -7.42087e-13 -4.84466e-12
114 2 0.002376 0.0146124 0.010657 0.001 1.0472e-05 1.48403e-12 -1.00835e-12 -7.27453e-13
115 2 0.0147707 0.00587993 0.0119649 0.001 1.0472e-05 -3.13134e-13 3.69209e-13 5.93576e-13
116 2 0.00116653 0.000248928 0.00770986 0.001 1.0472e-05 6.59042e-14 1.48983e-12 5.65154e-13
117 2 0.00335451 0.0011388 0.0143883 0.001 1.0472e-05 -4.74412e-12 1.44968e-12 -4.59614e-12
118 2 0.00802149 0.0136317 0.0115733 0.001 1.0472e-05 -1.14455e-14 -1.08853e-13 9.61044e-13
119 2 0.0135467 0.00749125 0.0121126 0.001 1.0472e-05 1.1624e-12 1.74668e-12 -5.80944e-13
120 2 0.00788563 0.0146637 0.00449433 0.001 1.0472e-05 1.07118e-12 6.66138e-12 1.61781e-12
121 2 0.00300475 0.0126469 0.00244603 0.001 1.0472e-05 -3.87581e-12 -1.07913e-12 1.72477e-12
122 2 0.00551038 0.000193278 0.0123506 0.001 1.0472e-05 1.21065e-13 -1.47137e-12 -4.63829e-14
123 2 0.00651061 0.015104 0.000918837 0.001 1.0472e-05 -5.0646e-14 -2.39783e-14 2.18943e-13
124 2 0.0104086 0.00643115 0.00240851 0.001 1.0472e-05 1.72977e-13 5.95826e-14 5.29455e-13
125 2 0.00803012 0.0112866 0.00712907 0.001 1.0472e-05 -7.87422e-13 -2.28939e-13 3.03571e-13
126 2 0.0126906 0.00931031 0.0130658 0.001 1.0472e-05 5.86605e-13 1.62764e-12 9.42549e-13
127 2 0.0136442 0.00698098 0.00135459 0.001 1.0472e-05 -1.31554e-12 5.09538e-13 8.12484e-13
128 2 0.00614702 0.010572 0.0144763 0.001 1.0472e-05 -9.38682e-13 1.58623e-12 -1.85556e-12
129 2 3.46826e-05 0.00992712 0.00746553 0.001 1.0472e-05 7.78515e-13 1.94013e-12 2.29284e-12
130 2 0.00897495 5.40133e-05 0.00769147 0.001 1.0472e-05 1.6221e-13 7.95083e-13 -2.52157e-13
131 2 0.00112265 0.00916302 0.00384325 0.001 1.0472e-05 -7.967e-13 -2.41146e-11 1.06685e-11
132 2 0.00682598 0.00526733 0.00407929 0.001 1.0472e-05 7.16134e-13 5.9568e-13 9.55446e-13
133 2 0.00821564 0.0149291 0.0094341 0.001 1.0472e-05 6.40079e-13 1.5791e-12 -4.83523e-13
134 2 0.00596955 0.000636167 0.010557 0.001 1.0472e-05 -1.23047e-13 7.40853e-14 1.92735e-13
135 2 0.00460998 0.00467774 0.00415243 0.001 1.0472e-05 -1.04374e-14 2.46894e-12 6.12458e-13
136 2 0.0103861 0.00503616 0.00827921 0.001 1.0472e-05 -4.88536e-13 -4.60954e-13 -1.22175e-13
137 2 0.00767645 0.00737492 0.00744794 0.001 1.0472e-05 4.68967e-14 2.48754e-13 -3.18752e-13
138 2 0.0108114 0.0152196 0.00816243 0.001 1.0472e-05 7.8017e-13 1.44475e-12 3.00504e-13
139 2 0.00214493 0.0132244 0.000893843 0.001 1.0472e-05 -1.62121e-15 4.56793e-13 9.44334e-13
140 2 0.0103115 0.00653467 0.0131652 0.001 1.0472e-05 -4.61033e-14 1.66646e-14 -1.66971e-13
141 2 0.00062275 0.00519854 0.00349011 0.001 1.0472e-05 -2.57713e-12 1.90228e-12 -2.75114e-12
142 2 0.00668069 0.00477291 0.0144254 0.001 1.0472e-05 -3.10726e-13 1.68988e-12 2.13912e-13
143 2 0.00356461 0.00530755 0.000971482 0.001 1.0472e-05 1.36643e-12 -8.09097e-14 1.42903e-12
144 2 0.00923665 0.00322447 0.00599881 0.001 1.0472e-05 -1.0655e-12 -3.21475e-13 2.74716e-13
145 2 0.00605086 0.00375021 0.00726297 0.001 1.0472e-05 -1.71767e-13 6.09233e-13 -5.59733e-13
146 2 0.00765235 0.00244764 0.00835558 0.001 1.0472e-05 -3.21051e-13 2.12223e-13 5.56664e-13
147 2 0.00553643 0.00358944 0.0135066 0.001 1.0472e-05 -1.94211e-13 1.89714e-12 -6.77987e-13
148 2 0.00499799 0.00368639 0.000931213 0.001 1.0472e-05 -8.4406e-14 -1.93533e-13 -1.60648e-13
149 2 0.00966971 0.00944868 0.00105723 0.001 1.0472e-05 4.28258e-13 -1.41311e-12 -5.27598e-13
150 2 0.00473722 0.0122875 0.0144401 0.001 1.0472e-05 -3.38074e-13 8.98648e-13 -2.08354e-12
151 2 0.00285297 0.00377461 0.00600539 0.001 1.0472e-05 -6.37111e-13 -1.2436e-14 -3.01852e-13
152 2 0.00256651 0.00804436 0.00550332 0.001 1.0472e-05 -2.11822e-13 5.56377e-12 -6.64131e-13
153 2 0.00595248 0.00634115 0.00815811 0.001 1.0472e-05 2.46706e-13 2.5027e-13 3.71627e-13
154 2 0.00438839 0.00714471 0.0035017 0.001 1.0472e-05 3.81638e-12 3.51302e-12 -7.26505e-13
155 2 0.00375196 0.00413026 0.0024455 0.001 1.0472e-05 4.20866e-13 -2.51341e-14 7.38568e-13
156 2 0.0130911 0.0119945 0.00623744 0.001 1.0472e-05 9.88012e-14 -1.42269e-13 1.03007e-12
157 2 0.00466342 0.00579947 0.00941853 0.001 1.0472e-05 -1.53577e-13 -2.31488e-13 -1.77087e-14
158 2 0.0149355 0.00386567 0.0110607 0.001 1.0472e-05 -4.56856e-13 5.22025e-13 2.92786e-15
159 2 0.00620192 0.00233403 0.00964688 0.001 1.0472e-05 5.47174e-13 9.62069e-15 -4.60202e-13
160 2 0.00989067 0.012604 0.0114439 0.001 1.0472e-05 -1.36676e-13 -5.22554e-13 7.30462e-13
161 2 0.00380763 0.00221863 0.00255163 0.001 1.0472e-05 3.02805e-14 2.61806e-13 1.38168e-13
162 2 0.0125627 0.0060441 0.0129981 0.001 1.0472e-05 4.42188e-14 4.63531e-13 4.80785e-14
163 2 0.00196709 0.00722748 0.013244 0.001 1.0472e-05 -3.09296e-13 3.72542e-13 1.11942e-13
164 2 0.0139952 0.0114578 0.00464797 0.001 1.0472e-05 -7.65466e-13 -7.30221e-13 -3.35584e-13
165 2 0.00710933 0.000980264 0.00497748 0.001 1.0472e-05 -9.94802e-13 8.47739e-13 4.7796e-13
166 2 0.012425 0.000921857 0.0042645 0.001 1.0472e-05 1.76872e-12 1.07984e-12 -6.40597e-13
167 2 0.012651 0.00128714 0.0111185 0.001 1.0472e-05 -9.47917e-14 5.78884e-13 1.5185e-13
168 2 0.00834797 0.00664884 0.00350222 0.001 1.0472e-05 7.80063e-13 1.86818e-14 -6.30406e-13
169 2 0.014064 0.0014028 0.00657433 0.001 1.0472e-05 -2.62956e-13 9.25714e-13 4.06902e-13
170 2 0.00684089 0.0123963 0.014438 0.001 1.0472e-05 3.69411e-13 -5.3112e-13 -3.2934e-14
171 2 0.00702395 0.00555058 0.00961226 0.001 1.0472e-05 -6.41891e-14 8.3972e-13 1.61197e-13
172 2 0.00766036 0.00370837 0.0122813 0.001 1.0472e-05 -8.28424e-13 4.22968e-13 -9.10334e-15
173 2 0.00847306 0.00419297 0.00816946 0.001 1.0472e-05 -3.25237e-13 3.38884e-13 -1.6978e-14
174 2 0.0113774 0.0041081 0.00693719 0.001 1.0472e-05 1.13509e-13 -2.4216e-13 1.0628e-13
175 2 0.0117323 0.00697224 0.00105765 0.001 1.0472e-05 3.91053e-12 3.63164e-13 1.33882e-12
176 2 0.00958587 0.0089138 0.0143945 0.001 1.0472e-05 5.88263e-13 -6.15303e-13 -3.52408e-14
177 2 0.0100984 0.00381055 0.00100382 0.001 1.0472e-05 3.90425e-13 -1.62213e-13 2.05819e-13
178 2 0.00163329 0.0104747 0.0125467 0.001 1.0472e-05 -4.44286e-12 -4.24368e-12 -2.30347e-12
179 2 0.0123666 0.00559209 0.00981637 0.001 1.0472e-05 -9.11649e-13 6.86313e-14 -9.18328e-13
180 2 0.00565544 0.00874617 0.00810905 0.001 1.0472e-05 1.05232e-13 4.09145e-13 7.80951e-14
181 2 0.00488134 0.00885577 0.0144338 0.001 1.0472e-05 1.55527e-13 -1.23629e-13 -3.51153e-14
182 2 0.0102969 0.00103628 0.0066543 0.001 1.0472e-05 -3.13049e-13 6.71284e-13 5.41836e-14
183 2 0.0121296 0.00687908 0.00849013 0.001 1.0472e-05 1.58037e-13 3.52715e-13 -1.13626e-12
184 2 0.0112976 0.0117482 0.0125535 0.001 1.0472e-05 3.56961e-13 -1.78457e-13 -1.06859e-12
185 2 0.00362234 0.00198278 0.00545843 0.001 1.0472e-05 -4.03888e-13 -2.75314e-13 7.39576e-14
186 2 0.0081318 0.00824641 0.00117964 0.001 1.0472e-05 1.46528e-13 2.87633e-13 4.61942e-13
187 2 0.0124287 0.00428353 0.00841653 0.001 1.0472e-05 -4.5115e-13 -1.0395e-13 -1.45859e-14
188 2 0.00367098 0.0105169 0.0144486 0.001 1.0472e-05 1.598e-13 8.21395e-13 -2.03678e-12
189 2 0.00896445 0.0107753 0.0124501 0.001 1.0472e-05 -8.25642e-13 -1.86535e-13 1.81508e-13
190 2 0.00173579 0.00459043 0.00196659 0.001 1.0472e-05 -2.31393e-12 -4.09998e-13 -4.60318e-13
191 2 0.00224412 0.00415124 0.0130933 0.001 1.0472e-05 -9.1517e-13 5.19925e-13 -4.75344e-13
192 2 0.0152658 0.00947348 0.00526168 0.001 1.0472e-05 -3.27871e-12 -4.1074e-12 8.25263e-12
193 2 0.000130045 0.00557449 0.0102229 0.001 1.0472e-05 -2e-14 -1.26178e-13 3.1931e-13
194 2 0.0138314 0.00570298 0.00285196 0.001 1.0472e-05 -1.97708e-12 2.83981e-13 1.73399e-12
195 2 0.0134329 0.0140008 0.0141018 0.001 1.0472e-05 1.19344e-14 1.36437e-13 2.33132e-14
196 2 0.0115811 0.00163573 0.0027031 0.001 1.0472e-05 9.33724e-15 1.05843e-12 -5.53972e-13
197 2 0.00788761 0.00294092 0.0104617 0.001 1.0472e-05 -2.6228e-15 -1.38881e-13 6.62334e-13
198 2 0.0108441 0.0049835 0.00356731 0.001 1.0472e-05 3.73577e-13 -8.14956e-13 -4.34817e-13
199 2 0.00598048 0.0117729 0.00414084 0.001 1.0472e-05 7.40006e-13 4.17497e-13 1.63752e-13
200 2 0.00492043 0.000104423 0.0144368 0.001 1.0472e-05 -8.04182e-13 -1.90742e-12 2.79024e-12
201 2 0.0120278 0.00678938 0.00352259 0.001 1.0472e-05 7.58483e-13 -3.75961e-13 -5.55322e-13
202 2 0.0142893 0.0124847 0.0128352 0.001 1.0472e-05 -4.68187e-14 -4.09956e-14 3.17908e-13
203 2 0.0144312 0.0153381 0.00507436 0.001 1.0472e-05 -2.12991e-13 -9.30924e-13 -1.58203e-12
204 2 0.00689028 0.00576707 0.00664587 0.001 1.0472e-05 -6.27966e-13 2.6599e-14 1.94349e-12
205 2 0.00885051 0.0121699 0.00319263 0.001 1.0472e-05 -1.97639e-12 -9.44797e-12 -4.52512e-12
206 2 0.00910831 0.00145795 0.0120769 0.001 1.0472e-05 1.52936e-13 -5.95357e-13 4.50778e-14
207 2 0.00292381 0.00703758 0.00710943 0.001 1.0472e-05 -2.84001e-13 3.342e-13 1.0261e-12
208 2 0.0103415 0.0127714 0.00535073 0.001 1.0472e-05 2.93239e-12 1.55284e-12 1.96191e-12
209 2 0.00769193 0.0147256 0.00248624 0.001 1.0472e-05 -4.33934e-13 2.1844e-13 8.35171e-14
210 2 0.0109767 0.00849522 0.00220497 0.001 1.0472e-05 -3.91879e-13 1.73327e-12 2.8063e-13
211 2 0.00427875 0.00866609 0.00487637 0.001 1.0472e-05 -2.7899e-12 -3.9493e-12 1.1531e-12
212 2 0.00791916 0.00791884 0.0144381 0.001 1.0472e-05 -1.21779e-13 -4.91324e-13 -3.21006e-14
213 2 0.00343029 0.00738803 0.0144698 0.001 1.0472e-05 -2.40174e-13 5.04513e-13 1.36363e-14
214 2 0.00121498 0.00673165 0.0114686 0.001 1.0472e-05 5.84835e-14 5.34814e-13 -1.4669e-14
215 2 0.00775332 0.0131311 0.00764113 0.001 1.0472e-05 -4.37463e-13 8.62295e-13 1.35822e-13
216 2 0.00670782 0.000474275 0.00877507 0.001 1.0472e-05 2.38355e-13 6.09198e-13 6.41501e-14
217 2 0.000188496 0.0110279 0.00247512 0.001 1.0472e-05 1.45833e-12 -4.0569e-13 1.04003e-12
218 2 0.00952033 0.00803005 0.0127247 0.001 1.0472e-05 -3.10039e-13 2.68549e-13 5.03194e-13
219 2 0.00393701 0.0147811 0.0057769 0.001 1.0472e-05 -2.72115e-13 4.78233e-14 2.65979e-13
220 2 0.00988633 0.0106944 0.00255716 0.001 1.0472e-05 -4.70502e-12 -7.05232e-12 -2.53784e-12
221 2 0.0114154 0.0120561 0.0102338 0.001 1.0472e-05 -1.21243e-12 2.5805e-13 2.63914e-13
222 2 0.00405859 0.00332257 0.0114223 0.001 1.0472e-05 8.13988e-15 4.10589e-13 -6.15856e-13
223 2 0.0140674 0.0133788 0.00723346 0.001 1.0472e-05 -6.00355e-13 1.52471e-12 1.0981e-12
224 2 0.00671084 0.000918967 0.0144332 0.001 1.0472e-05 9.75156e-15 -1.38175e-12 -2.30243e-13
225 2 0.00717184 0.00733044 0.0116845 0.001 1.0472e-05 3.12967e-15 3.47541e-13 -4.35233e-13
226 2 0.014388 0.00982033 0.0100191 0.001 1.0472e-05 -3.81236e-12 -3.34427e-12 1.83388e-12
227 2 0.0140814 0.00517734 0.000952969 0.001 1.0472e-05 1.32204e-13 9.43832e-15 4.86776e-13
228 2 0.0104887 0.000829647 0.00455374 0.001 1.0472e-05 7.64906e-13 4.30569e-12 3.21046e-13
229 2 0.00121221 0.00480609 0.011581 0.001 1.0472e-05 -3.41266e-13 3.25969e-13 -4.60249e-13
230 2 0.00976593 0.0105226 0.00743497 0.001 1.0472e-05 1.24588e-13 -1.09967e-13 8.30434e-13
231 2 0.0112425 0.0114017 0.00650677 0.001 1.0472e-05 4.92496e-13 6.81777e-13 9.26167e-13
232 2 0.00920862 0.00535279 0.00456381 0.001 1.0472e-05 1.0397e-11 5.97934e-12 -7.8495e-12
233 2 0.00125152 0.00885797 0.00931557 0.001 1.0472e-05 1.18315e-12 5.26418e-13 -2.06369e-13
234 2 0.00277594 0.00784324 0.0111126 0.001 1.0472e-05 2.09941e-13 -1.0931e-13 1.22444e-13
235 2 0.00207861 0.00313268 0.0113362 0.001 1.0472e-05 -1.87567e-12 1.52532e-12 -1.20477e-12
236 2 0.00247417 0.0119146 0.0136837 0.001 1.0472e-05 -8.84695e-13 8.15882e-14 1.59742e-13
237 2 0.0143384 0.0109769 0.0143863 0.001 1.0472e-05 -5.77818e-14 6.7199e-13 6.33655e-13
238 2 0.00980171 0.0073182 0.00695147 0.001 1.0472e-05 3.46407e-13 3.99015e-14 -1.62217e-13
239 2 0.00346107 0.00893277 0.00689295 0.001 1.0472e-05 1.43534e-13 -3.78981e-12 -6.21898e-13
240 2 0.00013095 0.00386518 0.0128704 0.001 1.0472e-05 -9.23596e-13 9.01298e-13 -2.29296e-13
241 2 0.0131435 0.00727658 0.0144219 0.001 1.0472e-05 -3.63792e-14 3.88435e-13 3.06181e-13
242 2 0.0116917 0.0111957 0.00100093 0.001 1.0472e-05 1.12814e-166 9.00697e-167 -1.83408e-167
243 2 0.0121222 0.00273695 0.0123316 0.001 1.0472e-05 -1.10235e-13 5.9428e-13 3.65134e-14
244 2 0.0063895 0.0066611 0.0144462 0.001 1.0472e-05 -2.49065e-14 2.99944e-13 5.86089e-13
245 2 0.00699307 0.00771328 0.00456424 0.001 1.0472e-05 1.9152e-12 3.28274e-13 1.32457e-12
246 2 0.00179503 0.0141454 0.0132532 0.001 1.0472e-05 -1.61187e-13 7.95438e-13 -1.65804e-13
247 2 0.0031335 0.0131139 0.0122579 0.001 1.0472e-05 1.01552e-13 -1.74939e-14 1.56295e-12
248 2 0.014561 0.00601959 0.0046736 0.001 1.0472e-05 -9.53948e-13 3.67888e-12 -2.66482e-12
249 2 0.00433469 0.00736447 0.00829755 0.001 1.0472e-05 -2.60518e-15 5.41871e-14 -5.85456e-14
250 2 0.0103367 0.0128286 0.00101671 0.001 1.0472e-05 3.45554e-12 1.40105e-13 1.67681e-12
251 2 0.013189 0.00300368 0.00590076 0.001 1.0472e-05 -4.5361e-13 8.60902e-13 4.28259e-13
252 2 0.0125938 0.0106869 0.0116185 0.001 1.0472e-05 -8.64098e-14 5.87453e-13 5.62735e-13
253 2 0.010242 0.0128323 0.00886896 0.001 1.0472e-05 -8.7956e-15 -6.9474e-13 -1.64715e-13
254 2 0.0130167 0.0110777 0.00977267 0.001 1.0472e-05 -2.27052e-12 6.99375e-14 1.54318e-12
255 2 0.00958862 0.00910755 0.0112324 0.001 1.0472e-05 -2.7864e-13 4.43049e-13 8.85841e-13
256 2 0.00450527 0.0104941 0.00577002 0.001 1.0472e-05 1.84774e-13 6.70697e-13 6.52496e-13
257 2 0.0108053 0.00205166 0.000923876 0.001 1.0472e-05 1.19978e-14 7.49589e-14 -4.58032e-15
258 2 0.00820679 0.000596175 0.000981926 0.001 1.0472e-05 7.59106e-13 -4.0005e-15 -7.92237e-14
259 2 0.000356429 0.00136864 0.00552862 0.001 1.0472e-05 1.29802e-13 2.07887e-13 1.36655e-13
260 2 0.0112089 0.00958091 0.00588379 0.001 1.0472e-05 2.84207e-13 4.11238e-13 -4.47533e-13
261 2 0.00306455 0.0033865 0.000878683 0.001 1.0472e-05 2.82269e-13 1.04328e-13 2.8424e-13
262 2 0.0116835 0.00141944 0.013806 0.001 1.0472e-05 2.60383e-14 4.68866e-13 -4.54797e-14
263 2 0.00601822 0.0147514 0.00474514 0.001 1.0472e-05 -4.67242e-13 -1.66418e-14 -8.12927e-13
264 2 0.00488646 0.00345258 0.00558728 0.001 1.0472e-05 -3.57186e-13 8.4926e-13 2.47176e-13
265 2 0.00631146 0.0119816 0.00996341 0.001 1.0472e-05 6.1279e-14 9.99317e-14 1.47002e-12
266 2 0.0109127 0.0085422 0.00990116 0.001 1.0472e-05 -1.20165e-13 -1.23971e-12 1.41669e-12
267 2 0.00554049 0.00130326 0.00760843 0.001 1.0472e-05 -1.44672e-14 4.48008e-13 5.20945e-13
268 2 0.0105507 0.00651845 0.00943322 0.001 1.0472e-05 -4.90576e-13 -3.5356e-14 -4.9663e-14
269 2 0.00224932 0.00530156 0.00686717 0.001 1.0472e-05 -2.74633e-13 6.92735e-13 3.05396e-13
270 2 0.00631435 0.0105618 0.00761167 0.001 1.0472e-05 1.26878e-13 4.59185e-13 2.79414e-14
271 2 0.0125621 0.013166 0.0125539 0.001 1.0472e-05 -7.55254e-13 8.32969e-13 -6.57343e-14
272 2 0.0048922 0.0109588 0.0130586 0.001 1.0472e-05 7.06799e-13 2.17123e-12 -1.86286e-12
273 2 0.0152112 0.0147564 0.0144539 0.001 1.0472e-05 2.37146e-13 4.26541e-14 -1.54897e-13
274 2 0.00485064 0.0138416 0.0133341 0.001 1.0472e-05 -1.13503e-12 1.71134e-12 1.33735e-12
275 2 0.0146456 0.00517135 0.00650049 0.001 1.0472e-05 -4.92311e-13 -1.29769e-12 1.48368e-12
276 2 0.00434051 0.00706233 0.00108022 0.001 1.0472e-05 -5.89938e-13 -7.64926e-13 3.494e-12
277 2 0.0143623 0.0121269 0.00893026 0.001 1.0472e-05 -5.22846e-13 9.79927e-13 -1.73456e-12
278 2 0.0140587 0.00360548 0.00294147 0.001 1.0472e-05 -9.62869e-13 3.70765e-12 5.3944e-13
279 2 0.0099428 0.0109526 0.00928911 0.001 1.0472e-05 -3.60093e-14 -2.01393e-13 1.31879e-13
280 2 0.00295719 0.00111458 0.00386686 0.001 1.0472e-05 -2.05899e-13 -1.1026e-13 -4.50828e-13
281 2 0.0132134 0.00979868 0.00560001 0.001 1.0472e-05 2.28344e-12 -1.01289e-12 9.55921e-13
282 2 0.0141406 0.00928317 0.0117879 0.001 1.0472e-05 -3.70875e-12 -1.21339e-12 2.38753e-13
283 2 0.00179232 0.0012124 0.00937196 0.001 1.0472e-05 -1.03644e-160 1.63256e-160 1.1949e-160
284 2 0.00906767 0.00863574 0.00935665 0.001 1.0472e-05 -4.73257e-14 4.43184e-13 2.01861e-13
285 2 0.0127709 0.0126568 0.00379471 0.001 1.0472e-05 2.35242e-14 1.023e-12 1.83951e-12
286 2 0.0133204 0.00274453 0.00778056 0.001 1.0472e-05 -1.75914e-13 -5.53388e-14 -1.31994e-13
287 2 0.00929695 0.014418 0.00133739 0.001 1.0472e-05 8.31442e-13 4.94821e-13 6.38009e-13
288 2 0.00432826 0.00166205 0.0106352 0.001 1.0472e-05 -4.94984e-13 4.45608e-13 -6.31854e-13
289 2 0.00644117 0.00915279 0.0111228 0.001 1.0472e-05 1.34721e-12 4.22405e-13 4.72219e-13
290 2 0.00800216 0.0129386 0.00100756 0.001 1.0472e-05 8.02747e-13 -3.90984e-13 6.14787e-13
291 2 0.0129399 0.000237953 0.00813466 0.001 1.0472e-05 -2.94773e-13 1.04327e-12 1.48184e-13
292 2 0.00984837 0.00503392 0.00629402 0.001 1.0472e-05 9.6967e-13 6.3044e-13 -1.05644e-12
293 2 0.00129889 0.00838279 0.00733574 0.001 1.0472e-05 -1.40827e-11 5.30315e-12 1.90929e-11
294 2 0.00963535 0.0109535 0.00558164 0.001 1.0472e-05 -2.65966e-14 1.3241e-12 -4.0246e-13
295 2 2.44753e-05 0.00194654 0.0131345 0.001 1.0472e-05 -1.11458e-12 5.78347e-13 5.47682e-13
296 2 0.00117094 0.0126331 0.0122848 0.001 1.0472e-05 -3.88313e-13 -7.35026e-13 1.76826e-13
297 2 0.0151886 0.0112151 0.00609208 0.001 1.0472e-05 -1.14583e-12 2.72914e-13 8.45565e-13
298 2 0.00784771 0.00882487 0.012719 0.001 1.0472e-05 2.20439e-14 -3.79415e-13 9.61629e-13
299 2 0.00880932 0.00624958 0.00857866 0.001 1.0472e-05 -8.02905e-14 2.02908e-14 -4.44971e-14
300 2 0.000872929 0.0127286 0.00939715 0.001 1.0472e-05 -9.02002e-13 4.8304e-13 2.74677e-12
301 2 0.0147171 0.00840553 0.00379187 0.001 1.0472e-05 2.43768e-12 2.11184e-13 5.21215e-13
302 2 0.0140686 0.013377 0.0052579 0.001 1.0472e-05 -1.15876e-12 2.65703e-13 -1.27716e-13
303 2 0.00459639 0.0135371 0.00448032 0.001 1.0472e-05 -7.81131e-13 4.55597e-13 -1.15603e-13
304 2 0.000245202 0.0122543 0.00759479 0.001 1.0472e-05 -1.05033e-12 1.24678e-12 4.70444e-13
305 2 0.00672031 0.0135267 0.0129133 0.001 1.0472e-05 -5.92819e-13 3.18001e-14 -6.66409e-16
306 2 0.00772744 0.00945319 0.0082673 0.001 1.0472e-05 -3.14716e-13 1.0594e-12 -1.21931e-13
307 2 0.0146668 0.00341406 0.000937875 0.001 1.0472e-05 -4.26814e-14 -6.68789e-14 -4.25651e-13
308 2 0.0103713 0.00800719 0.00515988 0.001 1.0472e-05 1.35474e-13 2.37639e-13 -1.04325e-13
309 2 0.0139205 0.0122292 0.000876656 0.001 1.0472e-05 5.299e-13 -1.21821e-12 4.18522e-12
310 2 0.010051 0.00227449 0.00345823 0.001 1.0472e-05 -6.98623e-13 1.50905e-12 -6.1733e-14
311 2 0.0132932 0.000565661 0.0145338 0.001 1.0472e-05 -1.31265e-13 8.73438e-14 -6.31142e-14
312 2 0.000601735 0.0139655 0.0108949 0.001 1.0472e-05 1.45923e-12 8.30361e-13 2.11259e-13
313 2 0.01052 0.0145903 0.00600404 0.001 1.0472e-05 1.83957e-12 4.00839e-13 1.61376e-12
314 2 0.00412339 0.00110397 0.00886668 0.001 1.0472e-05 -8.03819e-13 2.49235e-13 3.20437e-13
315 2 0.0123916 0.0106907 0.0144228 0.001 1.0472e-05 2.45308e-15 1.13222e-13 -2.49561e-13
316 2 0.00243888 0.00287291 0.0145113 0.001 1.0472e-05 -1.51404e-13 -4.22489e-13 2.99446e-15
317 2 0.00122156 0.00192236 0.00388018 0.001 1.0472e-05 1.77858e-13 -8.91389e-13 -3.82103e-13
318 2 0.00297585 0.00146217 0.00093036 0.001 1.0472e-05 3.36107e-13 3.75828e-13 -1.05969e-14
319 2 0.000114888 0.00744721 0.0100332 0.001 1.0472e-05 7.08787e-13 9.33622e-13 1.31123e-13
320 2 0.00242728 0.0148095 0.00469962 0.001 1.0472e-05 -7.49082e-14 -6.24661e-13 -6.57023e-13
321 2 0.0139971 0.00243437 0.0118515 0.001 1.0472e-05 -7.93997e-13 5.04551e-13 2.05497e-13
322 2 0.0149413 0.00312171 0.00681076 0.001 1.0472e-05 -1.3467e-13 -1.85771e-13 -6.5916e-14
323 2 0.0091516 0.011314 0.000909802 0.001 1.0472e-05 1.05333e-12 -1.96394e-12 -4.32905e-13
324 2 0.0140043 0.0090488 0.0144704 0.001 1.0472e-05 -1.76405e-14 -1.47385e-15 4.15078e-13
325 2 0.0103964 0.0107681 0.0111436 0.001 1.0472e-05 -5.4117e-13 9.17679e-14 -3.2792e-13
326 2 0.00750539 0.00278551 0.00645921 0.001 1.0472e-05 -1.03952e-12 -4.40201e-13 2.44152e-13
327 2 0.000993703 0.00867188 0.0112546 0.001 1.0472e-05 1.18044e-12 4.74557e-13 1.12366e-13
328 2 0.0153355 0.0140726 0.0126842 0.001 1.0472e-05 3.58379e-13 7.26046e-14 8.55251e-13
329 2 0.000446424 0.0123726 0.00110564 0.001 1.0472e-05 2.52852e-12 -4.01415e-12 1.48148e-12
330 2 0.000896318 0.00296225 0.00983093 0.001 1.0472e-05 -3.09098e-13 2.00359e-14 8.07622e-14
331 2 0.00662621 0.0139323 0.0089874 0.001 1.0472e-05 7.34477e-14 3.54959e-13 4.59292e-13
332 2 0.0135283 0.0142585 0.0112482 0.001 1.0472e-05 -1.0153e-12 2.04214e-15 -2.37562e-13
333 2 0.00515661 0.000876717 0.0056449 0.001 1.0472e-05 7.64352e-14 -1.49661e-13 7.93807e-14
334 2 0.00942635 0.013709 0.00395119 0.001 1.0472e-05 -3.17598e-12 7.88219e-12 5.01141e-12
335 2 0.00613562 0.00809624 0.0131871 0.001 1.0472e-05 -1.48102e-13 -3.27727e-13 4.31008e-13
336 2 0.00735217 0.0118358 0.012505 0.001 1.0472e-05 9.91686e-13 6.39404e-13 -1.20049e-12
337 2 0.00517395 0.00385498 0.0089787 0.001 1.0472e-05 1.80523e-13 -1.46106e-13 -3.11239e-13
338 2 0.0151626 0.0100646 0.000915504 0.001 1.0472e-05 1.10678e-13 -3.20566e-12 1.25142e-12
339 2 0.00311871 0.0117482 0.00918001 0.001 1.0472e-05 3.54439e-12 -6.22903e-13 -8.88267e-13
340 2 0.00375373 0.00287977 0.0131896 0.001 1.0472e-05 2.85996e-14 -4.95515e-13 -3.56016e-13
341 2 0.00925443 0.00810723 0.00273991 0.001 1.0472e-05 2.49013e-13 -8.11444e-14 -1.77722e-14
342 2 0.000552867 0.0111559 0.0043247 0.001 1.0472e-05 -1.44272e-12 1.41049e-12 8.58676e-13
343 2 0.000439489 0.0017736 0.0112538 0.001 1.0472e-05 -1.80587e-12 7.13603e-13 -2.30185e-12
344 2 0.0102891 0.00935576 0.00382494 0.001 1.0472e-05 -8.21251e-14 2.26312e-13 3.75461e-13
345 2 0.00475659 0.00651099 0.0134744 0.001 1.0472e-05 -4.88226e-13 7.26188e-13 1.5492e-13
346 2 0.00316184 0.000728348 0.00686216 0.001 1.0472e-05 2.88982e-14 7.47235e-13 4.23955e-13
347 2 0.00994371 0.000563877 0.00245812 0.001 1.0472e-05 6.10744e-13 1.39543e-12 6.37156e-13
348 2 0.00807308 0.0105261 0.0142541 0.001 1.0472e-05 6.44756e-12 -2.86235e-11 5.56747e-11
349 2 0.0108194 0.00948687 0.0126905 0.001 1.0472e-05 -5.41286e-13 2.14253e-12 2.28176e-12
350 2 0.000945682 0.0109312 0.0144409 0.001 1.0472e-05 -7.41344e-13 -1.07418e-12 9.07688e-15
351 2 0.00426029 0.0151013 0.0102759 0.001 1.0472e-05 -5.523e-13 8.96135e-13 2.54812e-13
352 2 0.00181124 0.0132134 0.00762017 0.001 1.0472e-05 6.82883e-13 1.53066e-12 1.43147e-12
353 2 0.00242491 0.00721216 0.000827314 0.001 1.0472e-05 -3.80885e-12 -2.20199e-12 -3.86447e-13
354 2 0.00141266 0.0134246 0.00270396 0.001 1.0472e-05 -1.28936e-12 4.02441e-12 5.22682e-12
355 2 0.00524378 0.00172016 0.0134735 0.001 1.0472e-05 -1.74663e-13 -2.51666e-12 9.42755e-13
356 2 0.00598849 0.0131524 0.00582001 0.001 1.0472e-05 -2.72638e-14 -5.73142e-14 1.24276e-14
357 2 0.00163745 0.00022795 0.0144584 0.001 1.0472e-05 7.94112e-13 6.45277e-13 -5.49847e-13
358 2 0.0145975 0.00852935 0.0019473 0.001 1.0472e-05 3.14406e-12 1.0922e-12 2.10117e-13
359 2 0.00279072 0.00579316 0.0122552 0.001 1.0472e-05 -3.07698e-13 4.749e-13 6.31775e-14
360 2 0.0127292 0.00529555 0.00625836 0.001 1.0472e-05 5.49641e-13 -1.2036e-13 9.72288e-13
361 2 0.00866282 0.00852882 0.0045189 0.001 1.0472e-05 9.60664e-13 -5.71911e-13 8.00031e-13
362 2 0.00842177 0.00949936 0.00641444 0.001 1.0472e-05 -3.45593e-13 2.54194e-13 4.09706e-13
363 2 0.00443221 0.0104068 0.00959159 0.001 1.0472e-05 1.21538e-12 7.55522e-14 9.38924e-13
364 2 0.0116886 0.00510188 0.0114819 0.001 1.0472e-05 -4.51959e-14 2.6182e-13 1.48686e-14
365 2 0.00786231 0.00100995 0.0106685 0.001 1.0472e-05 2.8098e-13 -2.51097e-13 -4.12328e-14
366 2 0.00322545 0.0135731 0.0144265 0.001 1.0472e-05 -3.33076e-13 -4.80257e-14 3.78912e-14
367 2 0.00888491 0.000487458 0.00554631 0.001 1.0472e-05 -3.52309e-14 2.65029e-12 9.96644e-13
368 2 0.00313377 0.00878054 0.00880823 0.001 1.0472e-05 7.16437e-13 -2.1954e-13 1.9205e-13
369 2 0.0116697 0.00170435 0.00949332 0.001 1.0472e-05 -3.82971e-13 8.45959e-13 -7.24746e-14
370 2 0.00786535 0.00451558 0.00566684 0.001 1.0472e-05 -1.11338e-11 -6.41351e-12 9.14466e-12
371 2 0.00959845 0.0132834 0.00708136 0.001 1.0472e-05 8.40541e-14 5.00997e-13 6.34377e-13
372 2 0.00546281 0.00329967 0.00275441 0.001 1.0472e-05 -4.05456e-14 -1.35499e-13 4.54681e-14
373 2 0.00974463 0.00289627 0.00879783 0.001 1.0472e-05 -4.3135e-13 3.00228e-13 -6.61421e-13
374 2 0.0135902 0.00443037 0.00469132 0.001 1.0472e-05 6.73324e-13 3.67549e-13 8.20278e-13
375 2 0.0112689 0.00595494 0.00517181 0.001 1.0472e-05 6.43578e-13 -4.06582e-13 5.38895e-13
376 2 0.00343631 0.0142537 0.00320013 0.001 1.0472e-05 1.4349e-14 2.3293e-13 4.37431e-13
377 2 0.0103664 0.00256296 0.0129538 0.001 1.0472e-05 -9.4438e-15 4.03953e-13 7.15192e-14
378 2 0.00442375 0.00486337 0.0144517 0.001 1.0472e-05 -2.78652e-13 1.07397e-12 3.1275e-13
379 2 0.0131083 0.0151519 0.00634209 0.001 1.0472e-05 -4.02992e-13 9.10641e-13 -8.34247e-13
380 2 0.0135321 0.00572351 0.00796562 0.001 1.0472e-05 -7.08207e-13 -4.41881e-13 4.19853e-13
381 2 0.00655556 0.0101564 0.0126873 0.001 1.0472e-05 6.76789e-13 2.26029e-13 -2.12498e-12
382 2 0.000868167 0.00843389 0.000946112 0.001 1.0472e-05 -4.58037e-13 -3.10576e-12 -3.10027e-12
383 2 0.014846 0.00858721 0.00869122 0.001 1.0472e-05 -1.68466e-13 -2.05724e-13 2.2399e-12
384 2 0.0131033 0.0129878 0.00998857 0.001 1.0472e-05 -2.15916e-12 2.32705e-12 1.95486e-12
385 2 0.0064823 0.0113227 0.00590426 0.001 1.0472e-05 8.80057e-13 3.01735e-13 5.66706e-13
386 2 0.00636653 0.0142786 0.0145242 0.001 1.0472e-05 3.95845e-14 -1.22693e-12 1.41692e-13
387 2 0.00902812 0.00014053 0.0144979 0.001 1.0472e-05 2.36527e-13 2.30669e-13 -6.32151e-14
388 2 0.0140489 0.00182636 0.00464818 0.001 1.0472e-05 -7.03854e-13 -2.96589e-13 -4.71354e-13
389 2 0.00709947 0.00449155 0.00233685 0.001 1.0472e-05 -4.27075e-13 9.80509e-14 -3.18593e-14
390 2 0.00227017 0.0120674 0.0108716 0.001 1.0472e-05 8.40476e-13 -1.72257e-13 -1.43429e-13
391 2 0.0133861 0.00745659 0.0048272 0.001 1.0472e-05 -3.73572e-12 5.40689e-12 -4.18993e-12
392 2 0.00450164 0.00479017 0.0125053 0.001 1.0472e-05 -1.98508e-13 9.61451e-13 1.63898e-13
393 2 0.00708466 0.00667395 0.000893627 0.001 1.0472e-05 -2.16087e-14 -2.80464e-13 2.26906e-13
394 2 0.0098952 0.00751971 0.00091923 0.001 1.0472e-05 -2.03087e-12 1.01374e-12 1.22336e-14
395 2 0.00872958 0.012477 0.014259 0.001 1.0472e-05 -2.63739e-13 -8.26767e-13 8.53279e-13
396 2 0.00983426 0.00183124 0.0144935 0.001 1.0472e-05 3.6829e-13 5.9634e-15 1.19005e-13
397 2 0.00486826 0.00127576 0.00103317 0.001 1.0472e-05 1.50996e-13 1.44715e-13 4.71264e-13
398 2 0.0111045 0.00763609 0.0144561 0.001 1.0472e-05 -9.74874e-14 2.68936e-13 6.29873e-13
399 2 0.00625622 0.0101186 0.00942711 0.001 1.0472e-05 -1.49348e-14 1.42033e-13 1.74047e-13
400 2 0.00137202 0.0131942 0.00461515 0.001 1.0472e-05 -8.69687e-13 1.87548e-13 -1.64791e-12
401 3 0.00402929 0.00277514 0.00746911 0.00125 2.04531e-05 -3.42047e-13 2.20616e-13 -2.04933e-13
402 3 0.0103698 0.00270005 0.0108443 0.00125 2.04531e-05 -4.82165e-13 6.13442e-13 2.62522e-13
403 3 0.000446294 0.00635401 0.00134377 0.00125 2.04531e-05 -4.60381e-12 -7.2595e-12 -5.0758e-13
404 3 0.00314938 0.00890264 0.00298454 0.00125 2.04531e-05 5.4318e-12 -8.87743e-13 1.13197e-13
405 3 0.00587357 0.0122507 0.00114234 0.00125 2.04531e-05 -9.38608e-14 6.80818e-13 -9.26034e-13
406 3 0.00422476 0.0111463 0.00309329 0.00125 2.04531e-05 -1.80359e-12 2.54371e-12 1.15465e-12
407 3 0.0134424 0.0107753 0.00239017 0.00125 2.04531e-05 6.14068e-13 1.39609e-12 -8.36224e-12
408 3 0.00292616 0.0147691 0.00856127 0.00125 2.04531e-05 2.63041e-13 1.2849e-12 7.729e-13
409 3 0.00167084 0.00224708 0.00704068 0.00125 2.04531e-05 -4.90118e-14 1.11642e-12 5.11216e-13
410 3 0.0123298 0.0132325 0.00179141 0.00125 2.04531e-05 1.15164e-12 -1.51033e-14 6.9801e-12
411 3 0.00259075 0.00997488 0.0105949 0.00125 2.04531e-05 1.83735e-13 -1.01171e-12 -4.87899e-13
412 3 7.94774e-05 0.00343842 0.00472341 0.00125 2.04531e-05 1.43234e-13 -8.20611e-13 1.38419e-12
413 3 0.0141951 0.0149763 0.00108876 0.00125 2.04531e-05 -1.77345e-12 -9.46552e-13 -2.27004e-12
414 3 0.00444909 0.0118166 0.01119 0.00125 2.04531e-05 1.7684e-12 -1.06848e-12 2.97273e-12
415 3 0.0112575 0.0145841 0.00352793 0.00125 2.04531e-05 1.40714e-12 1.17073e-11 9.53177e-12
416 3 0.00672808 0.00309407 0.00446567 0.00125 2.04531e-05 -1.34782e-12 2.56747e-13 8.29895e-13
417 3 0.012169 0.0123566 0.008173 0.00125 2.04531e-05 -2.31475e-12 1.30508e-12 -1.01737e-13
418 3 0.0115829 0.00376957 0.0142467 0.00125 2.04531e-05 8.9401e-14 2.49831e-13 -3.49801e-14
419 3 0.00907101 0.00396551 0.00288193 0.00125 2.04531e-05 1.39918e-12 5.85661e-13 -3.06388e-13
420 3 0.0142318 0.00172902 0.00966919 0.00125 2.04531e-05 1.76962e-14 7.577e-13 -6.50298e-13
421 3 0.0116988 7.09532e-05 0.0011701 0.00125 2.04531e-05 2.15155e-12 1.26459e-12 1.58965e-12
422 3 0.00602912 0.00412609 0.0109517 0.00125 2.04531e-05 -4.25696e-13 4.93213e-13 8.56539e-13
423 3 0.011963 0.00756614 0.00648659 0.00125 2.04531e-05 2.48128e-13 2.98877e-12 -1.50965e-12
424 3 0.000102377 0.00660374 0.00801827 0.00125 2.04531e-05 2.01766e-13 2.83817e-13 7.19776e-13
425 3 0.011678 0.0151357 0.0123851 0.00125 2.04531e-05 -1.02565e-12 -6.91569e-14 -7.18494e-13
426 3 0.00384937 0.0130422 0.00698835 0.00125 2.04531e-05 7.68754e-13 1.21501e-12 1.54133e-12
427 3 3.89826e-05 0.0081579 0.0131157 0.00125 2.04531e-05 1.83928e-12 1.76101e-12 2.17308e-12
428 3 0.00702203 0.00774524 0.00951469 0.00125 2.04531e-05 -2.30857e-13 2.57482e-13 7.34816e-13
429 3 0.00463773 0.0131935 0.00918635 0.00125 2.04531e-05 2.1964e-12 -5.03463e-13 3.60649e-12
430 3 0.00586722 0.013836 0.0110639 0.00125 2.04531e-05 4.18323e-13 1.68461e-12 2.11762e-12
431 3 0.0147325 0.00148578 0.00250492 0.00125 2.04531e-05 -3.73477e-13 -1.26918e-12 -1.12894e-12
432 3 0.0113748 0.0111483 0.00431186 0.00125 2.04531e-05 -1.33967e-13 2.37327e-12 9.29892e-13
433 3 0.00911104 0.00703365 0.010864 0.00125 2.04531e-05 -3.06717e-13 3.81349e-13 -5.21226e-14
434 3 0.00233194 0.00378077 0.00393233 0.00125 2.04531e-05 1.19314e-13 6.5993e-13 -8.83264e-15
435 3 0.0102229 0.0109504 0.0142293 0.00125 2.04531e-05 -1.10689e-12 -2.15132e-12 -5.37935e-13
436 3 0.00527029 0.0064194 0.0114068 0.00125 2.04531e-05 -3.17367e-13 3.46288e-13 -8.32881e-14
437 3 0.00543637 0.00644766 0.00525081 0.00125 2.04531e-05 8.00756e-12 5.65871e-12 2.99013e-12
438 3 0.0144972 0.0040673 0.00900414 0.00125 2.04531e-05 -1.05488e-12 1.19728e-14 2.77955e-14
439 3 0.00122558 0.0152343 0.00120664 0.00125 2.04531e-05 -2.16913e-13 -5.15512e-13 -7.39011e-13
440 3 0.00979045 0.0151005 0.0108447 0.00125 2.04531e-05 2.3283e-13 8.72356e-13 -2.2875e-12
441 3 0.00203847 0.00163647 0.0127775 0.00125 2.04531e-05 3.73603e-12 -2.0392e-12 3.4453e-12
442 3 0.00134192 0.00469062 0.00861409 0.00125 2.04531e-05 7.6479e-13 4.90583e-13 -6.8931e-14
443 3 0.00812002 0.0104816 0.0104423 0.00125 2.04531e-05 -9.13057e-13 2.33667e-13 -1.78064e-13
444 3 0.000441058 0.0142181 0.00625604 0.00125 2.04531e-05 -6.77192e-14 1.98034e-12 3.50165e-12
445 3 0.0113114 0.0131876 0.0142523 0.00125 2.04531e-05 2.64002e-13 9.95971e-14 -4.0639e-13
446 3 0.00362933 0.01481 0.00113792 0.00125 2.04531e-05 3.46396e-13 1.44192e-12 -6.64798e-13
447 3 0.0099113 0.00454078 0.0124573 0.00125 2.04531e-05 -3.87025e-13 2.64213e-13 3.08671e-14
448 3 0.0149033 0.0128536 0.00328258 0.00125 2.04531e-05 -1.20398e-12 3.73592e-12 -4.40453e-12
449 3 0.00831361 0.0127719 0.00968534 0.00125 2.04531e-05 8.65254e-14 1.07793e-12 1.54839e-14
450 3 0.00883329 0.00559434 0.00116341 0.00125 2.04531e-05 -7.31599e-13 -6.31152e-13 -4.42578e-13
451 3 0.00627104 0.00766247 0.00255371 0.00125 2.04531e-05 4.88243e-12 -1.86589e-13 1.15342e-13
452 3 0.00453165 0.0101919 0.00106329 0.00125 2.04531e-05 9.49707e-13 1.21446e-12 -2.3765e-12
453 3 0.00210716 0.0103908 0.00796065 0.00125 2.04531e-05 -1.87899e-12 1.64825e-12 5.06988e-12
454 3 0.00860925 0.00366028 0.0142021 0.00125 2.04531e-05 -3.25058e-13 -3.15521e-14 7.53363e-14
455 3 0.00912662 0.00472819 0.0101733 0.00125 2.04531e-05 -6.4714e-13 6.31743e-13 -6.22191e-13
456 3 0.0131232 0.00808398 0.00997873 0.00125 2.04531e-05 5.02744e-12 5.15059e-12 3.55717e-12
457 3 0.00621372 0.00910416 0.0060357 0.00125 2.04531e-05 9.08217e-13 2.19996e-13 1.40834e-12
458 3 0.013544 0.00258217 0.0139382 0.00125 2.04531e-05 -3.2627e-14 4.44763e-13 -1.48303e-13
459 3 0.0115988 0.00971266 0.00823224 0.00125 2.04531e-05 -4.21587e-13 -1.32714e-12 8.27616e-13
460 3 0.00815076 0.012743 0.00551166 0.00125 2.04531e-05 3.02243e-12 3.33985e-12 -1.84883e-12
461 3 0.00346379 0.0152139 0.0123922 0.00125 2.04531e-05 5.84633e-13 1.02303e-15 -1.83247e-12
462 3 0.00118261 0.00257528 0.00142881 0.00125 2.04531e-05 1.86505e-13 1.74123e-13 3.47484e-13
463 3 0.0140251 0.000389447 0.0125822 0.00125 2.04531e-05 -8.85875e-13 1.51449e-12 7.17766e-13
464 3 0.00437907 0.00514183 0.00691744 0.00125 2.04531e-05 -2.26567e-14 2.3031e-12 5.27156e-13
465 3 0.00298729 0.00479725 0.0103195 0.00125 2.04531e-05 -6.44814e-14 -1.43469e-13 -1.95184e-13
466 3 0.00758076 0.000102665 0.012649 0.00125 2.04531e-05 5.65536e-14 -2.54371e-12 -2.87129e-13
467 3 0.0095243 0.0140859 0.0129982 0.00125 2.04531e-05 -1.03512e-13 -6.62863e-13 1.23669e-12
468 3 0.0119893 0.0149699 0.00993372 0.00125 2.04531e-05 1.52731e-12 7.819e-13 -4.92237e-13
469 3 0.0119794 0.00480724 0.00120932 0.00125 2.04531e-05 4.6969e-13 5.19406e-13 7.17127e-14
470 3 0.00322235 0.00900388 0.012948 0.00125 2.04531e-05 5.26033e-13 4.99804e-13 -1.02143e-13
471 3 0.00695193 0.0100389 0.00119781 0.00125 2.04531e-05 -1.91975e-12 -1.34971e-12 -7.63316e-13
472 3 0.00100782 0.00713125 0.00444529 0.00125 2.04531e-05 -1.92005e-12 2.25925e-11 -1.01526e-11
473 3 0.0124292 0.00901704 0.00372708 0.00125 2.04531e-05 3.43051e-12 -3.23406e-12 2.50906e-12
474 3 0.00222607 0.0068572 0.00922678 0.00125 2.04531e-05 9.78391e-13 4.37747e-13 2.47535e-13
475 3 0.00216632 0.0101455 0.00111132 0.00125 2.04531e-05 -9.82362e-12 -1.32192e-11 4.89769e-12
476 3 0.0142883 0.00822166 0.00666016 0.00125 2.04531e-05 -2.75423e-12 1.92992e-12 1.13056e-12
477 3 0.00706248 0.0150516 0.00675009 0.00125 2.04531e-05 -1.66368e-12 1.46859e-12 -4.89033e-13
478 3 0.0150678 0.0116817 0.010994 0.00125 2.04531e-05 -7.43561e-12 3.00072e-12 5.36516e-12
479 3 0.00827758 0.0059851 0.013551 0.00125 2.04531e-05 -2.59616e-13 -3.49008e-13 1.58737e-13
480 3 0.0139858 0.00493453 0.0142217 0.00125 2.04531e-05 8.27364e-15 6.34829e-14 -5.92347e-14
481 3 0.00527784 0.00552292 0.00227463 0.00125 2.04531e-05 3.40814e-12 -1.24663e-12 1.75508e-12
482 3 0.01353 0.0147092 0.00328388 0.00125 2.04531e-05 1.11942e-12 9.94032e-13 -6.81742e-13
483 3 0.00781505 0.0028999 0.00115365 0.00125 2.04531e-05 -5.407e-13 -1.74584e-13 -5.52501e-13
484 3 0.0126495 0.0034564 0.010404 0.00125 2.04531e-05 8.92888e-15 8.75889e-13 3.10603e-13
485 3 0.00303286 0.00596703 0.00502295 0.00125 2.04531e-05 -5.09299e-12 8.87378e-13 -7.29093e-12
486 3 0.00807139 0.00149959 0.00315444 0.00125 2.04531e-05 -2.4048e-14 9.21541e-13 2.35672e-14
487 3 0.00191973 0.010102 0.00565831 0.00125 2.04531e-05 1.54656e-12 -5.38115e-12 3.58874e-12
488 3 0.00587002 0.0096328 0.00375021 0.00125 2.04531e-05 8.27932e-13 -1.06381e-12 1.04488e-12
489 3 0.011211 0.00300662 0.00507968 0.00125 2.04531e-05 -1.14288e-12 1.58567e-12 -8.52337e-13
490 3 0.000642298 0.0152045 0.0036321 0.00125 2.04531e-05 9.51175e-13 -5.38255e-12 -3.62803e-12
491 3 0.00549793 0.00117291 0.00348423 0.00125 2.04531e-05 -5.37964e-13 5.16662e-13 -1.12797e-13
492 3 0.00312836 0.0120017 0.00494277 0.00125 2.04531e-05 5.30268e-13 -1.8138e-12 7.47649e-13
493 3 0.0114549 0.00729191 0.0115536 0.00125 2.04531e-05 -1.20019e-12 7.37124e-13 -5.64911e-13
494 3 0.0146181 0.0146208 0.00931495 0.00125 2.04531e-05 1.6683e-13 -1.40502e-12 2.27765e-12
495 3 0.00249635 0.00648285 0.0027378 0.00125 2.04531e-05 -1.07123e-11 1.85808e-12 -6.11036e-12
496 3 0.00470474 0.00835048 0.0101584 0.00125 2.04531e-05 5.60588e-13 3.75326e-13 9.45882e-13
497 3 0.0126813 0.00893403 0.00108711 0.00125 2.04531e-05 2.56918e-12 7.45262e-12 1.48154e-12
498 3 0.00792443 0.0105839 0.00442117 0.00125 2.04531e-05 -2.91294e-12 -6.97499e-12 -2.05299e-12
499 3 0.00550478 0.0141784 0.00255213 0.00125 2.04531e-05 -3.3795e-13 6.47978e-13 -5.00455e-14
500 3 0.0129207 0.00223621 0.00117416 0.00125 2.04531e-05 1.08025e-14 -1.31706e-13 -4.8776e-13
