ITEM: TIMESTEP
225000
ITEM: NUMBER OF ATOMS
500
ITEM: BOX BOUNDS pp pp ff
0.0000000000000000e+00 1.5370634520482899e-02
0.0000000000000000e+00 1.5370634520482899e-02
0.0000000000000000e+00 1.5370634520482899e-02
ITEM: ATOMS id type x y z vx vy vz omegax omegay omegaz radius mass fx fy fz
1 1 1.844027669807e-03 5.373853150231e-03 1.669893243754e-03 0.000000000000e+00 0.000000000000e+00 0.000000000000e+00 0.000000000000e+00 0.000000000000e+00 0.000000000000e+00 5.718750000000e-04 1.958537774335e-06 0.000000000000e+00 0.000000000000e+00 0.000000000000e+00
2 1 6.441001917709e-03 3.857167835120e-03 3.440387904873e-03 9.618840833482e-21 -3.517083695839e-20 1.086833050730e-20 6.794144697023e-13 1.311925903407e-13 -1.767545105226e-13 5.718750000000e-04 1.958537774335e-06 -9.619331982140e-24 3.517263282025e-23 -1.086888545628e-23
3 1 3.750545321574e-03 4.430511883976e-04 7.089874629572e-03 0.000000000000e+00 0.000000000000e+00 0.000000000000e+00 0.000000000000e+00 0.000000000000e+00 0.000000000000e+00 5.718750000000e-04 1.958537774335e-06 0.000000000000e+00 0.000000000000e+00 0.000000000000e+00
4 1 2.701830971996e-03 4.818772831319e-03 2.289729796263e-03 0.000000000000e+00 0.000000000000e+00 0.000000000000e+00 0.000000000000e+00 0.000000000000e+00 0.000000000000e+00 5.718750000000e-04 1.958537774335e-06 0.000000000000e+00 0.000000000000e+00 0.000000000000e+00
5 1 6.600646750330e-03 7.200598476631e-03 7.490800105485e-03 0.000000000000e+00 0.000000000000e+00 0.000000000000e+00 0.000000000000e+00 0.000000000000e+00 0.000000000000e+00 5.718750000000e-04 1.958537774335e-06 0.000000000000e+00 0.000000000000e+00 0.000000000000e+00
6 1 5.903680988438e-03 5.720542960537e-03 2.796264705959e-03 0.000000000000e+00 0.000000000000e+00 0.000000000000e+00 0.000000000000e+00 0.000000000000e+00 0.000000000000e+00 5.718750000000e-04 1.958537774335e-06 0.000000000000e+00 0.000000000000e+00 0.000000000000e+00
7 1 5.039350604702e-03 4.927377751891e-03 6.281305559715e-03 -2.719852141725e-13 -8.253411545318e-14 -2.226337569868e-13 -1.047956498547e-13 -4.760493731877e-13 3.045053998804e-13 5.718750000000e-04 1.958537774335e-06 2.719991020385e-16 8.253832973645e-17 2.226451249128e-16
8 1 3.209375435351e-03 2.465299835929e-03 5.086199089902e-03 -1.705122914761e-29 -5.980508608610e-29 -1.065434929106e-29 -3.339158240446e-13 1.071139497279e-13 -6.685380150825e-14 5.718750000000e-04 1.958537774335e-06 1.705209980224e-32 5.980813979998e-32 1.065489331393e-32
9 1 1.960249447480e-04 5.275458996507e-03 6.960273161449e-03 0.000000000000e+00 0.000000000000e+00 0.000000000000e+00 0.000000000000e+00 0.000000000000e+00 0.000000000000e+00 5.718750000000e-04 1.958537774335e-06 0.000000000000e+00 0.000000000000e+00 0.000000000000e+00
10 1 3.684850736533e-03 2.999845881543e-03 3.534718732572e-03 0.000000000000e+00 0.000000000000e+00 0.000000000000e+00 0.000000000000e+00 0.000000000000e+00 0.000000000000e+00 5.718750000000e-04 1.958537774335e-06 0.000000000000e+00 0.000000000000e+00 0.000000000000e+00
11 1 3.506756627021e-04 6.852841689232e-03 4.219090894038e-03 0.000000000000e+00 0.000000000000e+00 0.000000000000e+00 0.000000000000e+00 0.000000000000e+00 0.000000000000e+00 5.718750000000e-04 1.958537774335e-06 0.000000000000e+00 0.000000000000e+00 0.000000000000e+00
12 1 1.249405532414e-03 2.472028294285e-03 1.714255844904e-03 0.000000000000e+00 0.000000000000e+00 0.000000000000e+00 0.000000000000e+00 0.000000000000e+00 0.000000000000e+00 5.718750000000e-04 1.958537774335e-06 0.000000000000e+00 0.000000000000e+00 0.000000000000e+00
13 1 2.025783689994e-03 1.391014860152e-03 1.293248334337e-03 0.000000000000e+00 0.000000000000e+00 0.000000000000e+00 0.000000000000e+00 0.000000000000e+00 0.000000000000e+00 5.718750000000e-04 1.958537774335e-06 0.000000000000e+00 0.000000000000e+00 0.000000000000e+00
14 1 1.762336666667e-03 3.796356975193e-04 2.693463051694e-03 0.000000000000e+00 0.000000000000e+00 0.000000000000e+00 0.000000000000e+00 0.000000000000e+00 0.000000000000e+00 5.718750000000e-04 1.958537774335e-06 0.000000000000e+00 0.000000000000e+00 0.000000000000e+00
15 1 6.002048422320e-03 3.987164714612e-03 6.515355939914e-03 -2.242096327816e-26 1.293995907266e-25 4.871276959478e-26 -6.545935392647e-14 2.511314224177e-15 -3.679989493972e-14 5.718750000000e-04 1.958537774335e-06 2.242210811736e-29 -1.294061980129e-28 -4.871525692270e-29
16 1 4.874542727851e-03 9.576328228600e-04 2.824649894397e-03 0.000000000000e+00 0.000000000000e+00 0.000000000000e+00 0.000000000000e+00 0.000000000000e+00 0.000000000000e+00 5.718750000000e-04 1.958537774335e-06 0.000000000000e+00 0.000000000000e+00 0.000000000000e+00
17 1 8.554614366687e-04 6.197089439416e-03 3.814556446744e-03 0.000000000000e+00 0.000000000000e+00 0.000000000000e+00 0.000000000000e+00 0.000000000000e+00 0.000000000000e+00 5.718750000000e-04 1.958537774335e-06 0.000000000000e+00 0.000000000000e+00 0.000000000000e+00
18 1 6.219943574693e-04 1.827692057334e-03 7.523974926517e-03 0.000000000000e+00 0.000000000000e+00 0.000000000000e+00 0.000000000000e+00 0.000000000000e+00 0.000000000000e+00 5.718750000000e-04 1.958537774335e-06 0.000000000000e+00 0.000000000000e+00 0.000000000000e+00
19 1 2.004108519317e-03 5.115450661906e-03 3.681690175747e-03 -8.347025903830e-06 4.561600186634e-07 7.527180951797e-06 -3.337200714873e-14 2.180600477960e-13 -5.022162825983e-14 5.718750000000e-04 1.958537774335e-06 8.347452112210e-09 -4.561833106987e-10 -7.527565297986e-09
20 1 5.931831852496e-03 2.362445042219e-03 3.983836150731e-03 0.000000000000e+00 0.000000000000e+00 0.000000000000e+00 0.000000000000e+00 0.000000000000e+00 0.000000000000e+00 5.718750000000e-04 1.958537774335e-06 0.000000000000e+00 0.000000000000e+00 0.000000000000e+00
21 1 6.405687737679e-03 4.469625704865e-03 5.192522129611e-03 0.000000000000e+00 0.000000000000e+00 0.000000000000e+00 0.000000000000e+00 0.000000000000e+00 0.000000000000e+00 5.718750000000e-04 1.958537774335e-06 0.000000000000e+00 0.000000000000e+00 0.000000000000e+00
22 1 3.601774454697e-03 5.464518424828e-03 3.443784199361e-03 0.000000000000e+00 0.000000000000e+00 0.000000000000e+00 0.000000000000e+00 0.000000000000e+00 0.000000000000e+00 5.718750000000e-04 1.958537774335e-06 0.000000000000e+00 0.000000000000e+00 0.000000000000e+00
23 1 2.700879687773e-03 5.077372530501e-03 3.053355877114e-03 8.347025903830e-06 -4.561600186634e-07 -7.527180951797e-06 -3.337200714873e-14 2.180600477960e-13 -5.022162825983e-14 5.718750000000e-04 1.958537774335e-06 -8.347452112210e-09 4.561833106987e-10 7.527565297986e-09
24 1 3.054656256672e-03 1.688407474354e-03 3.655793782404e-03 0.000000000000e+00 0.000000000000e+00 0.000000000000e+00 0.000000000000e+00 0.000000000000e+00 0.000000000000e+00 5.718750000000e-04 1.958537774335e-06 0.000000000000e+00 0.000000000000e+00 0.000000000000e+00
25 1 6.176944879551e-03 2.647039277967e-03 6.418843211618e-03 0.000000000000e+00 0.000000000000e+00 0.000000000000e+00 0.000000000000e+00 0.000000000000e+00 0.000000000000e+00 5.718750000000e-04 1.958537774335e-06 0.000000000000e+00 0.000000000000e+00 0.000000000000e+00
26 1 5.632642341126e-03 2.239949837571e-03 3.036601582394e-03 7.642120768326e-14 -2.325159161351e-13 2.654237639194e-13 3.157166903778e-14 2.437838480952e-14 1.226573443671e-14 5.718750000000e-04 1.958537774335e-06 -7.642510983470e-17 2.325277886551e-16 -2.654373167505e-16
27 1 2.734738623794e-03 4.554833858051e-03 7.390086140973e-03 0.000000000000e+00 0.000000000000e+00 0.000000000000e+00 0.000000000000e+00 0.000000000000e+00 0.000000000000e+00 5.718750000000e-04 1.958537774335e-06 0.000000000000e+00 0.000000000000e+00 0.000000000000e+00
28 1 7.599238549915e-03 5.800077735322e-03 2.374035329855e-03 0.000000000000e+00 0.000000000000e+00 0.000000000000e+00 0.000000000000e+00 0.000000000000e+00 0.000000000000e+00 5.718750000000e-04 1.958537774335e-06 0.000000000000e+00 0.000000000000e+00 0.000000000000e+00
29 1 6.651470049129e-03 6.322482413105e-04 5.510228613478e-03 0.000000000000e+00 0.000000000000e+00 0.000000000000e+00 0.000000000000e+00 0.000000000000e+00 0.000000000000e+00 5.718750000000e-04 1.958537774335e-06 0.000000000000e+00 0.000000000000e+00 0.000000000000e+00
30 1 6.875556052664e-03 1.040252126347e-03 7.200256273263e-03 0.000000000000e+00 0.000000000000e+00 0.000000000000e+00 0.000000000000e+00 0.000000000000e+00 0.000000000000e+00 5.718750000000e-04 1.958537774335e-06 0.000000000000e+00 0.000000000000e+00 0.000000000000e+00
31 1 5.490257055149e-03 2.673165252736e-03 2.542073431408e-03 -7.642120768326e-14 2.325159161351e-13 -2.654237639194e-13 3.157166903778e-14 2.437838480952e-14 1.226573443671e-14 5.718750000000e-04 1.958537774335e-06 7.642510983470e-17 -2.325277886551e-16 2.654373167505e-16
32 1 2.526328238785e-03 6.306163678039e-03 7.252071918561e-03 0.000000000000e+00 0.000000000000e+00 0.000000000000e+00 0.000000000000e+00 0.000000000000e+00 0.000000000000e+00 5.718750000000e-04 1.958537774335e-06 0.000000000000e+00 0.000000000000e+00 0.000000000000e+00
33 1 4.747234683774e-04 1.318016888450e-03 3.615938754517e-03 0.000000000000e+00 0.000000000000e+00 0.000000000000e+00 0.000000000000e+00 0.000000000000e+00 0.000000000000e+00 5.718750000000e-04 1.958537774335e-06 0.000000000000e+00 0.000000000000e+00 0.000000000000e+00
34 1 2.329662460742e-03 5.630854020332e-03 1.892062494597e-03 0.000000000000e+00 0.000000000000e+00 0.000000000000e+00 0.000000000000e+00 0.000000000000e+00 0.000000000000e+00 5.718750000000e-04 1.958537774335e-06 0.000000000000e+00 0.000000000000e+00 0.000000000000e+00
35 1 5.084079597487e-03 2.768495599979e-03 3.925219130896e-03 0.000000000000e+00 0.000000000000e+00 0.000000000000e+00 0.000000000000e+00 0.000000000000e+00 0.000000000000e+00 5.718750000000e-04 1.958537774335e-06 0.000000000000e+00 0.000000000000e+00 0.000000000000e+00
36 1 4.189586078688e-03 1.496486173135e-03 5.507966355237e-03 0.000000000000e+00 0.000000000000e+00 0.000000000000e+00 0.000000000000e+00 0.000000000000e+00 0.000000000000e+00 5.718750000000e-04 1.958537774335e-06 0.000000000000e+00 0.000000000000e+00 0.000000000000e+00
37 1 3.478343540447e-03 5.996802892063e-03 3.775166239594e-03 0.000000000000e+00 0.000000000000e+00 0.000000000000e+00 0.000000000000e+00 0.000000000000e+00 0.000000000000e+00 5.718750000000e-04 1.958537774335e-06 0.000000000000e+00 0.000000000000e+00 0.000000000000e+00
38 1 1.559733519801e-03 7.509409873654e-03 3.235947202921e-03 0.000000000000e+00 0.000000000000e+00 0.000000000000e+00 0.000000000000e+00 0.000000000000e+00 0.000000000000e+00 5.718750000000e-04 1.958537774335e-06 0.000000000000e+00 0.000000000000e+00 0.000000000000e+00
39 1 5.086662363303e-03 6.513711525898e-05 4.134213744094e-03 0.000000000000e+00 0.000000000000e+00 0.000000000000e+00 0.000000000000e+00 0.000000000000e+00 0.000000000000e+00 5.718750000000e-04 1.958537774335e-06 0.000000000000e+00 0.000000000000e+00 0.000000000000e+00
40 1 4.980930237833e-03 6.018908709725e-03 5.983472437024e-03 0.000000000000e+00 0.000000000000e+00 0.000000000000e+00 0.000000000000e+00 0.000000000000e+00 0.000000000000e+00 5.718750000000e-04 1.958537774335e-06 0.000000000000e+00 0.000000000000e+00 0.000000000000e+00
41 1 6.082184680130e-03 3.524669020990e-03 6.341248386440e-03 2.242096327816e-26 -1.293995907266e-25 -4.871276959478e-26 -6.545935392647e-14 2.511314224177e-15 -3.679989493972e-14 5.718750000000e-04 1.958537774335e-06 -2.242210811736e-29 1.294061980129e-28 4.871525692270e-29
42 1 7.068559139862e-03 1.639254852783e-03 6.926619872808e-03 0.000000000000e+00 0.000000000000e+00 0.000000000000e+00 0.000000000000e+00 0.000000000000e+00 0.000000000000e+00 5.718750000000e-04 1.958537774335e-06 0.000000000000e+00 0.000000000000e+00 0.000000000000e+00
43 1 6.604217130775e-03 5.725444523221e-03 7.424638037490e-03 0.000000000000e+00 0.000000000000e+00 0.000000000000e+00 0.000000000000e+00 0.000000000000e+00 0.000000000000e+00 5.718750000000e-04 1.958537774335e-06 0.000000000000e+00 0.000000000000e+00 0.000000000000e+00
44 1 4.547027151731e-03 5.994417065037e-03 4.025560220372e-03 3.440266344477e-14 -1.154518746983e-13 3.403541509510e-13 2.376073470667e-13 1.586514583326e-13 2.979920376060e-14 5.718750000000e-04 1.958537774335e-06 -3.440442008284e-17 1.154577697987e-16 -3.403715298106e-16
45 1 3.337205206314e-03 2.913647013169e-03 5.166072688330e-03 1.705122914761e-29 5.980508608610e-29 1.065434929106e-29 -3.339158240446e-13 1.071139497279e-13 -6.685380150825e-14 5.718750000000e-04 1.958537774335e-06 -1.705209980224e-32 -5.980813979998e-32 -1.065489331393e-32
46 1 6.756665160980e-03 1.023523258832e-03 3.439996500103e-03 0.000000000000e+00 0.000000000000e+00 0.000000000000e+00 0.000000000000e+00 0.000000000000e+00 0.000000000000e+00 5.718750000000e-04 1.958537774335e-06 0.000000000000e+00 0.000000000000e+00 0.000000000000e+00
47 1 2.100123208009e-03 5.793897984598e-03 5.498507214888e-03 0.000000000000e+00 0.000000000000e+00 0.000000000000e+00 0.000000000000e+00 0.000000000000e+00 0.000000000000e+00 5.718750000000e-04 1.958537774335e-06 0.000000000000e+00 0.000000000000e+00 0.000000000000e+00
48 1 4.316019775724e-03 5.320068439050e-03 4.104742511558e-03 0.000000000000e+00 0.000000000000e+00 0.000000000000e+00 0.000000000000e+00 0.000000000000e+00 0.000000000000e+00 5.718750000000e-04 1.958537774335e-06 0.000000000000e+00 0.000000000000e+00 0.000000000000e+00
49 1 5.546103817278e-03 5.081152390999e-03 6.696108886152e-03 2.719852141725e-13 8.253411545318e-14 2.226337569868e-13 -1.047956498547e-13 -4.760493731877e-13 3.045053998804e-13 5.718750000000e-04 1.958537774335e-06 -2.719991020385e-16 -8.253832973645e-17 -2.226451249128e-16
50 1 3.979361472598e-03 3.497471333148e-03 5.180773928732e-03 0.000000000000e+00 0.000000000000e+00 0.000000000000e+00 0.000000000000e+00 0.000000000000e+00 0.000000000000e+00 5.718750000000e-04 1.958537774335e-06 0.000000000000e+00 0.000000000000e+00 0.000000000000e+00
51 1 2.568230296114e-03 3.504853266318e-03 6.104435884569e-03 0.000000000000e+00 0.000000000000e+00 0.000000000000e+00 0.000000000000e+00 0.000000000000e+00 0.000000000000e+00 5.718750000000e-04 1.958537774335e-06 0.000000000000e+00 0.000000000000e+00 0.000000000000e+00
52 1 3.186255592704e-03 1.070772147509e-04 2.323912076506e-03 0.000000000000e+00 0.000000000000e+00 0.000000000000e+00 0.000000000000e+00 0.000000000000e+00 0.000000000000e+00 5.718750000000e-04 1.958537774335e-06 0.000000000000e+00 0.000000000000e+00 0.000000000000e+00
53 1 2.334992214272e-03 2.984214474954e-03 2.348807219731e-03 0.000000000000e+00 0.000000000000e+00 0.000000000000e+00 0.000000000000e+00 0.000000000000e+00 0.000000000000e+00 5.718750000000e-04 1.958537774335e-06 0.000000000000e+00 0.000000000000e+00 0.000000000000e+00
54 1 5.627582365703e-03 7.262615833926e-03 5.081383369199e-03 0.000000000000e+00 0.000000000000e+00 0.000000000000e+00 0.000000000000e+00 0.000000000000e+00 0.000000000000e+00 5.718750000000e-04 1.958537774335e-06 0.000000000000e+00 0.000000000000e+00 0.000000000000e+00
55 1 7.410532502152e-03 5.682441884292e-04 5.701395832707e-03 0.000000000000e+00 0.000000000000e+00 0.000000000000e+00 0.000000000000e+00 0.000000000000e+00 0.000000000000e+00 5.718750000000e-04 1.958537774335e-06 0.000000000000e+00 0.000000000000e+00 0.000000000000e+00
56 1 1.281673589166e-03 6.829049913059e-03 4.024921806442e-03 0.000000000000e+00 0.000000000000e+00 0.000000000000e+00 0.000000000000e+00 0.000000000000e+00 0.000000000000e+00 5.718750000000e-04 1.958537774335e-06 0.000000000000e+00 0.000000000000e+00 0.000000000000e+00
57 1 1.074902817794e-03 5.396097093510e-03 5.822093510863e-03 0.000000000000e+00 0.000000000000e+00 0.000000000000e+00 0.000000000000e+00 0.000000000000e+00 0.000000000000e+00 5.718750000000e-04 1.958537774335e-06 0.000000000000e+00 0.000000000000e+00 0.000000000000e+00
58 1 4.482929328349e-03 6.209522906648e-03 3.391424427613e-03 -3.440266344477e-14 1.154518746983e-13 -3.403541509510e-13 2.376073470667e-13 1.586514583326e-13 2.979920376060e-14 5.718750000000e-04 1.958537774335e-06 3.440442008284e-17 -1.154577697987e-16 3.403715298106e-16
59 1 1.916089568107e-03 2.238050755826e-03 3.742279615090e-03 0.000000000000e+00 0.000000000000e+00 0.000000000000e+00 0.000000000000e+00 0.000000000000e+00 0.000000000000e+00 5.718750000000e-04 1.958537774335e-06 0.000000000000e+00 0.000000000000e+00 0.000000000000e+00
60 1 1.668466967926e-03 5.886964574990e-03 2.455120207610e-03 0.000000000000e+00 0.000000000000e+00 0.000000000000e+00 0.000000000000e+00 0.000000000000e+00 0.000000000000e+00 5.718750000000e-04 1.958537774335e-06 0.000000000000e+00 0.000000000000e+00 0.000000000000e+00
61 1 1.487064378399e-03 4.392774416369e-04 5.463046923346e-03 0.000000000000e+00 0.000000000000e+00 0.000000000000e+00 0.000000000000e+00 0.000000000000e+00 0.000000000000e+00 5.718750000000e-04 1.958537774335e-06 0.000000000000e+00 0.000000000000e+00 0.000000000000e+00
62 1 4.188619686075e-03 6.249600571993e-04 5.905932629486e-03 0.000000000000e+00 0.000000000000e+00 0.000000000000e+00 0.000000000000e+00 0.000000000000e+00 0.000000000000e+00 5.718750000000e-04 1.958537774335e-06 0.000000000000e+00 0.000000000000e+00 0.000000000000e+00
63 1 6.299911971101e-03 4.373056557532e-03 3.280970341202e-03 -9.618840833482e-21 3.517083695839e-20 -1.086833050730e-20 6.794144697023e-13 1.311925903407e-13 -1.767545105226e-13 5.718750000000e-04 1.958537774335e-06 9.619331982140e-24 -3.517263282025e-23 1.086888545628e-23
64 1 9.844893300642e-04 7.509426350241e-03 3.467828441827e-03 0.000000000000e+00 0.000000000000e+00 0.000000000000e+00 0.000000000000e+00 0.000000000000e+00 0.000000000000e+00 5.718750000000e-04 1.958537774335e-06 0.000000000000e+00 0.000000000000e+00 0.000000000000e+00
65 1 2.012355708377e-03 6.266445634517e-03 1.722304299028e-03 0.000000000000e+00 0.000000000000e+00 0.000000000000e+00 0.000000000000e+00 0.000000000000e+00 0.000000000000e+00 5.718750000000e-04 1.958537774335e-06 0.000000000000e+00 0.000000000000e+00 0.000000000000e+00
66 1 9.560693007058e-04 6.343663058251e-03 7.299020485115e-03 0.000000000000e+00 0.000000000000e+00 0.000000000000e+00 0.000000000000e+00 0.000000000000e+00 0.000000000000e+00 5.718750000000e-04 1.958537774335e-06 0.000000000000e+00 0.000000000000e+00 0.000000000000e+00
67 1 8.899672529664e-04 2.052232176214e-03 1.385920401456e-03 0.000000000000e+00 0.000000000000e+00 0.000000000000e+00 0.000000000000e+00 0.000000000000e+00 0.000000000000e+00 5.718750000000e-04 1.958537774335e-06 0.000000000000e+00 0.000000000000e+00 0.000000000000e+00
68 1 7.537900060920e-03 4.716606061721e-03 5.969197401193e-03 0.000000000000e+00 0.000000000000e+00 0.000000000000e+00 0.000000000000e+00 0.000000000000e+00 0.000000000000e+00 5.718750000000e-04 1.958537774335e-06 0.000000000000e+00 0.000000000000e+00 0.000000000000e+00
69 1 8.747245277709e-04 7.168536663514e-03 6.744983198775e-03 0.000000000000e+00 0.000000000000e+00 0.000000000000e+00 0.000000000000e+00 0.000000000000e+00 0.000000000000e+00 5.718750000000e-04 1.958537774335e-06 0.000000000000e+00 0.000000000000e+00 0.000000000000e+00
70 1 2.935081135714e-03 5.542471712110e-03 6.505951951799e-03 0.000000000000e+00 0.000000000000e+00 0.000000000000e+00 0.000000000000e+00 0.000000000000e+00 0.000000000000e+00 5.718750000000e-04 1.958537774335e-06 0.000000000000e+00 0.000000000000e+00 0.000000000000e+00
71 1 4.887595560476e-03 4.830431600800e-04 9.812274610143e-03 1.917470073475e-13 2.837377875297e-13 1.143659905462e-13 -3.436172799778e-13 2.090343259907e-13 5.750527672476e-14 5.718750000000e-04 1.958537774335e-06 -1.917567981619e-16 -2.837522754952e-16 -1.143718302002e-16
72 1 3.875888464681e-03 1.308328089981e-03 8.838792306569e-03 0.000000000000e+00 0.000000000000e+00 0.000000000000e+00 0.000000000000e+00 0.000000000000e+00 0.000000000000e+00 5.718750000000e-04 1.958537774335e-06 0.000000000000e+00 0.000000000000e+00 0.000000000000e+00
73 1 4.091151556611e-03 7.136001839226e-03 1.221293567166e-02 0.000000000000e+00 0.000000000000e+00 0.000000000000e+00 0.000000000000e+00 0.000000000000e+00 0.000000000000e+00 5.718750000000e-04 1.958537774335e-06 0.000000000000e+00 0.000000000000e+00 0.000000000000e+00
74 1 6.451794559831e-04 7.233779767173e-03 1.112081179331e-02 0.000000000000e+00 0.000000000000e+00 0.000000000000e+00 0.000000000000e+00 0.000000000000e+00 0.000000000000e+00 5.718750000000e-04 1.958537774335e-06 0.000000000000e+00 0.000000000000e+00 0.000000000000e+00
75 1 5.250543598711e-03 3.073481444188e-03 1.018508685354e-02 0.000000000000e+00 0.000000000000e+00 0.000000000000e+00 0.000000000000e+00 0.000000000000e+00 0.000000000000e+00 5.718750000000e-04 1.958537774335e-06 0.000000000000e+00 0.000000000000e+00 0.000000000000e+00
76 1 7.362450100026e-03 7.090941244547e-03 8.719231634019e-03 0.000000000000e+00 0.000000000000e+00 0.000000000000e+00 0.000000000000e+00 0.000000000000e+00 0.000000000000e+00 5.718750000000e-04 1.958537774335e-06 0.000000000000e+00 0.000000000000e+00 0.000000000000e+00
77 1 6.245449896470e-03 1.213269586179e-03 9.590497380126e-03 0.000000000000e+00 0.000000000000e+00 0.000000000000e+00 0.000000000000e+00 0.000000000000e+00 0.000000000000e+00 5.718750000000e-04 1.958537774335e-06 0.000000000000e+00 0.000000000000e+00 0.000000000000e+00
78 1 2.069133761590e-03 7.555845705043e-03 1.321324320231e-02 0.000000000000e+00 0.000000000000e+00 0.000000000000e+00 0.000000000000e+00 0.000000000000e+00 0.000000000000e+00 5.718750000000e-04 1.958537774335e-06 0.000000000000e+00 0.000000000000e+00 0.000000000000e+00
79 1 3.159999965577e-03 4.577153177063e-03 1.260307760136e-02 0.000000000000e+00 0.000000000000e+00 0.000000000000e+00 0.000000000000e+00 0.000000000000e+00 0.000000000000e+00 5.718750000000e-04 1.958537774335e-06 0.000000000000e+00 0.000000000000e+00 0.000000000000e+00
80 1 4.799031826153e-03 7.608573173344e-03 8.770049445436e-03 0.000000000000e+00 0.000000000000e+00 0.000000000000e+00 0.000000000000e+00 0.000000000000e+00 0.000000000000e+00 5.718750000000e-04 1.958537774335e-06 0.000000000000e+00 0.000000000000e+00 0.000000000000e+00
81 1 8.601089864994e-04 7.455286841316e-03 1.378010935759e-02 0.000000000000e+00 0.000000000000e+00 0.000000000000e+00 0.000000000000e+00 0.000000000000e+00 0.000000000000e+00 5.718750000000e-04 1.958537774335e-06 0.000000000000e+00 0.000000000000e+00 0.000000000000e+00
82 1 5.046799759563e-03 6.402274944120e-03 8.445654142262e-03 0.000000000000e+00 0.000000000000e+00 0.000000000000e+00 0.000000000000e+00 0.000000000000e+00 0.000000000000e+00 5.718750000000e-04 1.958537774335e-06 0.000000000000e+00 0.000000000000e+00 0.000000000000e+00
83 1 3.721493828101e-03 4.034905041524e-03 1.362620192912e-02 0.000000000000e+00 0.000000000000e+00 0.000000000000e+00 0.000000000000e+00 0.000000000000e+00 0.000000000000e+00 5.718750000000e-04 1.958537774335e-06 0.000000000000e+00 0.000000000000e+00 0.000000000000e+00
84 1 5.407619229507e-03 4.209766728253e-04 1.360287561249e-02 1.218138094856e-36 -1.452787115889e-36 -4.062037578250e-36 -2.830940822841e-13 1.857899647212e-13 -1.513429999657e-13 5.718750000000e-04 1.958537774335e-06 -1.218200294335e-39 1.452861296806e-39 4.062244990384e-39
85 1 5.233761092820e-04 4.379322986752e-03 8.521025733312e-03 0.000000000000e+00 0.000000000000e+00 0.000000000000e+00 0.000000000000e+00 0.000000000000e+00 0.000000000000e+00 5.718750000000e-04 1.958537774335e-06 0.000000000000e+00 0.000000000000e+00 0.000000000000e+00
86 1 7.360505626588e-03 5.151445217632e-03 1.207374287372e-02 0.000000000000e+00 0.000000000000e+00 0.000000000000e+00 0.000000000000e+00 0.000000000000e+00 0.000000000000e+00 5.718750000000e-04 1.958537774335e-06 0.000000000000e+00 0.000000000000e+00 0.000000000000e+00
87 1 1.311474645660e-03 4.644672297156e-04 1.246133190935e-02 0.000000000000e+00 0.000000000000e+00 0.000000000000e+00 0.000000000000e+00 0.000000000000e+00 0.000000000000e+00 5.718750000000e-04 1.958537774335e-06 0.000000000000e+00 0.000000000000e+00 0.000000000000e+00
88 1 2.602159897112e-03 5.046179990818e-03 1.075935348523e-02 0.000000000000e+00 0.000000000000e+00 0.000000000000e+00 0.000000000000e+00 0.000000000000e+00 0.000000000000e+00 5.718750000000e-04 1.958537774335e-06 0.000000000000e+00 0.000000000000e+00 0.000000000000e+00
89 1 5.424302032487e-03 6.408557525302e-03 1.107208013429e-02 2.073411992820e-13 -3.199523054197e-13 -1.790010885432e-13 -4.474507661420e-06 7.347019007097e-06 -1.831522492596e-05 5.718750000000e-04 1.958537774335e-06 -2.073517863531e-16 3.199686425385e-16 1.790102285369e-16
90 1 4.930564183557e-03 6.210175085308e-03 1.111312331412e-02 -2.403635697394e-23 -1.418761623998e-23 1.809546422713e-25 -1.243380150679e-13 2.188095404465e-13 6.396789408301e-13 5.718750000000e-04 1.958537774335e-06 2.403758429692e-26 1.418834067537e-26 -1.809638820156e-28
91 1 2.843675778955e-03 4.925819944249e-04 1.303467587988e-02 -8.360282890801e-22 -6.304147974028e-22 6.303934315165e-23 3.119771471191e-14 -3.441562817790e-14 6.957640373986e-14 5.718750000000e-04 1.958537774335e-06 8.360709776097e-25 6.304469870800e-25 -6.304256201027e-26
92 1 4.913350880141e-03 7.639598493201e-03 7.799539113981e-03 0.000000000000e+00 0.000000000000e+00 0.000000000000e+00 0.000000000000e+00 0.000000000000e+00 0.000000000000e+00 5.718750000000e-04 1.958537774335e-06 0.000000000000e+00 0.000000000000e+00 0.000000000000e+00
93 1 5.343710215297e-03 1.120085319174e-03 1.097777689442e-02 0.000000000000e+00 0.000000000000e+00 0.000000000000e+00 0.000000000000e+00 0.000000000000e+00 0.000000000000e+00 5.718750000000e-04 1.958537774335e-06 0.000000000000e+00 0.000000000000e+00 0.000000000000e+00
94 1 2.531548196119e-03 1.814179481113e-03 1.041589570720e-02 0.000000000000e+00 0.000000000000e+00 0.000000000000e+00 0.000000000000e+00 0.000000000000e+00 0.000000000000e+00 5.718750000000e-04 1.958537774335e-06 0.000000000000e+00 0.000000000000e+00 0.000000000000e+00
95 1 3.273744567854e-03 8.168793082410e-04 1.300224724760e-02 8.360282890801e-22 6.304147974028e-22 -6.303934315165e-23 3.119771471191e-14 -3.441562817790e-14 6.957640373986e-14 5.718750000000e-04 1.958537774335e-06 -8.360709776097e-25 -6.304469870800e-25 6.304256201027e-26
96 1 1.346394330627e-03 3.275500695747e-03 8.868209790686e-03 0.000000000000e+00 0.000000000000e+00 0.000000000000e+00 0.000000000000e+00 0.000000000000e+00 0.000000000000e+00 5.718750000000e-04 1.958537774335e-06 0.000000000000e+00 0.000000000000e+00 0.000000000000e+00
97 1 2.603136789791e-03 6.094180722388e-03 9.922951697717e-03 0.000000000000e+00 0.000000000000e+00 0.000000000000e+00 0.000000000000e+00 0.000000000000e+00 0.000000000000e+00 5.718750000000e-04 1.958537774335e-06 0.000000000000e+00 0.000000000000e+00 0.000000000000e+00
98 1 4.530339331418e-03 1.532502748979e-02 9.599191949407e-03 -1.917470073475e-13 -2.837377875297e-13 -1.143659905462e-13 -3.436172799778e-13 2.090343259907e-13 5.750527672476e-14 5.718750000000e-04 1.958537774335e-06 1.917567981619e-16 2.837522754952e-16 1.143718302002e-16
99 1 6.488077943603e-03 5.844709831382e-03 1.270795072136e-02 0.000000000000e+00 0.000000000000e+00 0.000000000000e+00 0.000000000000e+00 0.000000000000e+00 0.000000000000e+00 5.718750000000e-04 1.958537774335e-06 0.000000000000e+00 0.000000000000e+00 0.000000000000e+00
100 1 3.327614265211e-04 3.701474498059e-03 1.214025168634e-02 -1.899127463893e-20 5.110289951812e-21 -3.979092158063e-20 -1.040010014342e-13 -5.951668931721e-14 4.199359992719e-14 5.718750000000e-04 1.958537774335e-06 1.899224435443e-23 -5.110550888872e-24 3.979295334912e-23
101 2 5.271942314653e-03 5.827889292995e-04 1.405530767168e-02 -2.822958765983e-17 3.366743180617e-17 9.413517759356e-17 -8.960471526013e-14 5.877809520683e-14 -4.789295342597e-14 7.625000000000e-04 4.642459909534e-06 2.823019574685e-20 -3.366815702852e-20 -9.413720533762e-20
102 2 6.331638709254e-03 5.040873325278e-03 8.441299659815e-03 4.459801639514e-17 8.321303610056e-17 1.474990130578e-17 -3.224148512078e+01 1.927995134767e+01 -1.128394028141e+01 7.625000000000e-04 4.642459909534e-06 -4.459897707069e-20 -8.321482857331e-20 -1.475021902998e-20
103 2 3.023631001233e-03 2.848512998470e-03 1.029513574010e-02 0.000000000000e+00 0.000000000000e+00 0.000000000000e+00 0.000000000000e+00 0.000000000000e+00 0.000000000000e+00 7.625000000000e-04 4.642459909534e-06 0.000000000000e+00 0.000000000000e+00 0.000000000000e+00
104 2 4.995367363866e-03 2.733533621288e-03 1.384681304519e-02 0.000000000000e+00 0.000000000000e+00 0.000000000000e+00 0.000000000000e+00 0.000000000000e+00 0.000000000000e+00 7.625000000000e-04 4.642459909534e-06 0.000000000000e+00 0.000000000000e+00 0.000000000000e+00
105 2 5.033796355647e-03 7.011155596427e-03 1.140921056370e-02 -2.494966241511e-07 3.850001834538e-07 2.153933642931e-07 3.645761604043e-05 -5.986237885512e-05 1.492296621648e-04 7.625000000000e-04 4.642459909534e-06 2.495019985001e-10 -3.850084766536e-10 -2.153980040317e-10
106 2 7.647748212411e-03 6.458345713720e-03 1.244210079344e-02 0.000000000000e+00 0.000000000000e+00 0.000000000000e+00 0.000000000000e+00 0.000000000000e+00 0.000000000000e+00 7.625000000000e-04 4.642459909534e-06 0.000000000000e+00 0.000000000000e+00 0.000000000000e+00
107 2 6.133297818701e-04 3.625977425093e-03 1.272810445756e-02 2.473147314885e-10 -6.654898163970e-11 5.181790729423e-10 -3.290243361053e-14 -1.883440045496e-14 1.328468616959e-14 7.625000000000e-04 4.642459909534e-06 -2.473200588379e-13 6.655041515590e-14 -5.181902349177e-13
108 2 6.888604053354e-03 7.359225089640e-03 1.265133643525e-02 6.494982962921e-17 1.801548691002e-17 -9.771490152403e-17 -1.066188309372e-12 -1.164567797699e-13 -7.301524488613e-13 7.625000000000e-04 4.642459909534e-06 -6.495122869845e-20 -1.801587497745e-20 9.771700637810e-20
109 2 2.298453221522e-04 4.981064770381e-03 8.183273846185e-03 0.000000000000e+00 0.000000000000e+00 0.000000000000e+00 0.000000000000e+00 0.000000000000e+00 0.000000000000e+00 7.625000000000e-04 4.642459909534e-06 0.000000000000e+00 0.000000000000e+00 0.000000000000e+00
110 2 6.063074337468e-03 4.542050414040e-03 8.356367691111e-03 -9.344609737085e-17 -1.227950071020e-16 5.719271630462e-17 -5.441884204685e-03 3.254169660034e-03 -1.904561655898e-03 7.625000000000e-04 4.642459909534e-06 9.344811027160e-20 1.227976522008e-19 -5.719394827968e-20
111 2 7.149888516994e-03 5.556239890151e-04 8.281438488672e-03 0.000000000000e+00 0.000000000000e+00 0.000000000000e+00 0.000000000000e+00 0.000000000000e+00 0.000000000000e+00 7.625000000000e-04 4.642459909534e-06 0.000000000000e+00 0.000000000000e+00 0.000000000000e+00
112 2 2.483158185709e-03 3.166904106360e-03 1.215283271901e-02 0.000000000000e+00 0.000000000000e+00 0.000000000000e+00 0.000000000000e+00 0.000000000000e+00 0.000000000000e+00 7.625000000000e-04 4.642459909534e-06 0.000000000000e+00 0.000000000000e+00 0.000000000000e+00
113 2 1.451429214471e-03 9.738236031287e-04 1.188283881078e-02 0.000000000000e+00 0.000000000000e+00 0.000000000000e+00 0.000000000000e+00 0.000000000000e+00 0.000000000000e+00 7.625000000000e-04 4.642459909534e-06 0.000000000000e+00 0.000000000000e+00 0.000000000000e+00
114 2 3.848460602127e-03 1.447277751621e-03 7.993498727784e-03 0.000000000000e+00 0.000000000000e+00 0.000000000000e+00 0.000000000000e+00 0.000000000000e+00 0.000000000000e+00 7.625000000000e-04 4.642459909534e-06 0.000000000000e+00 0.000000000000e+00 0.000000000000e+00
115 2 6.356907396687e-03 4.782295212469e-03 7.927288303878e-03 4.884808097571e-17 3.958197100141e-17 -7.194261761039e-17 3.223604323657e+01 -1.927669717801e+01 1.128203571976e+01 7.625000000000e-04 4.642459909534e-06 -4.884913320091e-20 -3.958282362748e-20 7.194416730966e-20
116 2 6.162239976774e-03 1.431890630829e-03 1.024551366318e-02 0.000000000000e+00 0.000000000000e+00 0.000000000000e+00 0.000000000000e+00 0.000000000000e+00 0.000000000000e+00 7.625000000000e-04 4.642459909534e-06 0.000000000000e+00 0.000000000000e+00 0.000000000000e+00
117 2 6.717352146603e-03 1.226975007177e-03 9.412554105883e-03 0.000000000000e+00 0.000000000000e+00 0.000000000000e+00 0.000000000000e+00 0.000000000000e+00 0.000000000000e+00 7.625000000000e-04 4.642459909534e-06 0.000000000000e+00 0.000000000000e+00 0.000000000000e+00
118 2 6.488950687362e-03 5.142279661734e-03 1.178975256079e-02 0.000000000000e+00 0.000000000000e+00 0.000000000000e+00 0.000000000000e+00 0.000000000000e+00 0.000000000000e+00 7.625000000000e-04 4.642459909534e-06 0.000000000000e+00 0.000000000000e+00 0.000000000000e+00
119 2 5.562339412351e-03 2.039349811543e-03 1.314704674444e-02 0.000000000000e+00 0.000000000000e+00 0.000000000000e+00 0.000000000000e+00 0.000000000000e+00 0.000000000000e+00 7.625000000000e-04 4.642459909534e-06 0.000000000000e+00 0.000000000000e+00 0.000000000000e+00
120 2 1.853087172887e-03 3.930576210201e-03 1.261942599682e-02 0.000000000000e+00 0.000000000000e+00 0.000000000000e+00 0.000000000000e+00 0.000000000000e+00 0.000000000000e+00 7.625000000000e-04 4.642459909534e-06 0.000000000000e+00 0.000000000000e+00 0.000000000000e+00
121 2 4.308489159610e-04 1.708871409448e-03 8.498534513290e-03 0.000000000000e+00 0.000000000000e+00 0.000000000000e+00 0.000000000000e+00 0.000000000000e+00 0.000000000000e+00 7.625000000000e-04 4.642459909534e-06 0.000000000000e+00 0.000000000000e+00 0.000000000000e+00
122 2 6.575175460468e-03 7.272287698973e-03 1.312287953649e-02 -6.494982962921e-17 -1.801548691002e-17 9.771490152403e-17 -1.066188309372e-12 -1.164567797699e-13 -7.301524488613e-13 7.625000000000e-04 4.642459909534e-06 6.495122869845e-20 1.801587497745e-20 -9.771700637810e-20
123 2 3.085982585590e-03 5.588443894352e-03 9.958138092879e-03 0.000000000000e+00 0.000000000000e+00 0.000000000000e+00 0.000000000000e+00 0.000000000000e+00 0.000000000000e+00 7.625000000000e-04 4.642459909534e-06 0.000000000000e+00 0.000000000000e+00 0.000000000000e+00
124 2 4.933061737877e-04 6.224856310249e-03 8.469198388983e-03 0.000000000000e+00 0.000000000000e+00 0.000000000000e+00 0.000000000000e+00 0.000000000000e+00 0.000000000000e+00 7.625000000000e-04 4.642459909534e-06 0.000000000000e+00 0.000000000000e+00 0.000000000000e+00
125 2 3.448172576706e-03 6.144354484360e-03 8.152386269695e-03 0.000000000000e+00 0.000000000000e+00 0.000000000000e+00 0.000000000000e+00 0.000000000000e+00 0.000000000000e+00 7.625000000000e-04 4.642459909534e-06 0.000000000000e+00 0.000000000000e+00 0.000000000000e+00
126 2 4.772376702635e-03 5.364313299533e-03 8.988945137086e-03 0.000000000000e+00 0.000000000000e+00 0.000000000000e+00 0.000000000000e+00 0.000000000000e+00 0.000000000000e+00 7.625000000000e-04 4.642459909534e-06 0.000000000000e+00 0.000000000000e+00 0.000000000000e+00
127 2 4.457375949510e-04 6.012746867090e-03 9.359971628634e-03 0.000000000000e+00 0.000000000000e+00 0.000000000000e+00 0.000000000000e+00 0.000000000000e+00 0.000000000000e+00 7.625000000000e-04 4.642459909534e-06 0.000000000000e+00 0.000000000000e+00 0.000000000000e+00
128 2 2.926882910062e-03 6.090603871555e-03 1.106711486945e-02 0.000000000000e+00 0.000000000000e+00 0.000000000000e+00 0.000000000000e+00 0.000000000000e+00 0.000000000000e+00 7.625000000000e-04 4.642459909534e-06 0.000000000000e+00 0.000000000000e+00 0.000000000000e+00
129 2 1.076809342116e-03 6.697782341905e-03 1.001810481055e-02 0.000000000000e+00 0.000000000000e+00 0.000000000000e+00 0.000000000000e+00 0.000000000000e+00 0.000000000000e+00 7.625000000000e-04 4.642459909534e-06 0.000000000000e+00 0.000000000000e+00 0.000000000000e+00
130 2 6.801445753889e-03 4.898567767258e-04 9.400265388178e-03 0.000000000000e+00 0.000000000000e+00 0.000000000000e+00 0.000000000000e+00 0.000000000000e+00 0.000000000000e+00 7.625000000000e-04 4.642459909534e-06 0.000000000000e+00 0.000000000000e+00 0.000000000000e+00
131 2 7.460877965619e-03 1.339550055253e-03 1.063574729123e-02 0.000000000000e+00 0.000000000000e+00 0.000000000000e+00 0.000000000000e+00 0.000000000000e+00 0.000000000000e+00 7.625000000000e-04 4.642459909534e-06 0.000000000000e+00 0.000000000000e+00 0.000000000000e+00
132 2 5.186948117942e-04 2.553928711837e-03 8.843343020010e-03 0.000000000000e+00 0.000000000000e+00 0.000000000000e+00 0.000000000000e+00 0.000000000000e+00 0.000000000000e+00 7.625000000000e-04 4.642459909534e-06 0.000000000000e+00 0.000000000000e+00 0.000000000000e+00
133 2 6.451217886451e-03 1.163110096280e-03 1.156191910284e-02 0.000000000000e+00 0.000000000000e+00 0.000000000000e+00 0.000000000000e+00 0.000000000000e+00 0.000000000000e+00 7.625000000000e-04 4.642459909534e-06 0.000000000000e+00 0.000000000000e+00 0.000000000000e+00
134 2 6.711321544062e-03 7.465079738603e-03 1.002227784665e-02 0.000000000000e+00 0.000000000000e+00 0.000000000000e+00 0.000000000000e+00 0.000000000000e+00 0.000000000000e+00 7.625000000000e-04 4.642459909534e-06 0.000000000000e+00 0.000000000000e+00 0.000000000000e+00
135 2 5.539997990950e-03 1.081294333455e-02 6.380195755114e-03 0.000000000000e+00 0.000000000000e+00 0.000000000000e+00 0.000000000000e+00 0.000000000000e+00 0.000000000000e+00 7.625000000000e-04 4.642459909534e-06 0.000000000000e+00 0.000000000000e+00 0.000000000000e+00
136 2 3.367046165070e-03 1.063922643574e-02 7.017119773817e-03 0.000000000000e+00 0.000000000000e+00 0.000000000000e+00 0.000000000000e+00 0.000000000000e+00 0.000000000000e+00 7.625000000000e-04 4.642459909534e-06 0.000000000000e+00 0.000000000000e+00 0.000000000000e+00
137 2 6.252349256037e-03 9.576364187928e-03 4.631933643410e-03 0.000000000000e+00 0.000000000000e+00 0.000000000000e+00 0.000000000000e+00 0.000000000000e+00 0.000000000000e+00 7.625000000000e-04 4.642459909534e-06 0.000000000000e+00 0.000000000000e+00 0.000000000000e+00
138 2 2.676463405697e-03 8.843852623613e-03 5.097827586448e-03 0.000000000000e+00 0.000000000000e+00 0.000000000000e+00 0.000000000000e+00 0.000000000000e+00 0.000000000000e+00 7.625000000000e-04 4.642459909534e-06 0.000000000000e+00 0.000000000000e+00 0.000000000000e+00
139 2 1.995411607395e-03 1.352899632079e-02 4.636840128471e-03 0.000000000000e+00 0.000000000000e+00 0.000000000000e+00 0.000000000000e+00 0.000000000000e+00 0.000000000000e+00 7.625000000000e-04 4.642459909534e-06 0.000000000000e+00 0.000000000000e+00 0.000000000000e+00
140 2 3.984564767251e-03 1.409607195991e-02 5.513433980263e-03 0.000000000000e+00 0.000000000000e+00 0.000000000000e+00 0.000000000000e+00 0.000000000000e+00 0.000000000000e+00 7.625000000000e-04 4.642459909534e-06 0.000000000000e+00 0.000000000000e+00 0.000000000000e+00
141 2 5.690063078688e-03 1.217281158369e-02 5.686978107051e-03 0.000000000000e+00 0.000000000000e+00 0.000000000000e+00 0.000000000000e+00 0.000000000000e+00 0.000000000000e+00 7.625000000000e-04 4.642459909534e-06 0.000000000000e+00 0.000000000000e+00 0.000000000000e+00
142 2 2.401249594282e-03 9.886314824259e-03 3.539391986175e-03 0.000000000000e+00 0.000000000000e+00 0.000000000000e+00 0.000000000000e+00 0.000000000000e+00 0.000000000000e+00 7.625000000000e-04 4.642459909534e-06 0.000000000000e+00 0.000000000000e+00 0.000000000000e+00
143 2 3.754054641305e-03 1.331228434854e-02 5.107652842951e-03 0.000000000000e+00 0.000000000000e+00 0.000000000000e+00 0.000000000000e+00 0.000000000000e+00 0.000000000000e+00 7.625000000000e-04 4.642459909534e-06 0.000000000000e+00 0.000000000000e+00 0.000000000000e+00
144 2 7.386678928042e-03 1.466835617593e-02 2.468493776735e-03 0.000000000000e+00 0.000000000000e+00 0.000000000000e+00 0.000000000000e+00 0.000000000000e+00 0.000000000000e+00 7.625000000000e-04 4.642459909534e-06 0.000000000000e+00 0.000000000000e+00 0.000000000000e+00
145 2 2.442680057627e-03 1.452955885472e-02 5.457731877183e-03 0.000000000000e+00 0.000000000000e+00 0.000000000000e+00 0.000000000000e+00 0.000000000000e+00 0.000000000000e+00 7.625000000000e-04 4.642459909534e-06 0.000000000000e+00 0.000000000000e+00 0.000000000000e+00
146 2 1.404453556560e-03 1.072693616711e-02 5.808436402047e-03 0.000000000000e+00 0.000000000000e+00 0.000000000000e+00 0.000000000000e+00 0.000000000000e+00 0.000000000000e+00 7.625000000000e-04 4.642459909534e-06 0.000000000000e+00 0.000000000000e+00 0.000000000000e+00
147 2 3.321539113581e-03 1.433393808021e-02 6.728355464957e-03 0.000000000000e+00 0.000000000000e+00 0.000000000000e+00 0.000000000000e+00 0.000000000000e+00 0.000000000000e+00 7.625000000000e-04 4.642459909534e-06 0.000000000000e+00 0.000000000000e+00 0.000000000000e+00
148 2 1.756588098628e-03 1.135789431744e-02 4.783361158913e-03 0.000000000000e+00 0.000000000000e+00 0.000000000000e+00 0.000000000000e+00 0.000000000000e+00 0.000000000000e+00 7.625000000000e-04 4.642459909534e-06 0.000000000000e+00 0.000000000000e+00 0.000000000000e+00
149 2 1.114469386943e-04 1.324192165730e-02 5.905738600571e-03 0.000000000000e+00 0.000000000000e+00 0.000000000000e+00 0.000000000000e+00 0.000000000000e+00 0.000000000000e+00 7.625000000000e-04 4.642459909534e-06 0.000000000000e+00 0.000000000000e+00 0.000000000000e+00
150 2 5.824567705070e-03 1.330879267922e-02 7.450607771509e-03 0.000000000000e+00 0.000000000000e+00 0.000000000000e+00 0.000000000000e+00 0.000000000000e+00 0.000000000000e+00 7.625000000000e-04 4.642459909534e-06 0.000000000000e+00 0.000000000000e+00 0.000000000000e+00
151 2 1.040224111855e-04 1.142296398033e-02 6.718292194299e-03 0.000000000000e+00 0.000000000000e+00 0.000000000000e+00 0.000000000000e+00 0.000000000000e+00 0.000000000000e+00 7.625000000000e-04 4.642459909534e-06 0.000000000000e+00 0.000000000000e+00 0.000000000000e+00
152 2 6.722429726759e-03 9.712692096797e-03 5.501625066685e-03 0.000000000000e+00 0.000000000000e+00 0.000000000000e+00 0.000000000000e+00 0.000000000000e+00 0.000000000000e+00 7.625000000000e-04 4.642459909534e-06 0.000000000000e+00 0.000000000000e+00 0.000000000000e+00
153 2 6.319123028882e-03 9.786844395838e-03 6.553585445098e-03 0.000000000000e+00 0.000000000000e+00 0.000000000000e+00 0.000000000000e+00 0.000000000000e+00 0.000000000000e+00 7.625000000000e-04 4.642459909534e-06 0.000000000000e+00 0.000000000000e+00 0.000000000000e+00
154 2 6.991370997499e-03 1.084208039605e-02 4.576780250074e-03 0.000000000000e+00 0.000000000000e+00 0.000000000000e+00 0.000000000000e+00 0.000000000000e+00 0.000000000000e+00 7.625000000000e-04 4.642459909534e-06 0.000000000000e+00 0.000000000000e+00 0.000000000000e+00
155 2 6.849842664138e-03 1.462373226806e-02 5.120448412800e-03 0.000000000000e+00 0.000000000000e+00 0.000000000000e+00 0.000000000000e+00 0.000000000000e+00 0.000000000000e+00 7.625000000000e-04 4.642459909534e-06 0.000000000000e+00 0.000000000000e+00 0.000000000000e+00
156 2 2.913478254769e-03 1.135808016218e-02 7.398824394441e-03 0.000000000000e+00 0.000000000000e+00 0.000000000000e+00 0.000000000000e+00 0.000000000000e+00 0.000000000000e+00 7.625000000000e-04 4.642459909534e-06 0.000000000000e+00 0.000000000000e+00 0.000000000000e+00
157 2 4.708796324211e-03 1.271330956502e-02 5.774540484365e-03 0.000000000000e+00 0.000000000000e+00 0.000000000000e+00 0.000000000000e+00 0.000000000000e+00 0.000000000000e+00 7.625000000000e-04 4.642459909534e-06 0.000000000000e+00 0.000000000000e+00 0.000000000000e+00
158 2 5.067370391651e-03 1.397892899646e-02 4.357412186058e-03 0.000000000000e+00 0.000000000000e+00 0.000000000000e+00 0.000000000000e+00 0.000000000000e+00 0.000000000000e+00 7.625000000000e-04 4.642459909534e-06 0.000000000000e+00 0.000000000000e+00 0.000000000000e+00
159 2 2.503991297984e-03 1.515506266075e-02 4.895413061088e-03 0.000000000000e+00 0.000000000000e+00 0.000000000000e+00 0.000000000000e+00 0.000000000000e+00 0.000000000000e+00 7.625000000000e-04 4.642459909534e-06 0.000000000000e+00 0.000000000000e+00 0.000000000000e+00
160 2 3.770489428229e-03 1.286032680629e-02 2.631636373831e-03 0.000000000000e+00 0.000000000000e+00 0.000000000000e+00 0.000000000000e+00 0.000000000000e+00 0.000000000000e+00 7.625000000000e-04 4.642459909534e-06 0.000000000000e+00 0.000000000000e+00 0.000000000000e+00
161 2 7.442426342837e-03 1.400645088721e-02 5.564356837235e-03 0.000000000000e+00 0.000000000000e+00 0.000000000000e+00 0.000000000000e+00 0.000000000000e+00 0.000000000000e+00 7.625000000000e-04 4.642459909534e-06 0.000000000000e+00 0.000000000000e+00 0.000000000000e+00
162 2 3.354371267969e-03 1.280111414055e-02 5.900634826209e-03 0.000000000000e+00 0.000000000000e+00 0.000000000000e+00 0.000000000000e+00 0.000000000000e+00 0.000000000000e+00 7.625000000000e-04 4.642459909534e-06 0.000000000000e+00 0.000000000000e+00 0.000000000000e+00
163 2 1.294708881183e-03 1.072431956775e-02 7.595947247728e-03 0.000000000000e+00 0.000000000000e+00 0.000000000000e+00 0.000000000000e+00 0.000000000000e+00 0.000000000000e+00 7.625000000000e-04 4.642459909534e-06 0.000000000000e+00 0.000000000000e+00 0.000000000000e+00
164 2 6.317290692145e-03 9.732029897983e-03 7.366491801781e-03 0.000000000000e+00 0.000000000000e+00 0.000000000000e+00 0.000000000000e+00 0.000000000000e+00 0.000000000000e+00 7.625000000000e-04 4.642459909534e-06 0.000000000000e+00 0.000000000000e+00 0.000000000000e+00
165 2 2.952900120550e-03 1.298409395886e-02 6.917935913154e-03 0.000000000000e+00 0.000000000000e+00 0.000000000000e+00 0.000000000000e+00 0.000000000000e+00 0.000000000000e+00 7.625000000000e-04 4.642459909534e-06 0.000000000000e+00 0.000000000000e+00 0.000000000000e+00
166 2 6.367622076791e-03 1.026671301842e-02 2.843124193259e-03 0.000000000000e+00 0.000000000000e+00 0.000000000000e+00 0.000000000000e+00 0.000000000000e+00 0.000000000000e+00 7.625000000000e-04 4.642459909534e-06 0.000000000000e+00 0.000000000000e+00 0.000000000000e+00
167 2 5.635040476246e-03 9.646003569890e-03 6.525077332923e-03 0.000000000000e+00 0.000000000000e+00 0.000000000000e+00 0.000000000000e+00 0.000000000000e+00 0.000000000000e+00 7.625000000000e-04 4.642459909534e-06 0.000000000000e+00 0.000000000000e+00 0.000000000000e+00
168 2 3.974393896204e-03 1.223122200714e-02 3.998354930367e-03 0.000000000000e+00 0.000000000000e+00 0.000000000000e+00 0.000000000000e+00 0.000000000000e+00 0.000000000000e+00 7.625000000000e-04 4.642459909534e-06 0.000000000000e+00 0.000000000000e+00 0.000000000000e+00
169 2 3.712692431969e-03 9.816185467829e-03 7.621286774344e-03 0.000000000000e+00 0.000000000000e+00 0.000000000000e+00 0.000000000000e+00 0.000000000000e+00 0.000000000000e+00 7.625000000000e-04 4.642459909534e-06 0.000000000000e+00 0.000000000000e+00 0.000000000000e+00
170 2 1.808433886239e-05 1.365803640604e-02 2.519561791392e-03 -3.062992528844e-12 -3.777025217086e-12 -1.978338140669e-12 1.694422233674e-13 -1.832186979049e-13 8.745793978609e-14 7.625000000000e-04 4.642459909534e-06 3.063058508057e-15 3.777106577112e-15 1.978380755593e-15
171 2 1.345862098223e-03 9.700905210422e-03 6.938562845778e-03 0.000000000000e+00 0.000000000000e+00 0.000000000000e+00 0.000000000000e+00 0.000000000000e+00 0.000000000000e+00 7.625000000000e-04 4.642459909534e-06 0.000000000000e+00 0.000000000000e+00 0.000000000000e+00
172 2 1.569851339387e-03 8.482623936119e-03 5.290489668591e-03 0.000000000000e+00 0.000000000000e+00 0.000000000000e+00 0.000000000000e+00 0.000000000000e+00 0.000000000000e+00 7.625000000000e-04 4.642459909534e-06 0.000000000000e+00 0.000000000000e+00 0.000000000000e+00
173 2 3.633035142095e-03 8.261317830527e-03 5.459498544796e-03 0.000000000000e+00 0.000000000000e+00 0.000000000000e+00 0.000000000000e+00 0.000000000000e+00 0.000000000000e+00 7.625000000000e-04 4.642459909534e-06 0.000000000000e+00 0.000000000000e+00 0.000000000000e+00
174 2 6.616042948792e-03 1.285781205836e-02 1.606744770195e-03 -5.193760277669e-17 2.930287727239e-17 -1.026404740763e-16 7.722181736881e-13 3.479050036172e-13 -2.914302901245e-13 7.625000000000e-04 4.642459909534e-06 5.193872155256e-20 -2.930350847889e-20 1.026426850309e-19
175 2 3.119186150301e-03 1.029791326065e-02 4.334362600994e-03 0.000000000000e+00 0.000000000000e+00 0.000000000000e+00 0.000000000000e+00 0.000000000000e+00 0.000000000000e+00 7.625000000000e-04 4.642459909534e-06 0.000000000000e+00 0.000000000000e+00 0.000000000000e+00
176 2 4.517664424710e-03 1.282208944391e-02 5.069420060771e-03 0.000000000000e+00 0.000000000000e+00 0.000000000000e+00 0.000000000000e+00 0.000000000000e+00 0.000000000000e+00 7.625000000000e-04 4.642459909534e-06 0.000000000000e+00 0.000000000000e+00 0.000000000000e+00
177 2 5.335000514020e-03 8.442481151671e-03 6.653816830558e-03 0.000000000000e+00 0.000000000000e+00 0.000000000000e+00 0.000000000000e+00 0.000000000000e+00 0.000000000000e+00 7.625000000000e-04 4.642459909534e-06 0.000000000000e+00 0.000000000000e+00 0.000000000000e+00
178 2 3.345368939074e-03 1.520531761751e-02 4.267532591426e-03 0.000000000000e+00 0.000000000000e+00 0.000000000000e+00 0.000000000000e+00 0.000000000000e+00 0.000000000000e+00 7.625000000000e-04 4.642459909534e-06 0.000000000000e+00 0.000000000000e+00 0.000000000000e+00
179 2 6.680879167562e-04 7.990416969689e-03 2.677019050206e-03 0.000000000000e+00 0.000000000000e+00 0.000000000000e+00 0.000000000000e+00 0.000000000000e+00 0.000000000000e+00 7.625000000000e-04 4.642459909534e-06 0.000000000000e+00 0.000000000000e+00 0.000000000000e+00
180 2 7.066399547478e-03 1.145488920670e-02 5.541872054077e-03 0.000000000000e+00 0.000000000000e+00 0.000000000000e+00 0.000000000000e+00 0.000000000000e+00 0.000000000000e+00 7.625000000000e-04 4.642459909534e-06 0.000000000000e+00 0.000000000000e+00 0.000000000000e+00
181 2 1.088128313468e-03 1.248811960154e-02 2.767086129008e-03 0.000000000000e+00 0.000000000000e+00 0.000000000000e+00 0.000000000000e+00 0.000000000000e+00 0.000000000000e+00 7.625000000000e-04 4.642459909534e-06 0.000000000000e+00 0.000000000000e+00 0.000000000000e+00
182 2 1.122090760277e-03 1.458148587010e-02 2.620095980593e-03 0.000000000000e+00 0.000000000000e+00 0.000000000000e+00 0.000000000000e+00 0.000000000000e+00 0.000000000000e+00 7.625000000000e-04 4.642459909534e-06 0.000000000000e+00 0.000000000000e+00 0.000000000000e+00
183 2 1.956152610742e-03 1.464032395475e-02 6.950110520944e-03 0.000000000000e+00 0.000000000000e+00 0.000000000000e+00 0.000000000000e+00 0.000000000000e+00 0.000000000000e+00 7.625000000000e-04 4.642459909534e-06 0.000000000000e+00 0.000000000000e+00 0.000000000000e+00
184 2 4.550294923427e-03 7.900038632489e-03 4.941306629130e-03 0.000000000000e+00 0.000000000000e+00 0.000000000000e+00 0.000000000000e+00 0.000000000000e+00 0.000000000000e+00 7.625000000000e-04 4.642459909534e-06 0.000000000000e+00 0.000000000000e+00 0.000000000000e+00
185 2 5.234527984171e-03 1.057046924545e-02 4.668758688095e-03 0.000000000000e+00 0.000000000000e+00 0.000000000000e+00 0.000000000000e+00 0.000000000000e+00 0.000000000000e+00 7.625000000000e-04 4.642459909534e-06 0.000000000000e+00 0.000000000000e+00 0.000000000000e+00
186 2 2.623759986628e-03 1.455429051925e-02 6.008670826094e-03 0.000000000000e+00 0.000000000000e+00 0.000000000000e+00 0.000000000000e+00 0.000000000000e+00 0.000000000000e+00 7.625000000000e-04 4.642459909534e-06 0.000000000000e+00 0.000000000000e+00 0.000000000000e+00
187 2 1.024257046702e-03 1.494815550304e-02 1.776110278000e-03 0.000000000000e+00 0.000000000000e+00 0.000000000000e+00 0.000000000000e+00 0.000000000000e+00 0.000000000000e+00 7.625000000000e-04 4.642459909534e-06 0.000000000000e+00 0.000000000000e+00 0.000000000000e+00
188 2 2.502253855508e-04 9.354830860040e-03 1.603157198025e-03 0.000000000000e+00 0.000000000000e+00 0.000000000000e+00 0.000000000000e+00 0.000000000000e+00 0.000000000000e+00 7.625000000000e-04 4.642459909534e-06 0.000000000000e+00 0.000000000000e+00 0.000000000000e+00
189 2 4.009832121259e-03 8.386724210230e-03 7.073992595132e-03 0.000000000000e+00 0.000000000000e+00 0.000000000000e+00 0.000000000000e+00 0.000000000000e+00 0.000000000000e+00 7.625000000000e-04 4.642459909534e-06 0.000000000000e+00 0.000000000000e+00 0.000000000000e+00
190 2 6.797372300734e-03 8.880502214199e-03 6.055999790969e-03 0.000000000000e+00 0.000000000000e+00 0.000000000000e+00 0.000000000000e+00 0.000000000000e+00 0.000000000000e+00 7.625000000000e-04 4.642459909534e-06 0.000000000000e+00 0.000000000000e+00 0.000000000000e+00
191 2 2.717829100740e-03 1.239853578368e-02 3.342310397146e-03 0.000000000000e+00 0.000000000000e+00 0.000000000000e+00 0.000000000000e+00 0.000000000000e+00 0.000000000000e+00 7.625000000000e-04 4.642459909534e-06 0.000000000000e+00 0.000000000000e+00 0.000000000000e+00
192 2 6.421553194827e-03 9.819577153892e-03 3.871229749230e-03 0.000000000000e+00 0.000000000000e+00 0.000000000000e+00 0.000000000000e+00 0.000000000000e+00 0.000000000000e+00 7.625000000000e-04 4.642459909534e-06 0.000000000000e+00 0.000000000000e+00 0.000000000000e+00
193 2 4.152318564999e-04 1.414776538021e-02 2.776073054222e-03 3.062992528844e-12 3.777025217086e-12 1.978338140669e-12 1.694422233674e-13 -1.832186979049e-13 8.745793978609e-14 7.625000000000e-04 4.642459909534e-06 -3.063058508057e-15 -3.777106577112e-15 -1.978380755593e-15
194 2 6.078495634478e-03 8.039105534134e-03 5.745975992688e-03 0.000000000000e+00 0.000000000000e+00 0.000000000000e+00 0.000000000000e+00 0.000000000000e+00 0.000000000000e+00 7.625000000000e-04 4.642459909534e-06 0.000000000000e+00 0.000000000000e+00 0.000000000000e+00
195 2 2.802710141429e-03 9.525176242652e-03 5.000148297937e-03 0.000000000000e+00 0.000000000000e+00 0.000000000000e+00 0.000000000000e+00 0.000000000000e+00 0.000000000000e+00 7.625000000000e-04 4.642459909534e-06 0.000000000000e+00 0.000000000000e+00 0.000000000000e+00
196 2 4.498569105630e-03 1.467038658958e-02 5.302004200497e-03 0.000000000000e+00 0.000000000000e+00 0.000000000000e+00 0.000000000000e+00 0.000000000000e+00 0.000000000000e+00 7.625000000000e-04 4.642459909534e-06 0.000000000000e+00 0.000000000000e+00 0.000000000000e+00
197 2 6.866678398478e-03 1.271640507326e-02 2.102057222081e-03 5.193760277669e-17 -2.930287727239e-17 1.026404740763e-16 7.722181736881e-13 3.479050036172e-13 -2.914302901245e-13 7.625000000000e-04 4.642459909534e-06 -5.193872155256e-20 2.930350847889e-20 -1.026426850309e-19
198 2 7.352576423087e-03 1.022103266215e-02 3.497915407810e-03 0.000000000000e+00 0.000000000000e+00 0.000000000000e+00 0.000000000000e+00 0.000000000000e+00 0.000000000000e+00 7.625000000000e-04 4.642459909534e-06 0.000000000000e+00 0.000000000000e+00 0.000000000000e+00
199 2 5.762323368835e-03 1.237138096579e-02 7.301321148782e-03 0.000000000000e+00 0.000000000000e+00 0.000000000000e+00 0.000000000000e+00 0.000000000000e+00 0.000000000000e+00 7.625000000000e-04 4.642459909534e-06 0.000000000000e+00 0.000000000000e+00 0.000000000000e+00
200 2 3.051686663257e-03 1.326098902630e-02 3.964710961395e-03 0.000000000000e+00 0.000000000000e+00 0.000000000000e+00 0.000000000000e+00 0.000000000000e+00 0.000000000000e+00 7.625000000000e-04 4.642459909534e-06 0.000000000000e+00 0.000000000000e+00 0.000000000000e+00
201 2 4.104249519781e-03 1.208458555969e-02 1.250031450235e-02 0.000000000000e+00 0.000000000000e+00 0.000000000000e+00 0.000000000000e+00 0.000000000000e+00 0.000000000000e+00 7.625000000000e-04 4.642459909534e-06 0.000000000000e+00 0.000000000000e+00 0.000000000000e+00
202 2 6.068493640715e-03 1.096487123557e-02 1.195090757633e-02 -2.033330055408e-13 1.561803627575e-13 -2.579640639184e-13 1.773955556659e-13 -3.808035769471e-13 -3.703787684174e-13 7.625000000000e-04 4.642459909534e-06 2.033373854900e-16 -1.561837270025e-16 2.579696206626e-16
203 2 5.508675987924e-03 1.482839114806e-02 1.182007672340e-02 1.554685355192e-30 -1.348902022215e-31 -1.143893816177e-31 -1.886154506457e-13 -1.353498382316e-12 -9.674325258171e-13 7.625000000000e-04 4.642459909534e-06 -1.554718844310e-33 1.348931078601e-34 1.143918456529e-34
204 2 5.627895642734e-03 1.252786290391e-02 8.652331112615e-03 0.000000000000e+00 0.000000000000e+00 0.000000000000e+00 0.000000000000e+00 0.000000000000e+00 0.000000000000e+00 7.625000000000e-04 4.642459909534e-06 0.000000000000e+00 0.000000000000e+00 0.000000000000e+00
205 2 4.297328626888e-03 1.396125487961e-02 1.303557004864e-02 0.000000000000e+00 0.000000000000e+00 0.000000000000e+00 0.000000000000e+00 0.000000000000e+00 0.000000000000e+00 7.625000000000e-04 4.642459909534e-06 0.000000000000e+00 0.000000000000e+00 0.000000000000e+00
206 2 1.206824542367e-03 9.233151044795e-03 1.382211098393e-02 0.000000000000e+00 0.000000000000e+00 0.000000000000e+00 0.000000000000e+00 0.000000000000e+00 0.000000000000e+00 7.625000000000e-04 4.642459909534e-06 0.000000000000e+00 0.000000000000e+00 0.000000000000e+00
207 2 2.083978729669e-03 1.112507189365e-02 1.019711606491e-02 0.000000000000e+00 0.000000000000e+00 0.000000000000e+00 0.000000000000e+00 0.000000000000e+00 0.000000000000e+00 7.625000000000e-04 4.642459909534e-06 0.000000000000e+00 0.000000000000e+00 0.000000000000e+00
208 2 7.555560871954e-03 9.499801225386e-03 8.265697405984e-03 0.000000000000e+00 0.000000000000e+00 0.000000000000e+00 0.000000000000e+00 0.000000000000e+00 0.000000000000e+00 7.625000000000e-04 4.642459909534e-06 0.000000000000e+00 0.000000000000e+00 0.000000000000e+00
209 2 2.698764286965e-03 1.475953559590e-02 1.147814712779e-02 0.000000000000e+00 0.000000000000e+00 0.000000000000e+00 0.000000000000e+00 0.000000000000e+00 0.000000000000e+00 7.625000000000e-04 4.642459909534e-06 0.000000000000e+00 0.000000000000e+00 0.000000000000e+00
210 2 2.460876329102e-03 1.294160311765e-02 1.384807548575e-02 0.000000000000e+00 0.000000000000e+00 0.000000000000e+00 0.000000000000e+00 0.000000000000e+00 0.000000000000e+00 7.625000000000e-04 4.642459909534e-06 0.000000000000e+00 0.000000000000e+00 0.000000000000e+00
211 2 5.586222694882e-03 1.202997434136e-02 1.362990371555e-02 1.897702748031e-12 -7.742585832855e-12 1.007309222225e-11 -8.022431136385e-13 1.672284439985e-13 2.796757421189e-13 7.625000000000e-04 4.642459909534e-06 -1.897743626007e-15 7.742752614104e-15 -1.007330920439e-14
212 2 2.340955808210e-03 1.099053066376e-02 8.730764853210e-03 0.000000000000e+00 0.000000000000e+00 0.000000000000e+00 0.000000000000e+00 0.000000000000e+00 0.000000000000e+00 7.625000000000e-04 4.642459909534e-06 0.000000000000e+00 0.000000000000e+00 0.000000000000e+00
213 2 7.307823529740e-03 1.122024567630e-02 1.106777382099e-02 0.000000000000e+00 0.000000000000e+00 0.000000000000e+00 0.000000000000e+00 0.000000000000e+00 0.000000000000e+00 7.625000000000e-04 4.642459909534e-06 0.000000000000e+00 0.000000000000e+00 0.000000000000e+00
214 2 6.914720928067e-03 1.371766317403e-02 8.466128088474e-03 0.000000000000e+00 0.000000000000e+00 0.000000000000e+00 0.000000000000e+00 0.000000000000e+00 0.000000000000e+00 7.625000000000e-04 4.642459909534e-06 0.000000000000e+00 0.000000000000e+00 0.000000000000e+00
215 2 2.489316542637e-03 1.444660186709e-02 9.200403385295e-03 0.000000000000e+00 0.000000000000e+00 0.000000000000e+00 0.000000000000e+00 0.000000000000e+00 0.000000000000e+00 7.625000000000e-04 4.642459909534e-06 0.000000000000e+00 0.000000000000e+00 0.000000000000e+00
216 2 7.438435787957e-03 8.419733104999e-03 8.277813353208e-03 0.000000000000e+00 0.000000000000e+00 0.000000000000e+00 0.000000000000e+00 0.000000000000e+00 0.000000000000e+00 7.625000000000e-04 4.642459909534e-06 0.000000000000e+00 0.000000000000e+00 0.000000000000e+00
217 2 2.557933910981e-04 1.071249297151e-02 8.474033109596e-03 0.000000000000e+00 0.000000000000e+00 0.000000000000e+00 0.000000000000e+00 0.000000000000e+00 0.000000000000e+00 7.625000000000e-04 4.642459909534e-06 0.000000000000e+00 0.000000000000e+00 0.000000000000e+00
218 2 2.927032487695e-03 8.604555144569e-03 9.480122077405e-03 0.000000000000e+00 0.000000000000e+00 0.000000000000e+00 0.000000000000e+00 0.000000000000e+00 0.000000000000e+00 7.625000000000e-04 4.642459909534e-06 0.000000000000e+00 0.000000000000e+00 0.000000000000e+00
219 2 3.609360832874e-03 8.828577680300e-03 1.136806055260e-02 2.612392824320e-13 -1.611941914568e-13 -2.381279556380e-13 -6.753958963903e-13 -1.837056303555e-13 -6.165914387752e-13 7.625000000000e-04 4.642459909534e-06 -2.612449097269e-16 1.611976637036e-16 2.381330850971e-16
220 2 3.772971566619e-03 8.465723181015e-03 1.198182534019e-02 0.000000000000e+00 0.000000000000e+00 0.000000000000e+00 0.000000000000e+00 0.000000000000e+00 0.000000000000e+00 7.625000000000e-04 4.642459909534e-06 0.000000000000e+00 0.000000000000e+00 0.000000000000e+00
221 2 2.698472196161e-03 9.850365459981e-03 1.243576951379e-02 0.000000000000e+00 0.000000000000e+00 0.000000000000e+00 0.000000000000e+00 0.000000000000e+00 0.000000000000e+00 7.625000000000e-04 4.642459909534e-06 0.000000000000e+00 0.000000000000e+00 0.000000000000e+00
222 2 3.303294185357e-03 1.510411983155e-02 8.713238883106e-03 0.000000000000e+00 0.000000000000e+00 0.000000000000e+00 0.000000000000e+00 0.000000000000e+00 0.000000000000e+00 7.625000000000e-04 4.642459909534e-06 0.000000000000e+00 0.000000000000e+00 0.000000000000e+00
223 2 5.059997748928e-03 1.303199891917e-02 1.182956993242e-02 0.000000000000e+00 0.000000000000e+00 0.000000000000e+00 0.000000000000e+00 0.000000000000e+00 0.000000000000e+00 7.625000000000e-04 4.642459909534e-06 0.000000000000e+00 0.000000000000e+00 0.000000000000e+00
224 2 4.162872650098e-03 1.364292747355e-02 1.207437308113e-02 0.000000000000e+00 0.000000000000e+00 0.000000000000e+00 0.000000000000e+00 0.000000000000e+00 0.000000000000e+00 7.625000000000e-04 4.642459909534e-06 0.000000000000e+00 0.000000000000e+00 0.000000000000e+00
225 2 6.889981576374e-03 1.293051131849e-02 1.219660409355e-02 0.000000000000e+00 0.000000000000e+00 0.000000000000e+00 0.000000000000e+00 0.000000000000e+00 0.000000000000e+00 7.625000000000e-04 4.642459909534e-06 0.000000000000e+00 0.000000000000e+00 0.000000000000e+00
226 2 3.706371420639e-03 1.117338968479e-02 8.048040019646e-03 0.000000000000e+00 0.000000000000e+00 0.000000000000e+00 0.000000000000e+00 0.000000000000e+00 0.000000000000e+00 7.625000000000e-04 4.642459909534e-06 0.000000000000e+00 0.000000000000e+00 0.000000000000e+00
227 2 2.431440305591e-03 1.007066061746e-02 1.090993997703e-02 0.000000000000e+00 0.000000000000e+00 0.000000000000e+00 0.000000000000e+00 0.000000000000e+00 0.000000000000e+00 7.625000000000e-04 4.642459909534e-06 0.000000000000e+00 0.000000000000e+00 0.000000000000e+00
228 2 2.487403555083e-03 1.303628909455e-02 7.853658491545e-03 0.000000000000e+00 0.000000000000e+00 0.000000000000e+00 0.000000000000e+00 0.000000000000e+00 0.000000000000e+00 7.625000000000e-04 4.642459909534e-06 0.000000000000e+00 0.000000000000e+00 0.000000000000e+00
229 2 7.582993759080e-03 9.445299539325e-03 1.348092247037e-02 0.000000000000e+00 0.000000000000e+00 0.000000000000e+00 0.000000000000e+00 0.000000000000e+00 0.000000000000e+00 7.625000000000e-04 4.642459909534e-06 0.000000000000e+00 0.000000000000e+00 0.000000000000e+00
230 2 3.598771063522e-04 7.795159911186e-03 9.066355512103e-03 0.000000000000e+00 0.000000000000e+00 0.000000000000e+00 0.000000000000e+00 0.000000000000e+00 0.000000000000e+00 7.625000000000e-04 4.642459909534e-06 0.000000000000e+00 0.000000000000e+00 0.000000000000e+00
231 2 2.256751145007e-03 9.861132100642e-03 9.511162364612e-03 0.000000000000e+00 0.000000000000e+00 0.000000000000e+00 0.000000000000e+00 0.000000000000e+00 0.000000000000e+00 7.625000000000e-04 4.642459909534e-06 0.000000000000e+00 0.000000000000e+00 0.000000000000e+00
232 2 3.993634247899e-03 1.282048800843e-02 8.273081736302e-03 0.000000000000e+00 0.000000000000e+00 0.000000000000e+00 0.000000000000e+00 0.000000000000e+00 0.000000000000e+00 7.625000000000e-04 4.642459909534e-06 0.000000000000e+00 0.000000000000e+00 0.000000000000e+00
233 2 2.773587144437e-03 1.191527044330e-02 1.073201524623e-02 0.000000000000e+00 0.000000000000e+00 0.000000000000e+00 0.000000000000e+00 0.000000000000e+00 0.000000000000e+00 7.625000000000e-04 4.642459909534e-06 0.000000000000e+00 0.000000000000e+00 0.000000000000e+00
234 2 7.596865427551e-03 1.202691371964e-02 1.171266677396e-02 0.000000000000e+00 0.000000000000e+00 0.000000000000e+00 0.000000000000e+00 0.000000000000e+00 0.000000000000e+00 7.625000000000e-04 4.642459909534e-06 0.000000000000e+00 0.000000000000e+00 0.000000000000e+00
235 2 4.518441329417e-03 1.050889233265e-02 1.327671752573e-02 0.000000000000e+00 0.000000000000e+00 0.000000000000e+00 0.000000000000e+00 0.000000000000e+00 0.000000000000e+00 7.625000000000e-04 4.642459909534e-06 0.000000000000e+00 0.000000000000e+00 0.000000000000e+00
236 2 3.972410371395e-03 9.635389577433e-03 1.159796040831e-02 0.000000000000e+00 0.000000000000e+00 0.000000000000e+00 0.000000000000e+00 0.000000000000e+00 0.000000000000e+00 7.625000000000e-04 4.642459909534e-06 0.000000000000e+00 0.000000000000e+00 0.000000000000e+00
237 2 6.307445029698e-03 1.333296088314e-02 1.294238681416e-02 0.000000000000e+00 0.000000000000e+00 0.000000000000e+00 0.000000000000e+00 0.000000000000e+00 0.000000000000e+00 7.625000000000e-04 4.642459909534e-06 0.000000000000e+00 0.000000000000e+00 0.000000000000e+00
238 2 1.424783123730e-03 1.425201213183e-02 1.211059769340e-02 0.000000000000e+00 0.000000000000e+00 0.000000000000e+00 0.000000000000e+00 0.000000000000e+00 0.000000000000e+00 7.625000000000e-04 4.642459909534e-06 0.000000000000e+00 0.000000000000e+00 0.000000000000e+00
239 2 3.173002549869e-03 9.097826699651e-03 1.176581507439e-02 -2.612392824320e-13 1.611941914568e-13 2.381279556380e-13 -6.753958963903e-13 -1.837056303555e-13 -6.165914387752e-13 7.625000000000e-04 4.642459909534e-06 2.612449097269e-16 -1.611976637036e-16 -2.381330850971e-16
240 2 5.596020862497e-03 1.478063967001e-02 1.245917187979e-02 0.000000000000e+00 0.000000000000e+00 0.000000000000e+00 0.000000000000e+00 0.000000000000e+00 0.000000000000e+00 7.625000000000e-04 4.642459909534e-06 0.000000000000e+00 0.000000000000e+00 0.000000000000e+00
241 2 6.730078463252e-03 1.529993016553e-02 1.011035757647e-02 0.000000000000e+00 0.000000000000e+00 0.000000000000e+00 0.000000000000e+00 0.000000000000e+00 0.000000000000e+00 7.625000000000e-04 4.642459909534e-06 0.000000000000e+00 0.000000000000e+00 0.000000000000e+00
242 2 2.557644532874e-03 1.003754473940e-02 8.200502851480e-03 0.000000000000e+00 0.000000000000e+00 0.000000000000e+00 0.000000000000e+00 0.000000000000e+00 0.000000000000e+00 7.625000000000e-04 4.642459909534e-06 0.000000000000e+00 0.000000000000e+00 0.000000000000e+00
243 2 6.430866314091e-03 1.068653228401e-02 1.241064173128e-02 2.033330055408e-13 -1.561803627575e-13 2.579640639184e-13 1.773955556659e-13 -3.808035769471e-13 -3.703787684174e-13 7.625000000000e-04 4.642459909534e-06 -2.033373854900e-16 1.561837270025e-16 -2.579696206626e-16
244 2 4.039472248311e-03 1.468803490360e-02 9.131347988614e-03 0.000000000000e+00 0.000000000000e+00 0.000000000000e+00 0.000000000000e+00 0.000000000000e+00 0.000000000000e+00 7.625000000000e-04 4.642459909534e-06 0.000000000000e+00 0.000000000000e+00 0.000000000000e+00
245 2 3.676331002714e-03 1.351502479075e-02 1.394036467329e-02 0.000000000000e+00 0.000000000000e+00 0.000000000000e+00 0.000000000000e+00 0.000000000000e+00 0.000000000000e+00 7.625000000000e-04 4.642459909534e-06 0.000000000000e+00 0.000000000000e+00 0.000000000000e+00
246 2 4.131793276729e-03 1.389347296440e-02 1.154198961708e-02 0.000000000000e+00 0.000000000000e+00 0.000000000000e+00 0.000000000000e+00 0.000000000000e+00 0.000000000000e+00 7.625000000000e-04 4.642459909534e-06 0.000000000000e+00 0.000000000000e+00 0.000000000000e+00
247 2 9.416287319106e-04 9.571175644902e-03 8.835411915801e-03 0.000000000000e+00 0.000000000000e+00 0.000000000000e+00 0.000000000000e+00 0.000000000000e+00 0.000000000000e+00 7.625000000000e-04 4.642459909534e-06 0.000000000000e+00 0.000000000000e+00 0.000000000000e+00
248 2 5.451435385065e-03 1.329277470271e-02 1.369498593464e-02 0.000000000000e+00 0.000000000000e+00 0.000000000000e+00 0.000000000000e+00 0.000000000000e+00 0.000000000000e+00 7.625000000000e-04 4.642459909534e-06 0.000000000000e+00 0.000000000000e+00 0.000000000000e+00
249 2 5.483883040445e-03 1.244751789995e-02 1.308668019007e-02 -1.897702748031e-12 7.742585832855e-12 -1.007309222225e-11 -8.022431136385e-13 1.672284439985e-13 2.796757421189e-13 7.625000000000e-04 4.642459909534e-06 1.897743626007e-15 -7.742752614104e-15 1.007330920439e-14
250 2 2.004518536133e-03 1.288280240952e-02 1.004407477231e-02 0.000000000000e+00 0.000000000000e+00 0.000000000000e+00 0.000000000000e+00 0.000000000000e+00 0.000000000000e+00 7.625000000000e-04 4.642459909534e-06 0.000000000000e+00 0.000000000000e+00 0.000000000000e+00
251 2 1.905648615598e-03 1.120457619176e-02 9.345976908068e-03 0.000000000000e+00 0.000000000000e+00 0.000000000000e+00 0.000000000000e+00 0.000000000000e+00 0.000000000000e+00 7.625000000000e-04 4.642459909534e-06 0.000000000000e+00 0.000000000000e+00 0.000000000000e+00
252 2 8.786546016957e-04 1.173875103598e-02 1.054008030204e-02 0.000000000000e+00 0.000000000000e+00 0.000000000000e+00 0.000000000000e+00 0.000000000000e+00 0.000000000000e+00 7.625000000000e-04 4.642459909534e-06 0.000000000000e+00 0.000000000000e+00 0.000000000000e+00
253 2 5.163985811225e-03 8.507026620040e-03 1.408219459593e-02 0.000000000000e+00 0.000000000000e+00 0.000000000000e+00 0.000000000000e+00 0.000000000000e+00 0.000000000000e+00 7.625000000000e-04 4.642459909534e-06 0.000000000000e+00 0.000000000000e+00 0.000000000000e+00
254 2 3.178577145390e-03 9.391123884977e-03 1.041388065693e-02 0.000000000000e+00 0.000000000000e+00 0.000000000000e+00 0.000000000000e+00 0.000000000000e+00 0.000000000000e+00 7.625000000000e-04 4.642459909534e-06 0.000000000000e+00 0.000000000000e+00 0.000000000000e+00
255 2 5.103695410655e-03 9.668142591239e-03 9.200671570006e-03 0.000000000000e+00 0.000000000000e+00 0.000000000000e+00 0.000000000000e+00 0.000000000000e+00 0.000000000000e+00 7.625000000000e-04 4.642459909534e-06 0.000000000000e+00 0.000000000000e+00 0.000000000000e+00
256 2 4.788290372767e-03 1.152458036608e-02 8.163699011289e-03 0.000000000000e+00 0.000000000000e+00 0.000000000000e+00 0.000000000000e+00 0.000000000000e+00 0.000000000000e+00 7.625000000000e-04 4.642459909534e-06 0.000000000000e+00 0.000000000000e+00 0.000000000000e+00
257 2 3.967258403243e-04 1.228645096058e-02 9.018238816444e-03 0.000000000000e+00 0.000000000000e+00 0.000000000000e+00 0.000000000000e+00 0.000000000000e+00 0.000000000000e+00 7.625000000000e-04 4.642459909534e-06 0.000000000000e+00 0.000000000000e+00 0.000000000000e+00
258 2 6.553454849744e-03 1.331932038790e-02 1.403405498767e-02 0.000000000000e+00 0.000000000000e+00 0.000000000000e+00 0.000000000000e+00 0.000000000000e+00 0.000000000000e+00 7.625000000000e-04 4.642459909534e-06 0.000000000000e+00 0.000000000000e+00 0.000000000000e+00
259 2 5.092582236418e-03 1.486449296770e-02 1.185069173291e-02 -1.554685355192e-30 1.348902022215e-31 1.143893816177e-31 -1.886154506457e-13 -1.353498382316e-12 -9.674325258171e-13 7.625000000000e-04 4.642459909534e-06 1.554718844310e-33 -1.348931078601e-34 -1.143918456529e-34
260 2 2.856702985828e-03 1.011547533738e-02 1.094335543132e-02 0.000000000000e+00 0.000000000000e+00 0.000000000000e+00 0.000000000000e+00 0.000000000000e+00 0.000000000000e+00 7.625000000000e-04 4.642459909534e-06 0.000000000000e+00 0.000000000000e+00 0.000000000000e+00
261 2 1.445520703294e-02 4.153719183233e-04 3.668071298526e-03 0.000000000000e+00 0.000000000000e+00 0.000000000000e+00 0.000000000000e+00 0.000000000000e+00 0.000000000000e+00 7.625000000000e-04 4.642459909534e-06 0.000000000000e+00 0.000000000000e+00 0.000000000000e+00
262 2 9.996289019492e-03 6.594241716997e-03 7.233421409032e-03 0.000000000000e+00 0.000000000000e+00 0.000000000000e+00 0.000000000000e+00 0.000000000000e+00 0.000000000000e+00 7.625000000000e-04 4.642459909534e-06 0.000000000000e+00 0.000000000000e+00 0.000000000000e+00
263 2 8.868583651123e-03 5.242479297219e-03 6.167331453545e-03 0.000000000000e+00 0.000000000000e+00 0.000000000000e+00 0.000000000000e+00 0.000000000000e+00 0.000000000000e+00 7.625000000000e-04 4.642459909534e-06 0.000000000000e+00 0.000000000000e+00 0.000000000000e+00
264 2 1.160184820732e-02 3.932935067649e-04 1.845461566679e-03 0.000000000000e+00 0.000000000000e+00 0.000000000000e+00 0.000000000000e+00 0.000000000000e+00 0.000000000000e+00 7.625000000000e-04 4.642459909534e-06 0.000000000000e+00 0.000000000000e+00 0.000000000000e+00
265 2 1.109167871220e-02 2.788651490181e-03 4.432727559427e-03 0.000000000000e+00 0.000000000000e+00 0.000000000000e+00 0.000000000000e+00 0.000000000000e+00 0.000000000000e+00 7.625000000000e-04 4.642459909534e-06 0.000000000000e+00 0.000000000000e+00 0.000000000000e+00
266 2 1.417361378345e-02 1.833059953232e-03 5.844597472761e-03 0.000000000000e+00 0.000000000000e+00 0.000000000000e+00 0.000000000000e+00 0.000000000000e+00 0.000000000000e+00 7.625000000000e-04 4.642459909534e-06 0.000000000000e+00 0.000000000000e+00 0.000000000000e+00
267 2 1.250106940722e-02 4.929749647262e-03 7.139698492888e-03 4.212752285296e-13 -4.971636738838e-13 -3.377460670566e-13 -1.074150838680e-12 -1.249667844929e-12 4.997136409317e-13 7.625000000000e-04 4.642459909534e-06 -4.212843031218e-16 4.971743831714e-16 3.377533423664e-16
268 2 1.083048121177e-02 6.369482540617e-03 6.169883707738e-03 -2.081127888865e-14 -2.020400941981e-14 -3.397914115180e-14 3.688564938123e-13 5.698562059441e-13 -5.647510462287e-13 7.625000000000e-04 4.642459909534e-06 2.081172717959e-17 2.020444462970e-17 3.397987308861e-17
269 2 8.292230662965e-03 1.977555238888e-03 5.821161472047e-03 0.000000000000e+00 0.000000000000e+00 0.000000000000e+00 0.000000000000e+00 0.000000000000e+00 0.000000000000e+00 7.625000000000e-04 4.642459909534e-06 0.000000000000e+00 0.000000000000e+00 0.000000000000e+00
270 2 9.646591666655e-03 8.132194191127e-04 4.000440965954e-03 0.000000000000e+00 0.000000000000e+00 0.000000000000e+00 0.000000000000e+00 0.000000000000e+00 0.000000000000e+00 7.625000000000e-04 4.642459909534e-06 0.000000000000e+00 0.000000000000e+00 0.000000000000e+00
271 2 1.067298341908e-02 5.527470466969e-03 1.317906368402e-03 0.000000000000e+00 0.000000000000e+00 0.000000000000e+00 0.000000000000e+00 0.000000000000e+00 0.000000000000e+00 7.625000000000e-04 4.642459909534e-06 0.000000000000e+00 0.000000000000e+00 0.000000000000e+00
272 2 1.037376626983e-02 2.782331158815e-03 5.578754868723e-03 0.000000000000e+00 0.000000000000e+00 0.000000000000e+00 0.000000000000e+00 0.000000000000e+00 0.000000000000e+00 7.625000000000e-04 4.642459909534e-06 0.000000000000e+00 0.000000000000e+00 0.000000000000e+00
273 2 1.112194113103e-02 6.652437710543e-03 6.645758246244e-03 2.081127888865e-14 2.020400941981e-14 3.397914115180e-14 3.688564938123e-13 5.698562059441e-13 -5.647510462287e-13 7.625000000000e-04 4.642459909534e-06 -2.081172717959e-17 -2.020444462970e-17 -3.397987308861e-17
274 2 1.490552261389e-02 6.517156821707e-03 3.521828168026e-03 0.000000000000e+00 0.000000000000e+00 0.000000000000e+00 0.000000000000e+00 0.000000000000e+00 0.000000000000e+00 7.625000000000e-04 4.642459909534e-06 0.000000000000e+00 0.000000000000e+00 0.000000000000e+00
275 2 1.005461335242e-02 3.130695897910e-03 4.535763769681e-03 0.000000000000e+00 0.000000000000e+00 0.000000000000e+00 0.000000000000e+00 0.000000000000e+00 0.000000000000e+00 7.625000000000e-04 4.642459909534e-06 0.000000000000e+00 0.000000000000e+00 0.000000000000e+00
276 2 9.812503609174e-03 7.210389133617e-03 3.701439998640e-03 0.000000000000e+00 0.000000000000e+00 0.000000000000e+00 0.000000000000e+00 0.000000000000e+00 0.000000000000e+00 7.625000000000e-04 4.642459909534e-06 0.000000000000e+00 0.000000000000e+00 0.000000000000e+00
277 2 1.103115663020e-02 5.589777259631e-05 2.811794373005e-03 0.000000000000e+00 0.000000000000e+00 0.000000000000e+00 0.000000000000e+00 0.000000000000e+00 0.000000000000e+00 7.625000000000e-04 4.642459909534e-06 0.000000000000e+00 0.000000000000e+00 0.000000000000e+00
278 2 1.387209104293e-02 6.449751856733e-03 7.333211006223e-03 0.000000000000e+00 0.000000000000e+00 0.000000000000e+00 0.000000000000e+00 0.000000000000e+00 0.000000000000e+00 7.625000000000e-04 4.642459909534e-06 0.000000000000e+00 0.000000000000e+00 0.000000000000e+00
279 2 1.275516524884e-02 1.822680133012e-03 1.342440507807e-03 0.000000000000e+00 0.000000000000e+00 0.000000000000e+00 0.000000000000e+00 0.000000000000e+00 0.000000000000e+00 7.625000000000e-04 4.642459909534e-06 0.000000000000e+00 0.000000000000e+00 0.000000000000e+00
280 2 1.095294469200e-02 7.422421182626e-03 1.721469610297e-03 0.000000000000e+00 0.000000000000e+00 0.000000000000e+00 0.000000000000e+00 0.000000000000e+00 0.000000000000e+00 7.625000000000e-04 4.642459909534e-06 0.000000000000e+00 0.000000000000e+00 0.000000000000e+00
281 2 1.021017230822e-02 4.602197581810e-03 4.684693434103e-03 0.000000000000e+00 0.000000000000e+00 0.000000000000e+00 0.000000000000e+00 0.000000000000e+00 0.000000000000e+00 7.625000000000e-04 4.642459909534e-06 0.000000000000e+00 0.000000000000e+00 0.000000000000e+00
282 2 8.131559885481e-03 6.815473670791e-03 6.020846227413e-03 0.000000000000e+00 0.000000000000e+00 0.000000000000e+00 0.000000000000e+00 0.000000000000e+00 0.000000000000e+00 7.625000000000e-04 4.642459909534e-06 0.000000000000e+00 0.000000000000e+00 0.000000000000e+00
283 2 7.764753672953e-03 5.527902415507e-03 7.396881558115e-03 0.000000000000e+00 0.000000000000e+00 0.000000000000e+00 0.000000000000e+00 0.000000000000e+00 0.000000000000e+00 7.625000000000e-04 4.642459909534e-06 0.000000000000e+00 0.000000000000e+00 0.000000000000e+00
284 2 1.304789780189e-02 3.175652601339e-03 6.567366946022e-03 0.000000000000e+00 0.000000000000e+00 0.000000000000e+00 0.000000000000e+00 0.000000000000e+00 0.000000000000e+00 7.625000000000e-04 4.642459909534e-06 0.000000000000e+00 0.000000000000e+00 0.000000000000e+00
285 2 1.275614009447e-02 2.836276133790e-03 5.399358607147e-03 0.000000000000e+00 0.000000000000e+00 0.000000000000e+00 0.000000000000e+00 0.000000000000e+00 0.000000000000e+00 7.625000000000e-04 4.642459909534e-06 0.000000000000e+00 0.000000000000e+00 0.000000000000e+00
286 2 1.420650626021e-02 5.235480337631e-03 3.157170876845e-03 -1.083062411172e-16 4.835702840387e-17 4.753530965126e-18 -8.438421153734e-14 -5.806189714116e-15 -1.863576096445e-12 7.625000000000e-04 4.642459909534e-06 1.083085741169e-19 -4.835807005142e-20 -4.753633359836e-21
287 2 1.172898294662e-02 6.286585856931e-04 6.474185209882e-03 0.000000000000e+00 0.000000000000e+00 0.000000000000e+00 0.000000000000e+00 0.000000000000e+00 0.000000000000e+00 7.625000000000e-04 4.642459909534e-06 0.000000000000e+00 0.000000000000e+00 0.000000000000e+00
288 2 1.472916002155e-02 5.002123676726e-03 3.134231747827e-03 1.083062411172e-16 -4.835702840387e-17 -4.753530965126e-18 -8.438421153734e-14 -5.806189714116e-15 -1.863576096445e-12 7.625000000000e-04 4.642459909534e-06 -1.083085741169e-19 4.835807005142e-20 4.753633359836e-21
289 2 1.481771315159e-02 5.662936837293e-03 4.032026563882e-03 -1.537405599230e-11 -7.653753822973e-12 8.623057304856e-12 2.504681884155e-13 -2.980995876167e-13 1.819692296115e-13 7.625000000000e-04 4.642459909534e-06 1.537438716128e-14 7.653918690712e-15 -8.623243052137e-15
290 2 1.523100929015e-02 5.025835507399e-03 7.597701371246e-03 0.000000000000e+00 0.000000000000e+00 0.000000000000e+00 0.000000000000e+00 0.000000000000e+00 0.000000000000e+00 7.625000000000e-04 4.642459909534e-06 0.000000000000e+00 0.000000000000e+00 0.000000000000e+00
291 2 1.246900338253e-02 3.308797937942e-03 1.259418439467e-03 0.000000000000e+00 0.000000000000e+00 0.000000000000e+00 0.000000000000e+00 0.000000000000e+00 0.000000000000e+00 7.625000000000e-04 4.642459909534e-06 0.000000000000e+00 0.000000000000e+00 0.000000000000e+00
292 2 9.138473459928e-03 3.109977502082e-05 5.863670641459e-03 3.271207956690e-07 -3.316283583197e-07 3.441228900221e-07 -1.110805627097e-13 6.168179516908e-14 1.650346320300e-13 7.625000000000e-04 4.642459909534e-06 -3.271278421023e-10 3.316355018494e-10 -3.441303026936e-10
293 2 1.362418418942e-02 5.321219946329e-03 7.439705556836e-03 0.000000000000e+00 0.000000000000e+00 0.000000000000e+00 0.000000000000e+00 0.000000000000e+00 0.000000000000e+00 7.625000000000e-04 4.642459909534e-06 0.000000000000e+00 0.000000000000e+00 0.000000000000e+00
294 2 1.437234884042e-02 6.545471549787e-03 3.016037878903e-03 0.000000000000e+00 0.000000000000e+00 0.000000000000e+00 0.000000000000e+00 0.000000000000e+00 0.000000000000e+00 7.625000000000e-04 4.642459909534e-06 0.000000000000e+00 0.000000000000e+00 0.000000000000e+00
295 2 1.303493412791e-02 4.840673393082e-04 5.147129564198e-03 0.000000000000e+00 0.000000000000e+00 0.000000000000e+00 0.000000000000e+00 0.000000000000e+00 0.000000000000e+00 7.625000000000e-04 4.642459909534e-06 0.000000000000e+00 0.000000000000e+00 0.000000000000e+00
296 2 9.418857909999e-03 5.799669005744e-04 3.361309839875e-03 0.000000000000e+00 0.000000000000e+00 0.000000000000e+00 0.000000000000e+00 0.000000000000e+00 0.000000000000e+00 7.625000000000e-04 4.642459909534e-06 0.000000000000e+00 0.000000000000e+00 0.000000000000e+00
297 2 9.581821223448e-03 3.531431396506e-03 6.900115561379e-03 0.000000000000e+00 0.000000000000e+00 0.000000000000e+00 0.000000000000e+00 0.000000000000e+00 0.000000000000e+00 7.625000000000e-04 4.642459909534e-06 0.000000000000e+00 0.000000000000e+00 0.000000000000e+00
298 2 1.338247728922e-02 2.491572569077e-03 4.064440213971e-03 5.838745549260e-18 9.255931349585e-17 7.409401226063e-17 -7.744591715301e-14 -7.658891000701e-13 9.628626409052e-13 7.625000000000e-04 4.642459909534e-06 -5.838871320326e-21 -9.256130729459e-20 -7.409560830259e-20
299 2 1.212438481651e-02 5.374290133713e-03 7.441695217170e-03 -4.212752285296e-13 4.971636738838e-13 3.377460670566e-13 -1.074150838680e-12 -1.249667844929e-12 4.997136409317e-13 7.625000000000e-04 4.642459909534e-06 4.212843031218e-16 -4.971743831714e-16 -3.377533423664e-16
300 2 5.803736308496e-06 5.941090137375e-03 3.718646763380e-03 1.537405599230e-11 7.653753822973e-12 -8.623057304856e-12 2.504681884155e-13 -2.980995876167e-13 1.819692296115e-13 7.625000000000e-04 4.642459909534e-06 -1.537438716128e-14 -7.653918690712e-15 8.623243052137e-15
301 2 1.375023093002e-02 2.641225426284e-03 1.822116203491e-03 0.000000000000e+00 0.000000000000e+00 0.000000000000e+00 0.000000000000e+00 0.000000000000e+00 0.000000000000e+00 7.625000000000e-04 4.642459909534e-06 0.000000000000e+00 0.000000000000e+00 0.000000000000e+00
302 2 1.345752571866e-02 1.747784676922e-03 2.702384348255e-03 0.000000000000e+00 0.000000000000e+00 0.000000000000e+00 0.000000000000e+00 0.000000000000e+00 0.000000000000e+00 7.625000000000e-04 4.642459909534e-06 0.000000000000e+00 0.000000000000e+00 0.000000000000e+00
303 2 1.370105234101e-02 6.110943960263e-03 1.296284035201e-03 0.000000000000e+00 0.000000000000e+00 0.000000000000e+00 0.000000000000e+00 0.000000000000e+00 0.000000000000e+00 7.625000000000e-04 4.642459909534e-06 0.000000000000e+00 0.000000000000e+00 0.000000000000e+00
304 2 1.122455177714e-02 7.244248519448e-03 4.003908691909e-03 0.000000000000e+00 0.000000000000e+00 0.000000000000e+00 0.000000000000e+00 0.000000000000e+00 0.000000000000e+00 7.625000000000e-04 4.642459909534e-06 0.000000000000e+00 0.000000000000e+00 0.000000000000e+00
305 2 1.343649135870e-02 1.747890658164e-03 4.193898468357e-03 0.000000000000e+00 0.000000000000e+00 0.000000000000e+00 0.000000000000e+00 0.000000000000e+00 0.000000000000e+00 7.625000000000e-04 4.642459909534e-06 0.000000000000e+00 0.000000000000e+00 0.000000000000e+00
306 2 1.290082478215e-02 5.991567581870e-03 7.320472481139e-03 0.000000000000e+00 0.000000000000e+00 0.000000000000e+00 0.000000000000e+00 0.000000000000e+00 0.000000000000e+00 7.625000000000e-04 4.642459909534e-06 0.000000000000e+00 0.000000000000e+00 0.000000000000e+00
307 2 1.531510681260e-02 4.354519331993e-03 6.956941041173e-03 0.000000000000e+00 0.000000000000e+00 0.000000000000e+00 0.000000000000e+00 0.000000000000e+00 0.000000000000e+00 7.625000000000e-04 4.642459909534e-06 0.000000000000e+00 0.000000000000e+00 0.000000000000e+00
308 2 1.015419511590e-02 1.402231987301e-03 4.708507951224e-03 0.000000000000e+00 0.000000000000e+00 0.000000000000e+00 0.000000000000e+00 0.000000000000e+00 0.000000000000e+00 7.625000000000e-04 4.642459909534e-06 0.000000000000e+00 0.000000000000e+00 0.000000000000e+00
309 2 1.335430123685e-02 2.044908804856e-03 3.706884510795e-03 -5.838745549260e-18 -9.255931349585e-17 -7.409401226063e-17 -7.744591715301e-14 -7.658891000701e-13 9.628626409052e-13 7.625000000000e-04 4.642459909534e-06 5.838871320326e-21 9.256130729459e-20 7.409560830259e-20
310 2 1.222560120780e-02 1.037229753457e-03 3.277162776615e-03 0.000000000000e+00 0.000000000000e+00 0.000000000000e+00 0.000000000000e+00 0.000000000000e+00 0.000000000000e+00 7.625000000000e-04 4.642459909534e-06 0.000000000000e+00 0.000000000000e+00 0.000000000000e+00
311 2 1.338370028877e-02 5.985180535358e-03 7.527592306577e-03 0.000000000000e+00 0.000000000000e+00 0.000000000000e+00 0.000000000000e+00 0.000000000000e+00 0.000000000000e+00 7.625000000000e-04 4.642459909534e-06 0.000000000000e+00 0.000000000000e+00 0.000000000000e+00
312 2 1.148046325999e-02 4.570874989112e-03 1.471570622435e-03 0.000000000000e+00 0.000000000000e+00 0.000000000000e+00 0.000000000000e+00 0.000000000000e+00 0.000000000000e+00 7.625000000000e-04 4.642459909534e-06 0.000000000000e+00 0.000000000000e+00 0.000000000000e+00
313 2 1.276534488068e-02 3.834772709869e-03 2.886513071800e-03 0.000000000000e+00 0.000000000000e+00 0.000000000000e+00 0.000000000000e+00 0.000000000000e+00 0.000000000000e+00 7.625000000000e-04 4.642459909534e-06 0.000000000000e+00 0.000000000000e+00 0.000000000000e+00
314 2 9.317385476079e-03 1.273201782030e-03 3.577083861960e-03 0.000000000000e+00 0.000000000000e+00 0.000000000000e+00 0.000000000000e+00 0.000000000000e+00 0.000000000000e+00 7.625000000000e-04 4.642459909534e-06 0.000000000000e+00 0.000000000000e+00 0.000000000000e+00
315 2 1.231356986924e-02 3.945608533248e-03 5.374208188900e-03 0.000000000000e+00 0.000000000000e+00 0.000000000000e+00 0.000000000000e+00 0.000000000000e+00 0.000000000000e+00 7.625000000000e-04 4.642459909534e-06 0.000000000000e+00 0.000000000000e+00 0.000000000000e+00
316 2 8.598697295676e-03 3.599686852542e-03 2.187380658375e-03 0.000000000000e+00 0.000000000000e+00 0.000000000000e+00 0.000000000000e+00 0.000000000000e+00 0.000000000000e+00 7.625000000000e-04 4.642459909534e-06 0.000000000000e+00 0.000000000000e+00 0.000000000000e+00
317 2 8.101389823587e-03 6.978182592039e-03 4.912103809053e-03 0.000000000000e+00 0.000000000000e+00 0.000000000000e+00 0.000000000000e+00 0.000000000000e+00 0.000000000000e+00 7.625000000000e-04 4.642459909534e-06 0.000000000000e+00 0.000000000000e+00 0.000000000000e+00
318 2 1.393971837741e-02 5.635407914152e-03 1.627560370610e-03 0.000000000000e+00 0.000000000000e+00 0.000000000000e+00 0.000000000000e+00 0.000000000000e+00 0.000000000000e+00 7.625000000000e-04 4.642459909534e-06 0.000000000000e+00 0.000000000000e+00 0.000000000000e+00
319 2 1.114291356063e-02 3.137215995365e-03 6.201120204024e-03 0.000000000000e+00 0.000000000000e+00 0.000000000000e+00 0.000000000000e+00 0.000000000000e+00 0.000000000000e+00 7.625000000000e-04 4.642459909534e-06 0.000000000000e+00 0.000000000000e+00 0.000000000000e+00
320 2 8.620968355320e-03 5.557358438227e-04 5.319268223280e-03 -3.271207956690e-07 3.316283583197e-07 -3.441228900221e-07 -1.110805627097e-13 6.168179516908e-14 1.650346320300e-13 7.625000000000e-04 4.642459909534e-06 3.271278421023e-10 -3.316355018494e-10 3.441303026936e-10
321 2 1.360409490700e-02 5.834609776734e-03 1.214304049190e-02 0.000000000000e+00 0.000000000000e+00 0.000000000000e+00 0.000000000000e+00 0.000000000000e+00 0.000000000000e+00 7.625000000000e-04 4.642459909534e-06 0.000000000000e+00 0.000000000000e+00 0.000000000000e+00
322 2 8.971682264035e-03 1.139165693375e-03 9.219776280045e-03 0.000000000000e+00 0.000000000000e+00 0.000000000000e+00 0.000000000000e+00 0.000000000000e+00 0.000000000000e+00 7.625000000000e-04 4.642459909534e-06 0.000000000000e+00 0.000000000000e+00 0.000000000000e+00
323 2 1.304907659359e-02 7.616970277553e-03 1.110996296146e-02 0.000000000000e+00 0.000000000000e+00 0.000000000000e+00 0.000000000000e+00 0.000000000000e+00 0.000000000000e+00 7.625000000000e-04 4.642459909534e-06 0.000000000000e+00 0.000000000000e+00 0.000000000000e+00
324 2 8.333461274332e-03 3.261887055492e-03 1.033781819372e-02 0.000000000000e+00 0.000000000000e+00 0.000000000000e+00 0.000000000000e+00 0.000000000000e+00 0.000000000000e+00 7.625000000000e-04 4.642459909534e-06 0.000000000000e+00 0.000000000000e+00 0.000000000000e+00
325 2 1.455144040614e-02 3.893050511826e-03 1.220209197612e-02 0.000000000000e+00 0.000000000000e+00 0.000000000000e+00 0.000000000000e+00 0.000000000000e+00 0.000000000000e+00 7.625000000000e-04 4.642459909534e-06 0.000000000000e+00 0.000000000000e+00 0.000000000000e+00
326 2 1.058761807983e-02 2.612240655115e-04 9.424257824072e-03 0.000000000000e+00 0.000000000000e+00 0.000000000000e+00 0.000000000000e+00 0.000000000000e+00 0.000000000000e+00 7.625000000000e-04 4.642459909534e-06 0.000000000000e+00 0.000000000000e+00 0.000000000000e+00
327 2 1.516671267894e-02 8.588557251338e-04 1.106461170151e-02 -7.974514775375e-18 -3.472905088827e-17 1.132322403548e-16 7.045170744282e-14 1.347217922848e-12 4.181619813738e-13 7.625000000000e-04 4.642459909534e-06 7.974686552551e-21 3.472979897872e-20 -1.132346794642e-19
328 2 1.087957950428e-02 4.024472728129e-03 8.385288662630e-03 0.000000000000e+00 0.000000000000e+00 0.000000000000e+00 0.000000000000e+00 0.000000000000e+00 0.000000000000e+00 7.625000000000e-04 4.642459909534e-06 0.000000000000e+00 0.000000000000e+00 0.000000000000e+00
329 2 1.517960175965e-02 1.775003397050e-03 1.251332857798e-02 0.000000000000e+00 0.000000000000e+00 0.000000000000e+00 0.000000000000e+00 0.000000000000e+00 0.000000000000e+00 7.625000000000e-04 4.642459909534e-06 0.000000000000e+00 0.000000000000e+00 0.000000000000e+00
330 2 1.453423384644e-02 6.744457584829e-03 1.049409537727e-02 0.000000000000e+00 0.000000000000e+00 0.000000000000e+00 0.000000000000e+00 0.000000000000e+00 0.000000000000e+00 7.625000000000e-04 4.642459909534e-06 0.000000000000e+00 0.000000000000e+00 0.000000000000e+00
331 2 1.218441446763e-02 7.471701984131e-03 1.195820914785e-02 -5.569738454885e-17 3.927064413256e-17 9.719494833010e-17 5.314589900231e-14 -1.105992293779e-12 4.773202532992e-13 7.625000000000e-04 4.642459909534e-06 5.569858431331e-20 -3.927149005241e-20 -9.719704198398e-20
332 2 1.335283587517e-02 4.170511445857e-03 1.323091920023e-02 5.372628211832e-15 -5.707212114424e-14 -5.009060627649e-14 4.333787169399e-14 -4.203227782941e-13 4.835547539772e-13 7.625000000000e-04 4.642459909534e-06 -5.372743942372e-18 5.707335052159e-17 5.009168526664e-17
333 2 1.249008274892e-02 4.065114849068e-03 1.404931282604e-02 0.000000000000e+00 0.000000000000e+00 0.000000000000e+00 0.000000000000e+00 0.000000000000e+00 0.000000000000e+00 7.625000000000e-04 4.642459909534e-06 0.000000000000e+00 0.000000000000e+00 0.000000000000e+00
334 2 1.467671768584e-02 3.651361215003e-03 8.664699068483e-03 0.000000000000e+00 0.000000000000e+00 0.000000000000e+00 0.000000000000e+00 0.000000000000e+00 0.000000000000e+00 7.625000000000e-04 4.642459909534e-06 0.000000000000e+00 0.000000000000e+00 0.000000000000e+00
335 2 1.207659281898e-02 2.066665551712e-03 1.145275619016e-02 0.000000000000e+00 0.000000000000e+00 0.000000000000e+00 0.000000000000e+00 0.000000000000e+00 0.000000000000e+00 7.625000000000e-04 4.642459909534e-06 0.000000000000e+00 0.000000000000e+00 0.000000000000e+00
336 2 1.282663640210e-02 4.128860315447e-03 1.021895994253e-02 0.000000000000e+00 0.000000000000e+00 0.000000000000e+00 0.000000000000e+00 0.000000000000e+00 0.000000000000e+00 7.625000000000e-04 4.642459909534e-06 0.000000000000e+00 0.000000000000e+00 0.000000000000e+00
337 2 1.233096706920e-02 4.298292385537e-03 1.363319292745e-02 0.000000000000e+00 0.000000000000e+00 0.000000000000e+00 0.000000000000e+00 0.000000000000e+00 0.000000000000e+00 7.625000000000e-04 4.642459909534e-06 0.000000000000e+00 0.000000000000e+00 0.000000000000e+00
338 2 1.126619370195e-02 7.089077944424e-05 7.883899336949e-03 0.000000000000e+00 0.000000000000e+00 0.000000000000e+00 0.000000000000e+00 0.000000000000e+00 0.000000000000e+00 7.625000000000e-04 4.642459909534e-06 0.000000000000e+00 0.000000000000e+00 0.000000000000e+00
339 2 1.255139685944e-02 4.738857455968e-03 1.022625795053e-02 0.000000000000e+00 0.000000000000e+00 0.000000000000e+00 0.000000000000e+00 0.000000000000e+00 0.000000000000e+00 7.625000000000e-04 4.642459909534e-06 0.000000000000e+00 0.000000000000e+00 0.000000000000e+00
340 2 1.396074683959e-02 5.536177813426e-03 8.023976400660e-03 0.000000000000e+00 0.000000000000e+00 0.000000000000e+00 0.000000000000e+00 0.000000000000e+00 0.000000000000e+00 7.625000000000e-04 4.642459909534e-06 0.000000000000e+00 0.000000000000e+00 0.000000000000e+00
341 2 1.479008086876e-02 2.987695923343e-03 1.273264388848e-02 0.000000000000e+00 0.000000000000e+00 0.000000000000e+00 0.000000000000e+00 0.000000000000e+00 0.000000000000e+00 7.625000000000e-04 4.642459909534e-06 0.000000000000e+00 0.000000000000e+00 0.000000000000e+00
342 2 1.154699470819e-02 7.086049673746e-04 1.184465540187e-02 0.000000000000e+00 0.000000000000e+00 0.000000000000e+00 0.000000000000e+00 0.000000000000e+00 0.000000000000e+00 7.625000000000e-04 4.642459909534e-06 0.000000000000e+00 0.000000000000e+00 0.000000000000e+00
343 2 1.434925826398e-02 2.728016269436e-03 1.342284030364e-02 0.000000000000e+00 0.000000000000e+00 0.000000000000e+00 0.000000000000e+00 0.000000000000e+00 0.000000000000e+00 7.625000000000e-04 4.642459909534e-06 0.000000000000e+00 0.000000000000e+00 0.000000000000e+00
344 2 1.217084074915e-02 2.916272317422e-03 1.147071049345e-02 0.000000000000e+00 0.000000000000e+00 0.000000000000e+00 0.000000000000e+00 0.000000000000e+00 0.000000000000e+00 7.625000000000e-04 4.642459909534e-06 0.000000000000e+00 0.000000000000e+00 0.000000000000e+00
345 2 1.328800673836e-02 5.211456243380e-03 1.067518927903e-02 1.798131704593e-11 -2.049897582215e-11 1.570635179255e-11 1.851543562509e-12 1.155792808994e-12 -6.112573499981e-13 7.625000000000e-04 4.642459909534e-06 -1.798170437732e-14 2.049941738584e-14 -1.570669011944e-14
346 2 7.734673087084e-03 7.194434901879e-03 1.084292255521e-02 0.000000000000e+00 0.000000000000e+00 0.000000000000e+00 0.000000000000e+00 0.000000000000e+00 0.000000000000e+00 7.625000000000e-04 4.642459909534e-06 0.000000000000e+00 0.000000000000e+00 0.000000000000e+00
347 2 1.005371713203e-02 3.438554329808e-03 1.261074119810e-02 0.000000000000e+00 0.000000000000e+00 0.000000000000e+00 0.000000000000e+00 0.000000000000e+00 0.000000000000e+00 7.625000000000e-04 4.642459909534e-06 0.000000000000e+00 0.000000000000e+00 0.000000000000e+00
348 2 1.520519531944e-02 1.026447812972e-03 1.051818653048e-02 7.974514775375e-18 3.472905088827e-17 -1.132322403548e-16 7.045170744282e-14 1.347217922848e-12 4.181619813738e-13 7.625000000000e-04 4.642459909534e-06 -7.974686552551e-21 -3.472979897872e-20 1.132346794642e-19
349 2 1.360909972443e-02 5.414418433937e-03 1.263555493483e-02 -7.348013668931e-13 -1.113707489170e-12 -1.555114590331e-13 5.774287214240e+01 -8.982911483928e+00 -2.183034824081e+02 7.625000000000e-04 4.642459909534e-06 7.348171950792e-16 1.113731479286e-15 1.555148088695e-16
350 2 1.286143787364e-02 4.953080726396e-03 1.334290649790e-02 0.000000000000e+00 0.000000000000e+00 0.000000000000e+00 0.000000000000e+00 0.000000000000e+00 0.000000000000e+00 7.625000000000e-04 4.642459909534e-06 0.000000000000e+00 0.000000000000e+00 0.000000000000e+00
351 2 7.828495675098e-03 8.953160311565e-04 1.389064744586e-02 0.000000000000e+00 0.000000000000e+00 0.000000000000e+00 0.000000000000e+00 0.000000000000e+00 0.000000000000e+00 7.625000000000e-04 4.642459909534e-06 0.000000000000e+00 0.000000000000e+00 0.000000000000e+00
352 2 1.035194928630e-02 4.999517538364e-03 1.046336803316e-02 0.000000000000e+00 0.000000000000e+00 0.000000000000e+00 0.000000000000e+00 0.000000000000e+00 0.000000000000e+00 7.625000000000e-04 4.642459909534e-06 0.000000000000e+00 0.000000000000e+00 0.000000000000e+00
353 2 1.385190532739e-02 5.342390155827e-03 9.351478635291e-03 0.000000000000e+00 0.000000000000e+00 0.000000000000e+00 0.000000000000e+00 0.000000000000e+00 0.000000000000e+00 7.625000000000e-04 4.642459909534e-06 0.000000000000e+00 0.000000000000e+00 0.000000000000e+00
354 2 1.059504658691e-02 2.147066463874e-03 1.034937126890e-02 0.000000000000e+00 0.000000000000e+00 0.000000000000e+00 0.000000000000e+00 0.000000000000e+00 0.000000000000e+00 7.625000000000e-04 4.642459909534e-06 0.000000000000e+00 0.000000000000e+00 0.000000000000e+00
355 2 1.153636224936e-02 6.456483630374e-03 1.197756646724e-02 0.000000000000e+00 0.000000000000e+00 0.000000000000e+00 0.000000000000e+00 0.000000000000e+00 0.000000000000e+00 7.625000000000e-04 4.642459909534e-06 0.000000000000e+00 0.000000000000e+00 0.000000000000e+00
356 2 1.079430267479e-02 2.458098964918e-04 1.129561281081e-02 0.000000000000e+00 0.000000000000e+00 0.000000000000e+00 0.000000000000e+00 0.000000000000e+00 0.000000000000e+00 7.625000000000e-04 4.642459909534e-06 0.000000000000e+00 0.000000000000e+00 0.000000000000e+00
357 2 1.248293566079e-02 6.909080860715e-03 1.058552094616e-02 0.000000000000e+00 0.000000000000e+00 0.000000000000e+00 0.000000000000e+00 0.000000000000e+00 0.000000000000e+00 7.625000000000e-04 4.642459909534e-06 0.000000000000e+00 0.000000000000e+00 0.000000000000e+00
358 2 1.082667183136e-02 6.302016209080e-03 1.323634484567e-02 0.000000000000e+00 0.000000000000e+00 0.000000000000e+00 0.000000000000e+00 0.000000000000e+00 0.000000000000e+00 7.625000000000e-04 4.642459909534e-06 0.000000000000e+00 0.000000000000e+00 0.000000000000e+00
359 2 1.022407019465e-02 7.624456968032e-03 1.350791414954e-02 0.000000000000e+00 0.000000000000e+00 0.000000000000e+00 0.000000000000e+00 0.000000000000e+00 0.000000000000e+00 7.625000000000e-04 4.642459909534e-06 0.000000000000e+00 0.000000000000e+00 0.000000000000e+00
360 2 1.505454020728e-02 5.642422015753e-03 1.024522402825e-02 0.000000000000e+00 0.000000000000e+00 0.000000000000e+00 0.000000000000e+00 0.000000000000e+00 0.000000000000e+00 7.625000000000e-04 4.642459909534e-06 0.000000000000e+00 0.000000000000e+00 0.000000000000e+00
361 2 1.288487962986e-02 5.671027298683e-03 1.032306511776e-02 -1.798131704593e-11 2.049897582215e-11 -1.570635179255e-11 1.851543562509e-12 1.155792808994e-12 -6.112573499981e-13 7.625000000000e-04 4.642459909534e-06 1.798170437732e-14 -2.049941738584e-14 1.570669011944e-14
362 2 1.443973832370e-02 1.733562541000e-03 8.479037556065e-03 0.000000000000e+00 0.000000000000e+00 0.000000000000e+00 0.000000000000e+00 0.000000000000e+00 0.000000000000e+00 7.625000000000e-04 4.642459909534e-06 0.000000000000e+00 0.000000000000e+00 0.000000000000e+00
363 2 8.063864540348e-03 6.486762536514e-03 1.337312805069e-02 0.000000000000e+00 0.000000000000e+00 0.000000000000e+00 0.000000000000e+00 0.000000000000e+00 0.000000000000e+00 7.625000000000e-04 4.642459909534e-06 0.000000000000e+00 0.000000000000e+00 0.000000000000e+00
364 2 1.245319350779e-02 7.282193515787e-03 1.148917518633e-02 5.569738454885e-17 -3.927064413256e-17 -9.719494833010e-17 5.314589900231e-14 -1.105992293779e-12 4.773202532992e-13 7.625000000000e-04 4.642459909534e-06 -5.569858431331e-20 3.927149005241e-20 9.719704198398e-20
365 2 1.337605719955e-02 4.928562169555e-04 1.300061888072e-02 0.000000000000e+00 0.000000000000e+00 0.000000000000e+00 0.000000000000e+00 0.000000000000e+00 0.000000000000e+00 7.625000000000e-04 4.642459909534e-06 0.000000000000e+00 0.000000000000e+00 0.000000000000e+00
366 2 1.209417406714e-02 5.512647472443e-03 1.150908365202e-02 0.000000000000e+00 0.000000000000e+00 0.000000000000e+00 0.000000000000e+00 0.000000000000e+00 0.000000000000e+00 7.625000000000e-04 4.642459909534e-06 0.000000000000e+00 0.000000000000e+00 0.000000000000e+00
367 2 1.438601954034e-02 5.749407299452e-03 1.002535563885e-02 0.000000000000e+00 0.000000000000e+00 0.000000000000e+00 0.000000000000e+00 0.000000000000e+00 0.000000000000e+00 7.625000000000e-04 4.642459909534e-06 0.000000000000e+00 0.000000000000e+00 0.000000000000e+00
368 2 7.784946639054e-03 6.757124229322e-03 8.567691886927e-03 0.000000000000e+00 0.000000000000e+00 0.000000000000e+00 0.000000000000e+00 0.000000000000e+00 0.000000000000e+00 7.625000000000e-04 4.642459909534e-06 0.000000000000e+00 0.000000000000e+00 0.000000000000e+00
369 2 9.980696471021e-03 5.831066423045e-03 1.375862164715e-02 0.000000000000e+00 0.000000000000e+00 0.000000000000e+00 0.000000000000e+00 0.000000000000e+00 0.000000000000e+00 7.625000000000e-04 4.642459909534e-06 0.000000000000e+00 0.000000000000e+00 0.000000000000e+00
370 2 1.076270365907e-02 7.133361026008e-03 1.365967578267e-02 0.000000000000e+00 0.000000000000e+00 0.000000000000e+00 0.000000000000e+00 0.000000000000e+00 0.000000000000e+00 7.625000000000e-04 4.642459909534e-06 0.000000000000e+00 0.000000000000e+00 0.000000000000e+00
371 2 1.515307101933e-02 1.621251955742e-03 1.097772964280e-02 0.000000000000e+00 0.000000000000e+00 0.000000000000e+00 0.000000000000e+00 0.000000000000e+00 0.000000000000e+00 7.625000000000e-04 4.642459909534e-06 0.000000000000e+00 0.000000000000e+00 0.000000000000e+00
372 2 1.330829054586e-02 4.643705631511e-03 1.364622851711e-02 -5.372628211832e-15 5.707212114424e-14 5.009060627649e-14 4.333787169399e-14 -4.203227782941e-13 4.835547539772e-13 7.625000000000e-04 4.642459909534e-06 5.372743942372e-18 -5.707335052159e-17 -5.009168526664e-17
373 2 1.333135536072e-02 2.350142464445e-03 1.103388830178e-02 0.000000000000e+00 0.000000000000e+00 0.000000000000e+00 0.000000000000e+00 0.000000000000e+00 0.000000000000e+00 7.625000000000e-04 4.642459909534e-06 0.000000000000e+00 0.000000000000e+00 0.000000000000e+00
374 2 8.753221118145e-03 3.044337124975e-03 1.188636179548e-02 0.000000000000e+00 0.000000000000e+00 0.000000000000e+00 0.000000000000e+00 0.000000000000e+00 0.000000000000e+00 7.625000000000e-04 4.642459909534e-06 0.000000000000e+00 0.000000000000e+00 0.000000000000e+00
375 2 7.970646826302e-03 7.581363650616e-03 1.195917822098e-02 0.000000000000e+00 0.000000000000e+00 0.000000000000e+00 0.000000000000e+00 0.000000000000e+00 0.000000000000e+00 7.625000000000e-04 4.642459909534e-06 0.000000000000e+00 0.000000000000e+00 0.000000000000e+00
376 2 1.235099143301e-02 2.693815463246e-03 8.315433740240e-03 0.000000000000e+00 0.000000000000e+00 0.000000000000e+00 0.000000000000e+00 0.000000000000e+00 0.000000000000e+00 7.625000000000e-04 4.642459909534e-06 0.000000000000e+00 0.000000000000e+00 0.000000000000e+00
377 2 1.151597371147e-02 1.940286767088e-03 9.023874351338e-03 0.000000000000e+00 0.000000000000e+00 0.000000000000e+00 0.000000000000e+00 0.000000000000e+00 0.000000000000e+00 7.625000000000e-04 4.642459909534e-06 0.000000000000e+00 0.000000000000e+00 0.000000000000e+00
378 2 1.371469829026e-02 4.898895237631e-03 1.013746119955e-02 0.000000000000e+00 0.000000000000e+00 0.000000000000e+00 0.000000000000e+00 0.000000000000e+00 0.000000000000e+00 7.625000000000e-04 4.642459909534e-06 0.000000000000e+00 0.000000000000e+00 0.000000000000e+00
379 2 1.159307783183e-02 6.695937930450e-03 9.802273689756e-03 0.000000000000e+00 0.000000000000e+00 0.000000000000e+00 0.000000000000e+00 0.000000000000e+00 0.000000000000e+00 7.625000000000e-04 4.642459909534e-06 0.000000000000e+00 0.000000000000e+00 0.000000000000e+00
380 2 1.505174104132e-02 4.708743330011e-03 1.114971021682e-02 0.000000000000e+00 0.000000000000e+00 0.000000000000e+00 0.000000000000e+00 0.000000000000e+00 0.000000000000e+00 7.625000000000e-04 4.642459909534e-06 0.000000000000e+00 0.000000000000e+00 0.000000000000e+00
381 2 8.002375450196e-03 2.872137224504e-03 8.131308337014e-03 0.000000000000e+00 0.000000000000e+00 0.000000000000e+00 0.000000000000e+00 0.000000000000e+00 0.000000000000e+00 7.625000000000e-04 4.642459909534e-06 0.000000000000e+00 0.000000000000e+00 0.000000000000e+00
382 2 8.439071714984e-03 1.063359323960e-02 4.962826505906e-03 0.000000000000e+00 0.000000000000e+00 0.000000000000e+00 0.000000000000e+00 0.000000000000e+00 0.000000000000e+00 7.625000000000e-04 4.642459909534e-06 0.000000000000e+00 0.000000000000e+00 0.000000000000e+00
383 2 9.515911258897e-03 1.219655502449e-02 2.653663049851e-03 6.346246619517e-16 -8.766408206156e-16 -8.231472345424e-16 -1.035915281680e-12 -4.349689554819e-13 -3.354270436497e-13 7.625000000000e-04 4.642459909534e-06 -6.346383322546e-19 8.766597041325e-19 8.231649657664e-19
384 2 1.345167403954e-02 1.099305535355e-02 5.649775732643e-03 0.000000000000e+00 0.000000000000e+00 0.000000000000e+00 0.000000000000e+00 0.000000000000e+00 0.000000000000e+00 7.625000000000e-04 4.642459909534e-06 0.000000000000e+00 0.000000000000e+00 0.000000000000e+00
385 2 1.036145806625e-02 1.110723693325e-02 3.741027243370e-03 0.000000000000e+00 0.000000000000e+00 0.000000000000e+00 0.000000000000e+00 0.000000000000e+00 0.000000000000e+00 7.625000000000e-04 4.642459909534e-06 0.000000000000e+00 0.000000000000e+00 0.000000000000e+00
386 2 7.830158214238e-03 1.346697683772e-02 7.016339954263e-03 0.000000000000e+00 0.000000000000e+00 0.000000000000e+00 0.000000000000e+00 0.000000000000e+00 0.000000000000e+00 7.625000000000e-04 4.642459909534e-06 0.000000000000e+00 0.000000000000e+00 0.000000000000e+00
387 2 1.094327668610e-02 1.400922567469e-02 6.003087199658e-03 0.000000000000e+00 0.000000000000e+00 0.000000000000e+00 0.000000000000e+00 0.000000000000e+00 0.000000000000e+00 7.625000000000e-04 4.642459909534e-06 0.000000000000e+00 0.000000000000e+00 0.000000000000e+00
388 2 9.331910603691e-03 1.483750374933e-02 1.878897272515e-03 0.000000000000e+00 0.000000000000e+00 0.000000000000e+00 0.000000000000e+00 0.000000000000e+00 0.000000000000e+00 7.625000000000e-04 4.642459909534e-06 0.000000000000e+00 0.000000000000e+00 0.000000000000e+00
389 2 9.808001707504e-03 8.400100357164e-03 2.262050834957e-03 0.000000000000e+00 0.000000000000e+00 0.000000000000e+00 0.000000000000e+00 0.000000000000e+00 0.000000000000e+00 7.625000000000e-04 4.642459909534e-06 0.000000000000e+00 0.000000000000e+00 0.000000000000e+00
390 2 9.104822747846e-03 1.008927164514e-02 2.546648155009e-03 0.000000000000e+00 0.000000000000e+00 0.000000000000e+00 0.000000000000e+00 0.000000000000e+00 0.000000000000e+00 7.625000000000e-04 4.642459909534e-06 0.000000000000e+00 0.000000000000e+00 0.000000000000e+00
391 2 1.322212400044e-02 1.097481285172e-02 6.328836695682e-03 0.000000000000e+00 0.000000000000e+00 0.000000000000e+00 0.000000000000e+00 0.000000000000e+00 0.000000000000e+00 7.625000000000e-04 4.642459909534e-06 0.000000000000e+00 0.000000000000e+00 0.000000000000e+00
392 2 1.057725995402e-02 1.061981783963e-02 4.155929261999e-03 0.000000000000e+00 0.000000000000e+00 0.000000000000e+00 0.000000000000e+00 0.000000000000e+00 0.000000000000e+00 7.625000000000e-04 4.642459909534e-06 0.000000000000e+00 0.000000000000e+00 0.000000000000e+00
393 2 1.434052880081e-02 9.718274123906e-03 6.835797145658e-03 0.000000000000e+00 0.000000000000e+00 0.000000000000e+00 0.000000000000e+00 0.000000000000e+00 0.000000000000e+00 7.625000000000e-04 4.642459909534e-06 0.000000000000e+00 0.000000000000e+00 0.000000000000e+00
394 2 1.477602807951e-02 1.273261936603e-02 7.245350135794e-03 0.000000000000e+00 0.000000000000e+00 0.000000000000e+00 0.000000000000e+00 0.000000000000e+00 0.000000000000e+00 7.625000000000e-04 4.642459909534e-06 0.000000000000e+00 0.000000000000e+00 0.000000000000e+00
395 2 1.004524720732e-02 1.479087492286e-02 2.056142950058e-03 0.000000000000e+00 0.000000000000e+00 0.000000000000e+00 0.000000000000e+00 0.000000000000e+00 0.000000000000e+00 7.625000000000e-04 4.642459909534e-06 0.000000000000e+00 0.000000000000e+00 0.000000000000e+00
396 2 1.052076322672e-02 1.405866232771e-02 6.729543126410e-03 0.000000000000e+00 0.000000000000e+00 0.000000000000e+00 0.000000000000e+00 0.000000000000e+00 0.000000000000e+00 7.625000000000e-04 4.642459909534e-06 0.000000000000e+00 0.000000000000e+00 0.000000000000e+00
397 2 1.329897563966e-02 1.148701339035e-02 7.165453129260e-03 0.000000000000e+00 0.000000000000e+00 0.000000000000e+00 0.000000000000e+00 0.000000000000e+00 0.000000000000e+00 7.625000000000e-04 4.642459909534e-06 0.000000000000e+00 0.000000000000e+00 0.000000000000e+00
398 2 9.840193085857e-03 1.146838812639e-02 2.457757787799e-03 0.000000000000e+00 0.000000000000e+00 0.000000000000e+00 0.000000000000e+00 0.000000000000e+00 0.000000000000e+00 7.625000000000e-04 4.642459909534e-06 0.000000000000e+00 0.000000000000e+00 0.000000000000e+00
399 2 1.232755624396e-02 8.455090600505e-03 3.922477206376e-03 0.000000000000e+00 0.000000000000e+00 0.000000000000e+00 0.000000000000e+00 0.000000000000e+00 0.000000000000e+00 7.625000000000e-04 4.642459909534e-06 0.000000000000e+00 0.000000000000e+00 0.000000000000e+00
400 2 8.670378027967e-03 9.428261868222e-03 5.374752978989e-03 0.000000000000e+00 0.000000000000e+00 0.000000000000e+00 0.000000000000e+00 0.000000000000e+00 0.000000000000e+00 7.625000000000e-04 4.642459909534e-06 0.000000000000e+00 0.000000000000e+00 0.000000000000e+00
401 3 1.129636048570e-02 1.522372069091e-02 5.848256039165e-03 0.000000000000e+00 0.000000000000e+00 0.000000000000e+00 0.000000000000e+00 0.000000000000e+00 0.000000000000e+00 9.531250000000e-04 9.067304510808e-06 0.000000000000e+00 0.000000000000e+00 0.000000000000e+00
402 3 1.110591267232e-02 1.145930153930e-02 3.285125297997e-03 0.000000000000e+00 0.000000000000e+00 0.000000000000e+00 0.000000000000e+00 0.000000000000e+00 0.000000000000e+00 9.531250000000e-04 9.067304510808e-06 0.000000000000e+00 0.000000000000e+00 0.000000000000e+00
403 3 1.079018551788e-02 7.901926361192e-03 5.766757757677e-03 0.000000000000e+00 0.000000000000e+00 0.000000000000e+00 0.000000000000e+00 0.000000000000e+00 0.000000000000e+00 9.531250000000e-04 9.067304510808e-06 0.000000000000e+00 0.000000000000e+00 0.000000000000e+00
404 3 1.484454945849e-02 1.157384692805e-02 6.496399177245e-03 0.000000000000e+00 0.000000000000e+00 0.000000000000e+00 0.000000000000e+00 0.000000000000e+00 0.000000000000e+00 9.531250000000e-04 9.067304510808e-06 0.000000000000e+00 0.000000000000e+00 0.000000000000e+00
405 3 8.031464613642e-03 1.528403711618e-02 5.242248544863e-03 0.000000000000e+00 0.000000000000e+00 0.000000000000e+00 0.000000000000e+00 0.000000000000e+00 0.000000000000e+00 9.531250000000e-04 9.067304510808e-06 0.000000000000e+00 0.000000000000e+00 0.000000000000e+00
406 3 9.545509123748e-03 8.059352553747e-03 7.535983089223e-03 0.000000000000e+00 0.000000000000e+00 0.000000000000e+00 0.000000000000e+00 0.000000000000e+00 0.000000000000e+00 9.531250000000e-04 9.067304510808e-06 0.000000000000e+00 0.000000000000e+00 0.000000000000e+00
407 3 9.804754731967e-03 1.531072059060e-02 7.520477341661e-03 0.000000000000e+00 0.000000000000e+00 0.000000000000e+00 0.000000000000e+00 0.000000000000e+00 0.000000000000e+00 9.531250000000e-04 9.067304510808e-06 0.000000000000e+00 0.000000000000e+00 0.000000000000e+00
408 3 1.007636880283e-02 1.524995707865e-02 1.834464980619e-03 0.000000000000e+00 0.000000000000e+00 0.000000000000e+00 0.000000000000e+00 0.000000000000e+00 0.000000000000e+00 9.531250000000e-04 9.067304510808e-06 0.000000000000e+00 0.000000000000e+00 0.000000000000e+00
409 3 1.174046344148e-02 9.133721578800e-03 4.542149648803e-03 0.000000000000e+00 0.000000000000e+00 0.000000000000e+00 0.000000000000e+00 0.000000000000e+00 0.000000000000e+00 9.531250000000e-04 9.067304510808e-06 0.000000000000e+00 0.000000000000e+00 0.000000000000e+00
410 3 8.710110349620e-03 1.498222247547e-02 7.477152609897e-03 3.199660832758e-09 1.443782346736e-09 -3.104175124578e-09 3.651368347191e-13 -1.725670430147e-13 2.961059674234e-13 9.531250000000e-04 9.067304510808e-06 -3.199696121042e-12 -1.443798269862e-12 3.104209359773e-12
411 3 1.505404201599e-02 1.263995555017e-02 3.086500953145e-03 0.000000000000e+00 0.000000000000e+00 0.000000000000e+00 0.000000000000e+00 0.000000000000e+00 0.000000000000e+00 9.531250000000e-04 9.067304510808e-06 0.000000000000e+00 0.000000000000e+00 0.000000000000e+00
412 3 9.975715638920e-03 1.434202842072e-02 4.751067409195e-03 0.000000000000e+00 0.000000000000e+00 0.000000000000e+00 0.000000000000e+00 0.000000000000e+00 0.000000000000e+00 9.531250000000e-04 9.067304510808e-06 0.000000000000e+00 0.000000000000e+00 0.000000000000e+00
413 3 1.316746798416e-02 1.460921846362e-02 6.792340332424e-03 0.000000000000e+00 0.000000000000e+00 0.000000000000e+00 0.000000000000e+00 0.000000000000e+00 0.000000000000e+00 9.531250000000e-04 9.067304510808e-06 0.000000000000e+00 0.000000000000e+00 0.000000000000e+00
414 3 1.121564784253e-02 1.130216470338e-02 5.588125355347e-03 0.000000000000e+00 0.000000000000e+00 0.000000000000e+00 0.000000000000e+00 0.000000000000e+00 0.000000000000e+00 9.531250000000e-04 9.067304510808e-06 0.000000000000e+00 0.000000000000e+00 0.000000000000e+00
415 3 7.800854210988e-03 1.281489888107e-02 6.838985161677e-03 0.000000000000e+00 0.000000000000e+00 0.000000000000e+00 0.000000000000e+00 0.000000000000e+00 0.000000000000e+00 9.531250000000e-04 9.067304510808e-06 0.000000000000e+00 0.000000000000e+00 0.000000000000e+00
416 3 8.875179668281e-03 8.507298039956e-03 5.031355236407e-03 0.000000000000e+00 0.000000000000e+00 0.000000000000e+00 0.000000000000e+00 0.000000000000e+00 0.000000000000e+00 9.531250000000e-04 9.067304510808e-06 0.000000000000e+00 0.000000000000e+00 0.000000000000e+00
417 3 8.291150909718e-03 1.457141145366e-02 2.416001823139e-03 0.000000000000e+00 0.000000000000e+00 0.000000000000e+00 0.000000000000e+00 0.000000000000e+00 0.000000000000e+00 9.531250000000e-04 9.067304510808e-06 0.000000000000e+00 0.000000000000e+00 0.000000000000e+00
418 3 1.325854078588e-02 8.206344815310e-03 4.041530097811e-03 0.000000000000e+00 0.000000000000e+00 0.000000000000e+00 0.000000000000e+00 0.000000000000e+00 0.000000000000e+00 9.531250000000e-04 9.067304510808e-06 0.000000000000e+00 0.000000000000e+00 0.000000000000e+00
419 3 8.072376221969e-03 1.120688485359e-02 3.224744715108e-03 0.000000000000e+00 0.000000000000e+00 0.000000000000e+00 0.000000000000e+00 0.000000000000e+00 0.000000000000e+00 9.531250000000e-04 9.067304510808e-06 0.000000000000e+00 0.000000000000e+00 0.000000000000e+00
420 3 1.236427026608e-02 4.906101659329e-03 1.082727097196e-03 4.233266208109e-06 -6.532033004037e-06 4.487689083721e-06 3.231319708349e+03 2.089173695898e+03 -3.845390922422e+02 9.531250000000e-04 9.067304510808e-06 -4.233312895776e-09 6.532105044245e-09 -4.487738577356e-09
421 3 1.250864766076e-02 8.672897764755e-03 5.994081234954e-03 0.000000000000e+00 0.000000000000e+00 0.000000000000e+00 0.000000000000e+00 0.000000000000e+00 0.000000000000e+00 9.531250000000e-04 9.067304510808e-06 0.000000000000e+00 0.000000000000e+00 0.000000000000e+00
422 3 1.137586169892e-02 1.415540804975e-02 3.981429482572e-03 0.000000000000e+00 0.000000000000e+00 0.000000000000e+00 0.000000000000e+00 0.000000000000e+00 0.000000000000e+00 9.531250000000e-04 9.067304510808e-06 0.000000000000e+00 0.000000000000e+00 0.000000000000e+00
423 3 8.525215311712e-03 1.360937852322e-02 3.270146102741e-03 0.000000000000e+00 0.000000000000e+00 0.000000000000e+00 0.000000000000e+00 0.000000000000e+00 0.000000000000e+00 9.531250000000e-04 9.067304510808e-06 0.000000000000e+00 0.000000000000e+00 0.000000000000e+00
424 3 1.494588066759e-02 8.507046510759e-03 1.491489685746e-03 0.000000000000e+00 0.000000000000e+00 0.000000000000e+00 0.000000000000e+00 0.000000000000e+00 0.000000000000e+00 9.531250000000e-04 9.067304510808e-06 0.000000000000e+00 0.000000000000e+00 0.000000000000e+00
425 3 8.957628995234e-03 1.087602928654e-02 6.138881824540e-03 0.000000000000e+00 0.000000000000e+00 0.000000000000e+00 0.000000000000e+00 0.000000000000e+00 0.000000000000e+00 9.531250000000e-04 9.067304510808e-06 0.000000000000e+00 0.000000000000e+00 0.000000000000e+00
426 3 1.005424431839e-02 1.229897547125e-02 5.091532266939e-03 0.000000000000e+00 0.000000000000e+00 0.000000000000e+00 0.000000000000e+00 0.000000000000e+00 0.000000000000e+00 9.531250000000e-04 9.067304510808e-06 0.000000000000e+00 0.000000000000e+00 0.000000000000e+00
427 3 1.221972127799e-02 9.807691085908e-03 3.912347229662e-03 0.000000000000e+00 0.000000000000e+00 0.000000000000e+00 0.000000000000e+00 0.000000000000e+00 0.000000000000e+00 9.531250000000e-04 9.067304510808e-06 0.000000000000e+00 0.000000000000e+00 0.000000000000e+00
428 3 9.202774080160e-03 1.262910807480e-02 3.059821237778e-03 -1.600021180796e-09 2.210194411010e-09 2.075325919624e-09 -4.243879214582e-13 -1.782249403931e-13 -1.373846359994e-13 9.531250000000e-04 9.067304510808e-06 1.600038827041e-12 -2.210218786708e-12 -2.075348807891e-12
429 3 1.231129153377e-02 1.176552790873e-02 1.262104763622e-03 0.000000000000e+00 0.000000000000e+00 0.000000000000e+00 0.000000000000e+00 0.000000000000e+00 0.000000000000e+00 9.531250000000e-04 9.067304510808e-06 0.000000000000e+00 0.000000000000e+00 0.000000000000e+00
430 3 7.712119395425e-03 1.240040219732e-02 3.867786578055e-03 0.000000000000e+00 0.000000000000e+00 0.000000000000e+00 0.000000000000e+00 0.000000000000e+00 0.000000000000e+00 9.531250000000e-04 9.067304510808e-06 0.000000000000e+00 0.000000000000e+00 0.000000000000e+00
431 3 1.138672645473e-02 1.231174455402e-02 4.606781379209e-03 0.000000000000e+00 0.000000000000e+00 0.000000000000e+00 0.000000000000e+00 0.000000000000e+00 0.000000000000e+00 9.531250000000e-04 9.067304510808e-06 0.000000000000e+00 0.000000000000e+00 0.000000000000e+00
432 3 1.398680943584e-02 1.319246649496e-02 4.918794018819e-03 0.000000000000e+00 0.000000000000e+00 0.000000000000e+00 0.000000000000e+00 0.000000000000e+00 0.000000000000e+00 9.531250000000e-04 9.067304510808e-06 0.000000000000e+00 0.000000000000e+00 0.000000000000e+00
433 3 1.226576584413e-02 1.514698808823e-02 7.094610052259e-03 0.000000000000e+00 0.000000000000e+00 0.000000000000e+00 0.000000000000e+00 0.000000000000e+00 0.000000000000e+00 9.531250000000e-04 9.067304510808e-06 0.000000000000e+00 0.000000000000e+00 0.000000000000e+00
434 3 1.396911157754e-02 7.786617881726e-03 4.686854104955e-03 0.000000000000e+00 0.000000000000e+00 0.000000000000e+00 0.000000000000e+00 0.000000000000e+00 0.000000000000e+00 9.531250000000e-04 9.067304510808e-06 0.000000000000e+00 0.000000000000e+00 0.000000000000e+00
435 3 1.513084778988e-02 1.238129764505e-02 5.285520109449e-03 0.000000000000e+00 0.000000000000e+00 0.000000000000e+00 0.000000000000e+00 0.000000000000e+00 0.000000000000e+00 9.531250000000e-04 9.067304510808e-06 0.000000000000e+00 0.000000000000e+00 0.000000000000e+00
436 3 1.482459558184e-02 1.436300143368e-02 3.887618935482e-03 0.000000000000e+00 0.000000000000e+00 0.000000000000e+00 0.000000000000e+00 0.000000000000e+00 0.000000000000e+00 9.531250000000e-04 9.067304510808e-06 0.000000000000e+00 0.000000000000e+00 0.000000000000e+00
437 3 9.059142384423e-03 1.087112961344e-02 1.537101302336e-03 0.000000000000e+00 0.000000000000e+00 0.000000000000e+00 0.000000000000e+00 0.000000000000e+00 0.000000000000e+00 9.531250000000e-04 9.067304510808e-06 0.000000000000e+00 0.000000000000e+00 0.000000000000e+00
438 3 1.396578143174e-02 1.329939555642e-02 3.907688821603e-03 0.000000000000e+00 0.000000000000e+00 0.000000000000e+00 0.000000000000e+00 0.000000000000e+00 0.000000000000e+00 9.531250000000e-04 9.067304510808e-06 0.000000000000e+00 0.000000000000e+00 0.000000000000e+00
439 3 1.446240586986e-02 1.381178239787e-02 7.366215232364e-03 0.000000000000e+00 0.000000000000e+00 0.000000000000e+00 0.000000000000e+00 0.000000000000e+00 0.000000000000e+00 9.531250000000e-04 9.067304510808e-06 0.000000000000e+00 0.000000000000e+00 0.000000000000e+00
440 3 7.999932670950e-03 7.928249991816e-03 2.980768793405e-03 0.000000000000e+00 0.000000000000e+00 0.000000000000e+00 0.000000000000e+00 0.000000000000e+00 0.000000000000e+00 9.531250000000e-04 9.067304510808e-06 0.000000000000e+00 0.000000000000e+00 0.000000000000e+00
441 3 1.068514379146e-02 1.008860022781e-02 5.968172555255e-03 0.000000000000e+00 0.000000000000e+00 0.000000000000e+00 0.000000000000e+00 0.000000000000e+00 0.000000000000e+00 9.531250000000e-04 9.067304510808e-06 0.000000000000e+00 0.000000000000e+00 0.000000000000e+00
442 3 1.014642588989e-02 9.160561172809e-03 9.017508585919e-03 0.000000000000e+00 0.000000000000e+00 0.000000000000e+00 0.000000000000e+00 0.000000000000e+00 0.000000000000e+00 9.531250000000e-04 9.067304510808e-06 0.000000000000e+00 0.000000000000e+00 0.000000000000e+00
443 3 8.884587412827e-03 1.291691540738e-02 1.391572154471e-02 0.000000000000e+00 0.000000000000e+00 0.000000000000e+00 0.000000000000e+00 0.000000000000e+00 0.000000000000e+00 9.531250000000e-04 9.067304510808e-06 0.000000000000e+00 0.000000000000e+00 0.000000000000e+00
444 3 1.237567569555e-02 1.007172583486e-02 1.352866067552e-02 1.161979527914e-07 8.369784812789e-08 1.074435332632e-07 -4.110801017441e+02 8.132335396824e+02 -2.061760888938e+02 9.531250000000e-04 9.067304510808e-06 -1.161992343104e-10 -8.369877121116e-11 -1.074447182319e-10
445 3 8.757534254819e-03 1.405268711713e-02 1.273258589077e-02 0.000000000000e+00 0.000000000000e+00 0.000000000000e+00 0.000000000000e+00 0.000000000000e+00 0.000000000000e+00 9.531250000000e-04 9.067304510808e-06 0.000000000000e+00 0.000000000000e+00 0.000000000000e+00
446 3 1.231476673366e-02 8.690674269773e-03 1.162750538311e-02 0.000000000000e+00 0.000000000000e+00 0.000000000000e+00 0.000000000000e+00 0.000000000000e+00 0.000000000000e+00 9.531250000000e-04 9.067304510808e-06 0.000000000000e+00 0.000000000000e+00 0.000000000000e+00
447 3 8.472809351579e-03 8.948574230425e-03 1.163228156661e-02 0.000000000000e+00 0.000000000000e+00 0.000000000000e+00 0.000000000000e+00 0.000000000000e+00 0.000000000000e+00 9.531250000000e-04 9.067304510808e-06 0.000000000000e+00 0.000000000000e+00 0.000000000000e+00
448 3 6.117839702725e-03 1.103398285774e-02 1.361184425239e-02 -3.197932010464e-07 1.488282391444e-07 1.896029046755e-07 2.477802838181e+00 6.898179463678e+00 -1.235526439316e+00 9.531250000000e-04 9.067304510808e-06 3.197967279681e-10 -1.488298805350e-10 -1.896049957599e-10
449 3 8.918586144119e-03 9.331145032803e-03 7.890815944898e-03 -4.257514024538e-10 7.811487485546e-10 -7.459898110747e-10 -1.163377706265e-12 6.916350180486e-13 1.388195258779e-12 9.531250000000e-04 9.067304510808e-06 4.257560979628e-13 -7.811573636547e-13 7.459980384154e-13
450 3 9.653768580124e-03 1.384116244966e-02 8.982493984321e-03 0.000000000000e+00 0.000000000000e+00 0.000000000000e+00 0.000000000000e+00 0.000000000000e+00 0.000000000000e+00 9.531250000000e-04 9.067304510808e-06 0.000000000000e+00 0.000000000000e+00 0.000000000000e+00
451 3 1.046839762062e-02 1.007608835730e-02 1.007276888230e-02 0.000000000000e+00 0.000000000000e+00 0.000000000000e+00 0.000000000000e+00 0.000000000000e+00 0.000000000000e+00 9.531250000000e-04 9.067304510808e-06 0.000000000000e+00 0.000000000000e+00 0.000000000000e+00
452 3 1.495512409719e-02 1.015502260272e-02 1.406969717757e-02 0.000000000000e+00 0.000000000000e+00 0.000000000000e+00 0.000000000000e+00 0.000000000000e+00 0.000000000000e+00 9.531250000000e-04 9.067304510808e-06 0.000000000000e+00 0.000000000000e+00 0.000000000000e+00
453 3 1.021884092539e-02 1.195993572873e-02 8.662382696229e-03 0.000000000000e+00 0.000000000000e+00 0.000000000000e+00 0.000000000000e+00 0.000000000000e+00 0.000000000000e+00 9.531250000000e-04 9.067304510808e-06 0.000000000000e+00 0.000000000000e+00 0.000000000000e+00
454 3 7.585018091636e-03 9.087096533908e-03 1.176904562301e-02 -7.315847503451e-07 9.476721560958e-08 1.531782484932e-06 2.312571227609e+03 2.254609810047e+03 -1.706462492846e+03 9.531250000000e-04 9.067304510808e-06 7.315928188160e-10 -9.476826077423e-11 -1.531799378589e-09
455 3 9.928955028381e-03 1.233880764126e-02 1.222744513163e-02 0.000000000000e+00 0.000000000000e+00 0.000000000000e+00 0.000000000000e+00 0.000000000000e+00 0.000000000000e+00 9.531250000000e-04 9.067304510808e-06 0.000000000000e+00 0.000000000000e+00 0.000000000000e+00
456 3 1.084058234364e-02 9.536478200603e-03 9.609263885071e-03 0.000000000000e+00 0.000000000000e+00 0.000000000000e+00 0.000000000000e+00 0.000000000000e+00 0.000000000000e+00 9.531250000000e-04 9.067304510808e-06 0.000000000000e+00 0.000000000000e+00 0.000000000000e+00
457 3 1.050424715912e-02 1.314453552426e-02 1.251174047043e-02 0.000000000000e+00 0.000000000000e+00 0.000000000000e+00 0.000000000000e+00 0.000000000000e+00 0.000000000000e+00 9.531250000000e-04 9.067304510808e-06 0.000000000000e+00 0.000000000000e+00 0.000000000000e+00
458 3 1.178926534509e-02 1.470368591461e-02 1.059315989822e-02 0.000000000000e+00 0.000000000000e+00 0.000000000000e+00 0.000000000000e+00 0.000000000000e+00 0.000000000000e+00 9.531250000000e-04 9.067304510808e-06 0.000000000000e+00 0.000000000000e+00 0.000000000000e+00
459 3 1.044633265802e-02 8.125490460609e-03 1.163408114374e-02 0.000000000000e+00 0.000000000000e+00 0.000000000000e+00 0.000000000000e+00 0.000000000000e+00 0.000000000000e+00 9.531250000000e-04 9.067304510808e-06 0.000000000000e+00 0.000000000000e+00 0.000000000000e+00
460 3 1.471103763593e-02 1.175328515342e-02 9.154061082685e-03 0.000000000000e+00 0.000000000000e+00 0.000000000000e+00 0.000000000000e+00 0.000000000000e+00 0.000000000000e+00 9.531250000000e-04 9.067304510808e-06 0.000000000000e+00 0.000000000000e+00 0.000000000000e+00
461 3 9.075738186679e-03 1.312535677009e-02 1.288520258404e-02 0.000000000000e+00 0.000000000000e+00 0.000000000000e+00 0.000000000000e+00 0.000000000000e+00 0.000000000000e+00 9.531250000000e-04 9.067304510808e-06 0.000000000000e+00 0.000000000000e+00 0.000000000000e+00
462 3 8.449207607282e-03 1.191055536237e-02 8.728070150343e-03 0.000000000000e+00 0.000000000000e+00 0.000000000000e+00 0.000000000000e+00 0.000000000000e+00 0.000000000000e+00 9.531250000000e-04 9.067304510808e-06 0.000000000000e+00 0.000000000000e+00 0.000000000000e+00
463 3 9.757884618691e-03 1.146708730631e-02 9.892093674467e-03 0.000000000000e+00 0.000000000000e+00 0.000000000000e+00 0.000000000000e+00 0.000000000000e+00 0.000000000000e+00 9.531250000000e-04 9.067304510808e-06 0.000000000000e+00 0.000000000000e+00 0.000000000000e+00
464 3 8.972415772762e-03 1.346724686908e-02 1.081659342959e-02 0.000000000000e+00 0.000000000000e+00 0.000000000000e+00 0.000000000000e+00 0.000000000000e+00 0.000000000000e+00 9.531250000000e-04 9.067304510808e-06 0.000000000000e+00 0.000000000000e+00 0.000000000000e+00
465 3 1.055168781894e-02 1.120671018173e-02 1.363715605824e-02 0.000000000000e+00 0.000000000000e+00 0.000000000000e+00 0.000000000000e+00 0.000000000000e+00 0.000000000000e+00 9.531250000000e-04 9.067304510808e-06 0.000000000000e+00 0.000000000000e+00 0.000000000000e+00
466 3 1.225022866615e-02 1.531442467332e-02 8.166896664625e-03 0.000000000000e+00 0.000000000000e+00 0.000000000000e+00 0.000000000000e+00 0.000000000000e+00 0.000000000000e+00 9.531250000000e-04 9.067304510808e-06 0.000000000000e+00 0.000000000000e+00 0.000000000000e+00
467 3 8.764572069249e-03 9.372158081031e-03 1.378427179744e-02 0.000000000000e+00 0.000000000000e+00 0.000000000000e+00 0.000000000000e+00 0.000000000000e+00 0.000000000000e+00 9.531250000000e-04 9.067304510808e-06 0.000000000000e+00 0.000000000000e+00 0.000000000000e+00
468 3 1.524243825209e-02 1.411695146768e-02 1.143679288567e-02 7.810573632739e-17 -2.999379626013e-17 3.670739736216e-17 -1.250610178277e-12 6.408611376944e-13 3.184690161347e-12 9.531250000000e-04 9.067304510808e-06 -7.810659773662e-20 2.999412705444e-20 -3.670780219915e-20
469 3 8.774686453231e-03 1.028762993797e-02 1.406088657830e-02 0.000000000000e+00 0.000000000000e+00 0.000000000000e+00 0.000000000000e+00 0.000000000000e+00 0.000000000000e+00 9.531250000000e-04 9.067304510808e-06 0.000000000000e+00 0.000000000000e+00 0.000000000000e+00
470 3 1.504320754361e-02 1.499259252834e-02 9.364721027828e-03 0.000000000000e+00 0.000000000000e+00 0.000000000000e+00 0.000000000000e+00 0.000000000000e+00 0.000000000000e+00 9.531250000000e-04 9.067304510808e-06 0.000000000000e+00 0.000000000000e+00 0.000000000000e+00
471 3 8.194143760752e-03 1.474940297007e-02 7.977721493287e-03 -3.199660832758e-09 -1.443782346736e-09 3.104175124578e-09 3.651368347191e-13 -1.725670430147e-13 2.961059674234e-13 9.531250000000e-04 9.067304510808e-06 3.199696121042e-12 1.443798269862e-12 -3.104209359773e-12
472 3 1.404982908066e-02 1.178985503082e-02 8.990399508885e-03 0.000000000000e+00 0.000000000000e+00 0.000000000000e+00 0.000000000000e+00 0.000000000000e+00 0.000000000000e+00 9.531250000000e-04 9.067304510808e-06 0.000000000000e+00 0.000000000000e+00 0.000000000000e+00
473 3 1.183862572053e-02 1.428925183044e-02 8.502948853903e-03 0.000000000000e+00 0.000000000000e+00 0.000000000000e+00 0.000000000000e+00 0.000000000000e+00 0.000000000000e+00 9.531250000000e-04 9.067304510808e-06 0.000000000000e+00 0.000000000000e+00 0.000000000000e+00
474 3 1.504378363723e-02 9.304363504187e-03 1.211249939732e-02 0.000000000000e+00 0.000000000000e+00 0.000000000000e+00 0.000000000000e+00 0.000000000000e+00 0.000000000000e+00 9.531250000000e-04 9.067304510808e-06 0.000000000000e+00 0.000000000000e+00 0.000000000000e+00
475 3 1.083863552071e-02 1.203342005879e-02 1.264532031213e-02 8.985765125157e-10 -1.026055387004e-09 -3.697913508287e-10 -3.611423118397e+01 -1.363809312465e+01 -4.991452869053e+01 9.531250000000e-04 9.067304510808e-06 -8.985864226982e-13 1.026066703120e-12 3.697954291678e-13
476 3 1.492980634000e-02 1.501724407886e-02 8.788185299471e-03 0.000000000000e+00 0.000000000000e+00 0.000000000000e+00 0.000000000000e+00 0.000000000000e+00 0.000000000000e+00 9.531250000000e-04 9.067304510808e-06 0.000000000000e+00 0.000000000000e+00 0.000000000000e+00
477 3 1.055352933161e-02 1.141574448684e-02 8.080705267551e-03 0.000000000000e+00 0.000000000000e+00 0.000000000000e+00 0.000000000000e+00 0.000000000000e+00 0.000000000000e+00 9.531250000000e-04 9.067304510808e-06 0.000000000000e+00 0.000000000000e+00 0.000000000000e+00
478 3 1.155931635357e-02 7.980250092533e-03 1.404232490230e-02 0.000000000000e+00 0.000000000000e+00 0.000000000000e+00 0.000000000000e+00 0.000000000000e+00 0.000000000000e+00 9.531250000000e-04 9.067304510808e-06 0.000000000000e+00 0.000000000000e+00 0.000000000000e+00
479 3 1.359878984688e-02 8.896271424318e-03 9.181272508263e-03 0.000000000000e+00 0.000000000000e+00 0.000000000000e+00 0.000000000000e+00 0.000000000000e+00 0.000000000000e+00 9.531250000000e-04 9.067304510808e-06 0.000000000000e+00 0.000000000000e+00 0.000000000000e+00
480 3 2.987768306706e-04 6.819081783210e-03 1.302905889842e-02 9.991859744011e-07 1.575238311817e-07 1.772918908393e-07 2.448535471330e+03 2.710833076446e+03 -2.942053572773e+03 9.531250000000e-04 9.067304510808e-06 -9.991969941810e-10 -1.575255684739e-10 -1.772938461486e-10
481 3 1.089751673117e-02 1.345338921501e-02 8.852103137241e-03 0.000000000000e+00 0.000000000000e+00 0.000000000000e+00 0.000000000000e+00 0.000000000000e+00 0.000000000000e+00 9.531250000000e-04 9.067304510808e-06 0.000000000000e+00 0.000000000000e+00 0.000000000000e+00
482 3 1.208069248293e-02 9.487179544367e-03 1.082488888191e-02 0.000000000000e+00 0.000000000000e+00 0.000000000000e+00 0.000000000000e+00 0.000000000000e+00 0.000000000000e+00 9.531250000000e-04 9.067304510808e-06 0.000000000000e+00 0.000000000000e+00 0.000000000000e+00
483 3 1.479175428618e-02 1.429002099736e-02 1.122498468567e-02 -7.810573632739e-17 2.999379626013e-17 -3.670739736216e-17 -1.250610178277e-12 6.408611376944e-13 3.184690161347e-12 9.531250000000e-04 9.067304510808e-06 7.810659773662e-20 -2.999412705444e-20 3.670780219915e-20
484 3 8.244452590140e-03 1.226050360054e-02 1.195649816597e-02 -4.575091676767e-06 8.779979013687e-06 1.545000962535e-05 -6.358541724916e+02 -1.545549668928e+03 -3.722851702584e+02 9.531250000000e-04 9.067304510808e-06 4.575142134343e-09 -8.780075845946e-09 -1.545018001976e-08
485 3 1.323424153513e-02 1.481596948743e-02 7.714311514518e-03 0.000000000000e+00 0.000000000000e+00 0.000000000000e+00 0.000000000000e+00 0.000000000000e+00 0.000000000000e+00 9.531250000000e-04 9.067304510808e-06 0.000000000000e+00 0.000000000000e+00 0.000000000000e+00
486 3 1.523673028031e-02 8.954709912363e-03 7.887612988291e-03 0.000000000000e+00 0.000000000000e+00 0.000000000000e+00 0.000000000000e+00 0.000000000000e+00 0.000000000000e+00 9.531250000000e-04 9.067304510808e-06 0.000000000000e+00 0.000000000000e+00 0.000000000000e+00
487 3 1.039766411497e-02 1.257859664109e-02 1.281541456157e-02 4.426401375099e-09 4.271401655530e-09 -4.369666745260e-09 -1.366104927220e+01 -5.158926441087e+00 -1.888133329948e+01 9.531250000000e-04 9.067304510808e-06 -4.426450192806e-12 -4.271448763783e-12 4.369714937255e-12
488 3 9.859262380219e-03 1.229572266363e-02 1.328224910809e-02 -5.324977887614e-09 -3.245346268527e-09 4.739458096089e-09 2.245318191177e+01 8.479166683566e+00 3.103319539105e+01 9.531250000000e-04 9.067304510808e-06 5.325036615504e-12 3.245382060664e-12 -4.739510366423e-12
489 3 8.243523224168e-03 1.336589548296e-02 1.310062666005e-02 0.000000000000e+00 0.000000000000e+00 0.000000000000e+00 0.000000000000e+00 0.000000000000e+00 0.000000000000e+00 9.531250000000e-04 9.067304510808e-06 0.000000000000e+00 0.000000000000e+00 0.000000000000e+00
490 3 1.235149151388e-02 1.109867466236e-02 1.194729495982e-02 0.000000000000e+00 0.000000000000e+00 0.000000000000e+00 0.000000000000e+00 0.000000000000e+00 0.000000000000e+00 9.531250000000e-04 9.067304510808e-06 0.000000000000e+00 0.000000000000e+00 0.000000000000e+00
491 3 1.251794328292e-02 1.119807419564e-02 7.935367499439e-03 0.000000000000e+00 0.000000000000e+00 0.000000000000e+00 0.000000000000e+00 0.000000000000e+00 0.000000000000e+00 9.531250000000e-04 9.067304510808e-06 0.000000000000e+00 0.000000000000e+00 0.000000000000e+00
492 3 1.459100750494e-02 7.959995750788e-03 1.214927066962e-02 0.000000000000e+00 0.000000000000e+00 0.000000000000e+00 0.000000000000e+00 0.000000000000e+00 0.000000000000e+00 9.531250000000e-04 9.067304510808e-06 0.000000000000e+00 0.000000000000e+00 0.000000000000e+00
493 3 1.095315547350e-02 1.096502578780e-02 1.016876343238e-02 0.000000000000e+00 0.000000000000e+00 0.000000000000e+00 0.000000000000e+00 0.000000000000e+00 0.000000000000e+00 9.531250000000e-04 9.067304510808e-06 0.000000000000e+00 0.000000000000e+00 0.000000000000e+00
494 3 1.428015713388e-02 9.513546341932e-03 8.646404588288e-03 0.000000000000e+00 0.000000000000e+00 0.000000000000e+00 0.000000000000e+00 0.000000000000e+00 0.000000000000e+00 9.531250000000e-04 9.067304510808e-06 0.000000000000e+00 0.000000000000e+00 0.000000000000e+00
495 3 6.648110696630e-03 1.083784083564e-02 1.107083060115e-02 -3.059118327366e-07 1.544471411084e-07 -3.063215841683e-08 4.076220991642e+03 7.626272722052e+03 -2.267739978582e+03 9.531250000000e-04 9.067304510808e-06 3.059152065640e-10 -1.544488444685e-10 3.063249625148e-11
496 3 9.370932178598e-03 9.735828824862e-03 9.347688838358e-03 0.000000000000e+00 0.000000000000e+00 0.000000000000e+00 0.000000000000e+00 0.000000000000e+00 0.000000000000e+00 9.531250000000e-04 9.067304510808e-06 0.000000000000e+00 0.000000000000e+00 0.000000000000e+00
497 3 1.071815037435e-02 1.148739618112e-02 1.255261235511e-02 0.000000000000e+00 0.000000000000e+00 0.000000000000e+00 0.000000000000e+00 0.000000000000e+00 0.000000000000e+00 9.531250000000e-04 9.067304510808e-06 0.000000000000e+00 0.000000000000e+00 0.000000000000e+00
498 3 1.395853931336e-02 1.454618810402e-02 7.816026801043e-03 0.000000000000e+00 0.000000000000e+00 0.000000000000e+00 0.000000000000e+00 0.000000000000e+00 0.000000000000e+00 9.531250000000e-04 9.067304510808e-06 0.000000000000e+00 0.000000000000e+00 0.000000000000e+00
499 3 1.126526277564e-02 1.006506280649e-02 1.315106221715e-02 -3.803870625312e-08 1.674426679005e-07 1.046359228424e-07 9.094965054947e+02 4.554033213713e+02 -2.503860378271e+03 9.531250000000e-04 9.067304510808e-06 3.803912577279e-11 -1.674445145851e-10 -1.046370768466e-10
500 3 1.373144270389e-02 9.650833672000e-03 1.014775896626e-02 0.000000000000e+00 0.000000000000e+00 0.000000000000e+00 0.000000000000e+00 0.000000000000e+00 0.000000000000e+00 9.531250000000e-04 9.067304510808e-06 0.000000000000e+00 0.000000000000e+00 0.000000000000e+00
