ITEM: TIMESTEP
100000
ITEM: NUMBER OF ATOMS
500
ITEM: BOX BOUNDS pp pp ff
0.0000000000000000e+00 1.5370634520482899e-02
0.0000000000000000e+00 1.5370634520482899e-02
0.0000000000000000e+00 1.5370634520482899e-02
ITEM: ATOMS id type x y z vx vy vz omegax omegay omegaz radius mass fx fy fz
1 1 1.170701411144e-03 5.110518732447e-03 7.267136679930e-04 2.894071919646e-08 -2.054649782194e-08 -2.900260597854e-08 -5.946745946731e-05 5.915945978949e-05 -4.166504685472e-05 7.500000000000e-04 4.417864669111e-06 -3.727796510276e-11 2.273795485575e-11 3.655101803411e-11
2 1 6.829564322325e-03 3.951680199493e-03 1.912803200015e-03 -1.293313165077e-07 -4.108807107559e-07 -2.967427595311e-07 -1.090924392029e-03 -2.125791789892e-04 6.735791238634e-04 7.500000000000e-04 4.417864669111e-06 1.480652728263e-10 4.558416899212e-10 3.688936574126e-10
3 1 3.444067680269e-03 1.375972082198e-03 7.028639565540e-03 2.642667123579e-08 9.264248667123e-08 -4.935286242778e-08 -1.466504539941e-04 5.111135508532e-06 -4.409699463762e-06 7.500000000000e-04 4.417864669111e-06 -2.559643017977e-11 -1.050558203557e-10 6.259537559849e-11
4 1 3.794020352063e-03 4.364767701142e-03 6.900154353621e-04 2.468434038146e-06 -9.896023137749e-07 1.018641415411e-07 1.189532139165e-03 3.101304302597e-03 5.830895085147e-03 7.500000000000e-04 4.417864669111e-06 -2.966888289370e-09 1.184443392967e-09 -1.203173697760e-10
5 1 6.288746452179e-03 6.639543880845e-03 7.245965196112e-03 -1.763614789611e-08 1.568199329414e-08 2.005354335055e-10 6.395215922072e-06 -1.850251395456e-05 -8.481034504161e-06 7.500000000000e-04 4.417864669111e-06 2.344764629821e-11 -1.927417064283e-11 2.252661037783e-12
6 1 5.422794166783e-03 6.806872104294e-03 1.415087269607e-03 3.653231961720e-09 3.132534708687e-09 1.861670966795e-09 3.288904754765e+01 -2.522589378517e+01 3.030567079853e+01 7.500000000000e-04 4.417864669111e-06 -2.840392178830e-12 -2.435549379695e-12 -1.447451310565e-12
7 1 4.045292250572e-03 4.585716667310e-03 5.502954786604e-03 1.019227271512e-07 1.229498025443e-08 -5.550702902813e-08 5.653982432532e-04 -9.522217626093e-05 6.352128384489e-04 7.500000000000e-04 4.417864669111e-06 -1.218456014568e-10 -2.028982482364e-11 7.046688092211e-11
8 1 2.568222968552e-03 1.852370259219e-03 5.406556922652e-03 -6.500902520793e-08 5.301494055733e-08 5.336082097163e-08 1.047826546039e-04 5.290551476903e-05 -6.296796903266e-05 7.500000000000e-04 4.417864669111e-06 7.030348630372e-11 -4.775985628092e-11 -6.686895027209e-11
9 1 7.404442092600e-04 5.614811149399e-03 5.186173188253e-03 -1.894621133295e-08 4.051782471061e-08 5.973535227157e-09 2.440293242606e-05 -2.689320850751e-05 -6.679987134523e-06 7.500000000000e-04 4.417864669111e-06 2.691266751193e-11 -4.541522548714e-11 -2.809918253182e-12
10 1 3.784908846766e-03 3.841020632413e-03 2.717376921899e-03 -8.777305684419e-07 7.781615989345e-07 -5.069672217760e-08 1.249648786239e-03 1.278469345073e-03 2.186187878753e-04 7.500000000000e-04 4.417864669111e-06 1.051117159146e-09 -9.348071718487e-10 7.054104761813e-11
11 1 1.063402656022e-03 6.881456255144e-03 4.463618667870e-03 1.180194785990e-07 -8.011690839403e-08 -2.522631374740e-07 -5.414077500066e-04 -6.198065161399e-04 1.845420427364e-04 7.500000000000e-04 4.417864669111e-06 -1.398040396976e-10 9.650964779999e-11 3.053639751940e-10
12 1 1.363805385670e-03 4.000631652788e-03 1.665950168871e-03 6.042274648220e-08 -4.392851705041e-08 9.840439767383e-09 7.485839577029e-05 4.446962884574e-05 -1.346471883837e-05 7.500000000000e-04 4.417864669111e-06 -7.291820610011e-11 5.413191448000e-11 -1.480603598320e-11
13 1 1.801157069022e-03 2.966901603395e-03 7.240213793860e-04 -3.706849418735e-08 -3.807541677283e-08 1.409859899758e-11 9.623469513549e-06 -6.759588977668e-05 -2.156445354384e-04 7.500000000000e-04 4.417864669111e-06 4.425504817855e-11 4.848839267349e-11 1.949869727476e-12
14 1 2.853473644873e-03 1.942182732630e-03 2.130195993122e-03 -1.327013446560e-07 -4.456582366862e-08 -2.639594051542e-08 -1.555114844328e-04 -9.306513696577e-05 -3.342374725781e-04 7.500000000000e-04 4.417864669111e-06 1.575269440910e-10 5.023148210237e-11 4.378733522263e-11
15 1 5.157812170718e-03 3.883958139968e-03 6.145246776687e-03 3.221195221035e-08 -5.088413110539e-08 -9.981360657521e-08 4.634711842213e-04 -4.792880066278e-04 -2.146167551467e-04 7.500000000000e-04 4.417864669111e-06 -5.176754999591e-11 4.765021997789e-11 1.110586682752e-10
16 1 4.398555586369e-03 2.383684060877e-03 1.787009710955e-03 -7.527934239856e-07 1.512484963238e-06 -1.224202574453e-06 -6.271559013265e-04 -1.714503472550e-03 -8.696384014869e-04 7.500000000000e-04 4.417864669111e-06 8.333665679357e-10 -1.630535321311e-09 1.368750748094e-09
17 1 2.192973011981e-03 5.491593658908e-03 2.805792055646e-03 3.204214254921e-07 -2.748775322087e-07 -1.292543362143e-07 -4.128486666564e-04 -3.245723304221e-04 -2.220109456920e-05 7.500000000000e-04 4.417864669111e-06 -4.011442019216e-10 3.192135784011e-10 1.643647492318e-10
18 1 1.411091131801e-03 2.194054058451e-03 6.116240632936e-03 -7.058687447293e-08 -2.263523809774e-08 6.718052801645e-08 2.679080519255e-05 -5.917097886129e-05 7.629073613768e-05 7.500000000000e-04 4.417864669111e-06 7.579215865729e-11 2.454324113307e-11 -8.238002088660e-11
19 1 2.795667895196e-03 4.450078201312e-03 3.642967544692e-03 -1.246728917762e-07 3.519903610746e-08 3.500595517638e-07 -1.870757592930e-04 -3.448080887914e-04 -1.252118947532e-04 7.500000000000e-04 4.417864669111e-06 1.503718360518e-10 -3.942701971769e-11 -4.240532957296e-10
20 1 6.575388492364e-03 3.156252324256e-03 3.107771025943e-03 -1.167171280028e-07 4.764224906584e-07 2.150813830939e-09 -2.388707302619e-04 -2.756786693562e-04 4.012018308765e-04 7.500000000000e-04 4.417864669111e-06 1.445398504553e-10 -5.708120581309e-10 1.347449175511e-11
21 1 6.148821257039e-03 4.942560258667e-03 3.852415113099e-03 -1.934590723735e-07 -6.350352440025e-09 -6.301407180177e-08 -5.482481569318e-04 5.290037669875e-04 9.272391399101e-05 7.500000000000e-04 4.417864669111e-06 2.221168301580e-10 1.456061273297e-11 7.546458054869e-11
22 1 4.176935369194e-03 4.992935899533e-03 1.906626872471e-03 4.974028866868e-07 3.497716174157e-07 3.301300775356e-08 -1.700856036626e-03 -3.414901084699e-03 -1.047064797482e-03 7.500000000000e-04 4.417864669111e-06 -6.024977966101e-10 -4.250405391864e-10 -2.951941236300e-11
23 1 2.762913002317e-03 4.507424710206e-03 1.867752872518e-03 4.888721848527e-07 1.399313879533e-06 -2.616895910649e-06 4.925469496519e-03 6.415269203904e-04 -1.421126084676e-04 7.500000000000e-04 4.417864669111e-06 -5.986327825378e-10 -1.699020599246e-09 3.166516544427e-09
24 1 3.786705744617e-03 2.442117116287e-03 3.155353683892e-03 -4.725032640691e-07 4.550505243044e-07 -6.817087266430e-08 -1.012218017666e-03 -5.217250088737e-04 1.750695786439e-04 7.500000000000e-04 4.417864669111e-06 5.607656434317e-10 -5.418240639010e-10 1.006242984012e-10
25 1 5.137150396366e-03 2.704034984974e-03 5.350360642522e-03 -1.430925491935e-07 4.169185679658e-08 -3.556943093888e-07 5.866773400719e-05 -2.774108292320e-04 -1.299937699542e-05 7.500000000000e-04 4.417864669111e-06 1.839701226898e-10 -5.596539079582e-11 4.252567223842e-10
26 1 5.923777969727e-03 2.781968186011e-03 1.665652022953e-03 1.674389024471e-05 -1.585124681523e-05 -5.213077362155e-05 -3.365913119995e-02 -1.006583614293e-01 5.096421262827e-02 7.500000000000e-04 4.417864669111e-06 -1.476479771435e-08 1.371006213674e-08 4.526694045586e-08
27 1 3.345068154212e-03 4.220729739422e-03 7.193830619168e-03 2.756414176555e-08 3.144438007214e-09 -8.251188535354e-08 3.181294823714e-04 -4.802702638665e-05 -5.227116950126e-05 7.500000000000e-04 4.417864669111e-06 -3.427233114102e-11 -1.605786140249e-11 8.554254847152e-11
28 1 6.661157614138e-03 4.978400821529e-03 8.323251883120e-04 -1.832066722412e-06 -5.477983212323e-07 -3.084616634169e-06 -2.003186774284e-03 1.356373324536e-03 1.406054253404e-03 7.500000000000e-04 4.417864669111e-06 1.498493798605e-09 4.181282476613e-10 2.539856490871e-09
29 1 5.698937790950e-03 2.461021510100e-03 4.039091457720e-03 6.501938807476e-08 3.215073712009e-07 -3.338952912384e-07 3.480275798540e-04 -7.725223312558e-05 9.626050542635e-05 7.500000000000e-04 4.417864669111e-06 -8.699387303045e-11 -3.945072815723e-10 4.024259595080e-10
30 1 6.036662390441e-03 1.112064670602e-03 5.931489752304e-03 -7.491690532805e-08 4.461166370399e-07 -1.823759033733e-07 -8.011765841174e-05 -1.338442884978e-04 -4.728648352163e-04 7.500000000000e-04 4.417864669111e-06 8.181031886610e-11 -5.297548471818e-10 2.089690734865e-10
31 1 5.149802257267e-03 3.732965938623e-03 8.017318203403e-04 2.460062323262e-05 1.889281420944e-05 -3.668016203070e-05 1.866511481649e-01 -3.475245700605e-02 4.483145315336e-02 7.500000000000e-04 4.417864669111e-06 -2.242264128623e-08 -1.667666665077e-08 3.216443168429e-08
32 1 2.280328498695e-03 5.095456741235e-03 6.877524380227e-03 3.696234058250e-08 1.898088432893e-08 -1.021153241246e-08 -1.311742207372e-05 -1.017929815365e-04 1.164099701940e-04 7.500000000000e-04 4.417864669111e-06 -3.586535315870e-11 -6.810782748528e-12 -1.203350812475e-12
33 1 1.456701421555e-03 2.332724941694e-03 2.265147163053e-03 -1.098886795777e-08 9.300492624255e-08 -5.449148840557e-08 -1.548369623412e-04 1.552770796305e-04 1.723326505363e-04 7.500000000000e-04 4.417864669111e-06 1.042605815932e-11 -1.098601851138e-10 6.457884420730e-11
34 1 2.790284597013e-03 5.523386146364e-03 7.602217693808e-04 4.081767431417e-07 -2.417090475855e-07 -3.235491800937e-07 1.019656632222e+02 -6.030723064957e+01 -8.134772645593e+01 7.500000000000e-04 4.417864669111e-06 -4.551442944469e-10 2.696435593119e-10 3.600100563001e-10
35 1 5.114768654769e-03 3.212188433440e-03 2.881163531500e-03 -5.237766118672e-07 5.879887331764e-07 -5.091151675886e-07 -8.918239962681e-04 -4.786931625476e-04 -5.676603783933e-04 7.500000000000e-04 4.417864669111e-06 6.212944913431e-10 -6.959676965365e-10 6.219756125358e-10
36 1 3.875285470271e-03 2.175299066927e-03 4.844057454731e-03 -1.616790336196e-07 1.419328463222e-07 -3.201520287844e-07 3.412084507383e-04 4.742557555670e-04 4.074389900225e-05 7.500000000000e-04 4.417864669111e-06 1.934683011436e-10 -1.763110916857e-10 3.789040638798e-10
37 1 3.516765135504e-03 6.018824602789e-03 2.657299499051e-03 -6.742737731893e-08 4.628206056428e-07 -5.872000927013e-07 1.682609956417e-03 1.325524723340e-03 6.422682998655e-04 7.500000000000e-04 4.417864669111e-06 9.241384535076e-11 -5.499331579390e-10 6.992905448341e-10
38 1 2.990300979995e-03 7.192351086974e-03 1.978702502459e-03 -1.618227654321e-07 6.868373174503e-07 -8.983734034775e-08 -1.408187836646e-03 -2.887416142977e-04 -1.003791764507e-03 7.500000000000e-04 4.417864669111e-06 1.902909381297e-10 -8.209190148824e-10 1.074088449458e-10
39 1 5.058503320928e-03 1.734110372651e-03 2.967054766442e-03 -6.211560266984e-07 8.807825331502e-07 -4.881977771985e-07 1.044885063436e-03 1.362205699729e-03 6.493861182158e-04 7.500000000000e-04 4.417864669111e-06 7.342967106255e-10 -1.016500375407e-09 5.769765305390e-10
40 1 5.051409127551e-03 5.751599321782e-03 4.327378409358e-03 -1.108570060235e-07 6.865882521719e-08 8.261839752973e-08 -6.242254966022e-05 1.096016414762e-04 6.313638163817e-06 7.500000000000e-04 4.417864669111e-06 1.378300446438e-10 -9.013246427365e-11 -9.525184781808e-11
41 1 6.238123940347e-03 3.690213179344e-03 4.557366380830e-03 -2.741799384150e-08 1.505843927731e-07 8.640829397880e-08 2.475585788386e-04 -1.212725289629e-04 -5.860159767608e-05 7.500000000000e-04 4.417864669111e-06 3.115352772286e-11 -1.883363033224e-10 -1.036711020002e-10
42 1 6.183508706205e-03 2.564063229477e-03 6.680117579174e-03 -1.711328863853e-08 6.631906123488e-09 -7.825681314252e-08 7.864387885708e-06 4.851868511431e-05 8.326702411359e-05 7.500000000000e-04 4.417864669111e-06 2.527565828670e-11 -1.103567081872e-11 8.771394441214e-11
43 1 5.970115798171e-03 5.262704894973e-03 6.951891859941e-03 5.731852176965e-09 2.510518430218e-08 -2.670742207609e-08 1.658998815232e-05 -8.740106503246e-05 4.906842162587e-05 7.500000000000e-04 4.417864669111e-06 -5.946821949819e-12 -4.625158221638e-11 3.729713936031e-11
44 1 4.986131789351e-03 5.777432069358e-03 2.841565145725e-03 -3.365408517194e-07 5.321274448608e-07 1.876935904551e-07 -2.342845866094e-04 6.796585091401e-04 -2.099116308198e-04 7.500000000000e-04 4.417864669111e-06 3.963222415243e-10 -6.406153720020e-10 -2.190699929945e-10
45 1 2.899320697664e-03 3.164017783874e-03 4.352264547284e-03 -2.807343994519e-07 1.500658095597e-07 1.585393118559e-07 2.223057193701e-04 8.801586770929e-05 3.781209647649e-05 7.500000000000e-04 4.417864669111e-06 3.278656979586e-10 -1.775374802508e-10 -1.804903749278e-10
46 1 6.411302600578e-03 1.703305465425e-03 2.586780475947e-03 -6.804239798774e-07 7.617047982335e-07 -1.601821966232e-07 -6.465013235862e-04 -2.033404775689e-03 -1.197686626856e-03 7.500000000000e-04 4.417864669111e-06 7.911944622071e-10 -8.917509070302e-10 1.830611750474e-10
47 1 3.661259843705e-03 5.373213997892e-03 4.331144496177e-03 -1.237252613618e-07 6.856588029558e-08 2.723833590563e-07 -1.047562361247e-04 1.725191976462e-04 -9.608385514871e-06 7.500000000000e-04 4.417864669111e-06 1.406372657486e-10 -8.219113593511e-11 -3.286291624301e-10
48 1 4.797550547742e-03 4.505165535978e-03 3.556925038560e-03 -2.775312965042e-07 3.707934934664e-07 -3.227000967738e-07 9.538666673129e-04 -4.969259662294e-05 -6.021040341293e-05 7.500000000000e-04 4.417864669111e-06 3.285490161689e-10 -4.330310826233e-10 3.880762116392e-10
49 1 4.550656621392e-03 4.993051153722e-03 6.833273856659e-03 8.787913918059e-09 -3.727982095983e-08 -1.475848349150e-08 -1.531508388489e-04 1.024852185303e-04 -1.215301729618e-05 7.500000000000e-04 4.417864669111e-06 -9.433187113692e-12 4.313199795545e-11 2.130660118324e-11
50 1 4.293901401005e-03 3.537518290707e-03 4.494926089293e-03 -1.892721414975e-07 8.304685534185e-08 -3.981367865451e-07 -2.527796701340e-04 5.830649356500e-04 -2.060535813575e-04 7.500000000000e-04 4.417864669111e-06 2.286407163854e-10 -9.767573191832e-11 4.830404961690e-10
51 1 2.330974428333e-03 3.249314771363e-03 5.683837161547e-03 -2.353606426264e-07 4.941396521735e-08 8.320304984802e-08 -1.389256382394e-04 -5.966648241499e-05 2.383036731146e-04 7.500000000000e-04 4.417864669111e-06 2.814376618599e-10 -7.690070017560e-11 -1.032018304706e-10
52 1 2.841107771596e-03 1.938831850210e-03 6.920474065112e-04 -7.298751667997e-08 -9.355330566193e-08 4.074678919331e-09 1.113251011352e-04 -4.004419725305e-05 1.515106462131e-04 7.500000000000e-04 4.417864669111e-06 9.287263555397e-11 1.045570131019e-10 -1.110360406477e-11
53 1 3.203163023332e-03 3.192288510426e-03 1.355560830455e-03 -5.299365759512e-07 2.168224775370e-07 -5.493595336071e-07 -4.382931526505e-03 -1.182536464070e-02 -5.828213821979e-03 7.500000000000e-04 4.417864669111e-06 6.377310028290e-10 -2.670321012124e-10 6.695601083688e-10
54 1 6.224937808179e-03 6.542240384115e-03 2.656330286565e-03 -1.225433941705e-07 2.204270590329e-07 -7.511824144161e-08 1.502486084613e-04 -2.458208083293e-04 -1.890054248807e-04 7.500000000000e-04 4.417864669111e-06 1.445121811146e-10 -2.643729337085e-10 9.377897745885e-11
55 1 6.485163821122e-03 2.451975669291e-03 5.278256725833e-03 -5.257565334485e-08 9.358031448189e-08 -1.514758099272e-07 8.718595326093e-05 6.740419399639e-06 1.099346474740e-04 7.500000000000e-04 4.417864669111e-06 4.512313175699e-11 -1.264874570078e-10 1.685022314900e-10
56 1 2.741929235090e-03 6.416589462012e-03 3.820494320815e-03 1.511458419906e-07 -9.859847332891e-08 -1.265816962509e-07 -5.096195245994e-04 -5.901686353302e-04 -2.970561803048e-04 7.500000000000e-04 4.417864669111e-06 -1.866167553657e-10 1.116465601182e-10 1.460909765456e-10
57 1 1.973877879862e-03 5.353772339618e-03 4.457306214722e-03 -8.147501470641e-08 1.181067181559e-07 1.813221064584e-08 -8.517625436093e-05 1.069744885581e-04 1.431126064979e-04 7.500000000000e-04 4.417864669111e-06 9.832337627256e-11 -1.443203108545e-10 -1.386556030317e-11
58 1 4.004501560361e-03 6.344785067648e-03 1.257222076959e-03 -3.653231961720e-09 -3.132534708687e-09 -1.861670966795e-09 -1.589597680766e+01 1.398587650711e+01 -7.555208950958e+00 7.500000000000e-04 4.417864669111e-06 2.840392178830e-12 2.435549379695e-12 1.447451310565e-12
59 1 2.411176611465e-03 3.227435171437e-03 2.934944537511e-03 -6.560486210002e-08 1.073767735984e-07 1.511574294207e-07 1.803801320891e-04 -4.998477343026e-04 -2.322882354632e-04 7.500000000000e-04 4.417864669111e-06 7.767706921795e-11 -1.261114896349e-10 -1.775641732374e-10
60 1 1.725967670725e-03 6.152866905443e-03 1.609325842102e-03 1.661315214457e-07 -1.653053312853e-07 -1.158419381431e-07 3.523780849293e-04 3.893088872286e-04 1.133920910473e-04 7.500000000000e-04 4.417864669111e-06 -2.085909105163e-10 2.058709034608e-10 1.403459815480e-10
61 1 9.771005239981e-04 9.116160226954e-04 5.450790891923e-03 1.003531283400e-07 -2.490349834918e-08 -1.515941822441e-08 -1.157387747039e-04 3.871909516949e-04 -4.734939092953e-04 7.500000000000e-04 4.417864669111e-06 -1.252078477745e-10 2.890370938788e-11 2.413637610435e-11
62 1 4.437017085364e-03 1.261930281114e-03 6.030961666878e-03 1.938320601793e-08 3.331225580590e-07 -1.657200111865e-07 4.707214112545e-04 1.111104262350e-04 2.084554694130e-04 7.500000000000e-04 4.417864669111e-06 -2.828454680368e-11 -4.017789645229e-10 1.823492340510e-10
63 1 5.611942005648e-03 4.749412237727e-03 1.944742202391e-03 9.342978353063e-08 -5.422007799411e-07 -1.933619224021e-07 -5.991453145433e-03 5.021730403398e-03 -4.619084197739e-04 7.500000000000e-04 4.417864669111e-06 -1.177688496953e-10 6.073198155482e-10 2.694067568826e-10
64 1 1.709417370250e-03 7.037510493329e-03 3.126050312778e-03 2.543681467664e-07 -8.914744980683e-08 -2.433974856708e-07 3.457610731284e-04 4.104987995270e-04 1.381663071009e-04 7.500000000000e-04 4.417864669111e-06 -3.070487584102e-10 1.115560160476e-10 3.003399777835e-10
65 1 2.431523241406e-03 7.013886543710e-03 6.721349191680e-04 -2.545147512345e-08 -2.864849071165e-09 -2.168975172796e-08 2.235592311736e-05 -2.346517728830e-05 -1.609038901176e-05 7.500000000000e-04 4.417864669111e-06 2.774498071604e-11 4.761775063819e-12 1.576794682441e-11
66 1 1.885111331944e-03 6.011576407027e-03 5.833017837661e-03 -2.350610320669e-08 3.220455019818e-08 2.103815322323e-08 8.134482780014e-05 1.343584027630e-05 7.366409544120e-05 7.500000000000e-04 4.417864669111e-06 2.651822489248e-11 -4.953035322267e-11 -1.724872718035e-11
67 1 3.237693093879e-04 2.732418049083e-03 7.252295383974e-04 4.392740487237e-09 3.802399951502e-08 -1.369360845722e-08 -3.033017249339e-06 2.911183234531e-05 1.193172075109e-04 7.500000000000e-04 4.417864669111e-06 -6.941917853539e-12 -4.798242358589e-11 2.090530071473e-11
68 1 6.347322919305e-03 4.498350216006e-03 5.747892396886e-03 4.885201430477e-08 3.230558837966e-08 9.815558304096e-08 -9.872226602291e-05 3.404781613973e-04 1.920873972774e-04 7.500000000000e-04 4.417864669111e-06 -3.884728174965e-11 -2.624403188261e-11 -1.227349919812e-10
69 1 2.171284443577e-03 7.316961637657e-03 5.380207810822e-03 -6.825477729269e-08 2.962753288177e-08 2.342618646467e-08 -6.303459539753e-05 4.174832634284e-05 -2.658569296464e-05 7.500000000000e-04 4.417864669111e-06 8.486376931767e-11 -2.113788824312e-11 -3.092919837711e-11
70 1 2.580483328056e-03 4.643549073195e-03 5.564009411086e-03 -2.425887571555e-08 -1.403346048663e-08 -2.940720678058e-08 3.986736142206e-05 1.320777910722e-04 -5.472531868478e-04 7.500000000000e-04 4.417864669111e-06 2.863538417311e-11 3.374350249486e-11 3.860118955748e-11
71 1 4.534612254012e-03 1.914236538582e-03 1.112230930891e-02 3.673911396638e-10 1.740948535147e-08 -1.085158205159e-08 2.021142736017e-05 2.805238390844e-05 1.166946929691e-05 7.500000000000e-04 4.417864669111e-06 7.927921157052e-12 -2.116480424947e-11 1.813085998945e-11
72 1 3.535461237361e-03 1.352515569944e-03 1.036317684372e-02 -9.531191410207e-09 3.332869583326e-08 -4.421754696100e-09 6.515344784047e-05 3.690664539638e-05 1.220616449812e-05 7.500000000000e-04 4.417864669111e-06 7.056599753777e-12 -4.396013463869e-11 9.586059186705e-13
73 1 4.599903725598e-03 5.288532105902e-03 1.368471815775e-02 9.278844994474e-11 6.898697102105e-09 -4.233314533308e-09 1.951596607428e-06 3.563660382335e-06 4.081313495887e-06 7.500000000000e-04 4.417864669111e-06 2.566104256221e-12 -8.624673823390e-12 3.622530894738e-12
74 1 2.178318099952e-03 6.867351272389e-03 1.283849714456e-02 -2.320950274739e-188 -2.262801843880e-189 2.806657018188e-190 1.810597314818e+03 9.645884191536e+02 -4.095715975790e+03 7.500000000000e-04 4.417864669111e-06 2.326215750086e-189 2.267935399499e-190 -2.813024402918e-191
75 1 4.672529224788e-03 4.198290809471e-03 1.103588922370e-02 -9.094161940241e-09 2.588641946167e-08 -8.972422657265e-09 1.425761225935e-05 1.635240345087e-05 2.458360438402e-05 7.500000000000e-04 4.417864669111e-06 1.502505178606e-11 -2.030192420231e-11 1.183876468294e-11
76 1 7.287703966616e-03 5.937173392743e-03 8.058687476403e-03 -5.150327015843e-09 2.050148780046e-08 9.281105756892e-10 8.443443783065e-06 3.340453926131e-06 2.391719297312e-05 7.500000000000e-04 4.417864669111e-06 1.329514042292e-11 -3.035053924105e-11 -3.609605609927e-11
77 1 4.640894253585e-03 1.209879164708e-03 9.385559043813e-03 -1.085137770468e-09 3.885876781768e-08 -4.211656990540e-09 -4.450949299106e-05 7.043341653627e-05 -4.020967944270e-05 7.500000000000e-04 4.417864669111e-06 5.360207731891e-14 -5.449600763597e-11 4.280814418047e-12
78 1 2.840420294942e-03 7.292128943231e-03 1.427599404279e-02 1.880275340570e-09 4.456027163151e-09 7.172571104800e-10 1.274617247269e-05 4.150198249252e-06 9.891810495731e-07 7.500000000000e-04 4.417864669111e-06 1.596287623042e-12 -3.482222877961e-12 -3.715683530926e-12
79 1 4.940621321231e-03 4.559435087255e-03 1.243849743708e-02 -4.929002597757e-10 1.284382940583e-08 -7.563762132338e-09 6.440878035534e-06 1.199084427388e-06 2.070199242414e-06 7.500000000000e-04 4.417864669111e-06 -1.484302640784e-13 -1.644290526393e-11 6.362721530456e-12
80 1 4.357032275111e-03 6.878764861594e-03 9.283848504770e-03 -1.273786511180e-08 -4.661229199061e-08 -9.088844776396e-08 -1.245822147219e-04 -5.866761839725e-05 -1.064725478787e-04 7.500000000000e-04 4.417864669111e-06 1.400646040420e-11 4.353536532137e-11 1.511046996913e-10
81 1 1.455938889437e-03 7.089369935772e-03 1.469058841676e-02 -2.611086250496e-09 8.219423213673e-09 -5.372434461550e-09 7.465874814580e-06 2.028497954803e-06 4.084307777133e-06 7.500000000000e-04 4.417864669111e-06 -2.764182157035e-13 -1.205982722201e-11 9.062588128050e-12
82 1 5.873047471923e-03 5.798357370069e-03 8.388129665732e-03 4.453790481734e-09 7.713724546661e-09 -3.551409960180e-08 -1.158646970771e-04 -7.264064293153e-05 2.011521841025e-05 7.500000000000e-04 4.417864669111e-06 -4.175169062533e-12 -1.322780373666e-11 4.480137792534e-11
83 1 3.608718317832e-03 4.842541973713e-03 1.465810180529e-02 -5.494386863146e-10 8.879830980627e-09 -3.380244452900e-10 9.460187737967e-06 -1.776228905726e-06 3.043025780709e-06 7.500000000000e-04 4.417864669111e-06 2.110916049460e-12 -1.032830684198e-11 -7.017391087218e-13
84 1 5.646515441834e-03 2.118421573871e-03 1.432884440385e-02 -4.248401784483e-09 7.510211024948e-09 -6.680407736112e-09 8.890112279387e-06 -3.094037941244e-06 -4.202047371019e-07 7.500000000000e-04 4.417864669111e-06 4.887212002830e-12 -9.955926070901e-12 8.829887589762e-12
85 1 1.644705358300e-03 4.573359821431e-03 1.031520406363e-02 -4.738722916743e-09 2.185850979864e-08 -1.547126019682e-08 -1.825759646228e-05 5.989304673352e-05 3.444769217764e-05 7.500000000000e-04 4.417864669111e-06 4.180142642719e-12 -3.192854648645e-11 1.713492464776e-11
86 1 7.186776053332e-03 4.279550330119e-03 1.261515856062e-02 3.148368632132e-10 7.324837268346e-09 -2.464278494004e-09 5.359753410746e-06 -7.007909695806e-06 -1.585452141633e-06 7.500000000000e-04 4.417864669111e-06 -4.644788388623e-12 -1.506161379745e-11 3.409745797046e-12
87 1 1.388083208360e-03 1.519696133636e-02 1.381848092119e-02 -3.123804061253e-09 1.345221120082e-08 -1.447744347005e-08 -4.314294667791e-06 1.140029130659e-05 6.021437328189e-06 7.500000000000e-04 4.417864669111e-06 4.029801087298e-12 -6.366292721844e-12 1.153977778605e-11
88 1 2.233547527329e-03 4.090840525626e-03 1.159711172970e-02 -3.400661514807e-09 1.724099810251e-08 -1.318696594315e-08 -3.806035365017e-05 3.669438291685e-06 1.746134234888e-06 7.500000000000e-04 4.417864669111e-06 3.567737847115e-12 -2.534219566840e-11 1.634282221800e-11
89 1 7.129731309404e-03 5.833303492409e-03 1.002659827419e-02 1.006895977541e-09 2.206601097765e-08 -4.621846060513e-09 1.141656595042e-05 4.953703699313e-05 -2.174022197942e-05 7.500000000000e-04 4.417864669111e-06 -2.790897627534e-12 -4.040362684826e-11 6.775583789025e-13
90 1 5.141021832136e-03 5.506267345588e-03 1.070578033029e-02 2.316087457492e-08 2.633825185408e-08 -1.709292156941e-08 -3.357175351773e-05 -6.197791963921e-05 -6.431416988682e-05 7.500000000000e-04 4.417864669111e-06 -2.777172208595e-11 -3.191045667925e-11 3.437983037551e-11
91 1 1.968477469047e-03 1.169616778963e-03 1.353932274730e-02 -4.992865061474e-09 1.369948787925e-08 -1.013991156616e-08 1.019553441171e-05 3.075084152496e-06 -6.550312092642e-06 7.500000000000e-04 4.417864669111e-06 5.239794784976e-12 -1.576703066802e-11 9.809974744638e-12
92 1 4.828173830014e-03 6.699958482153e-03 7.923946385117e-03 8.842572843679e-09 -1.451243182765e-08 -5.485517001667e-08 1.858130529406e-04 2.452373187354e-06 4.980012183625e-05 7.500000000000e-04 4.417864669111e-06 -1.204354372619e-11 1.791056771887e-11 6.346988840314e-11
93 1 4.706134025835e-03 2.318280428033e-03 1.248634639875e-02 -4.910665566692e-09 2.614015649771e-08 -1.272661053299e-08 -2.823240647856e-05 -1.848402384720e-05 3.526203269630e-05 7.500000000000e-04 4.417864669111e-06 2.860050352106e-11 -2.128631166369e-11 6.436620287553e-12
94 1 2.277130575143e-03 1.905084048343e-03 1.021618959720e-02 -2.640049634599e-09 3.036595567355e-08 -7.163578016126e-10 -2.320349255426e-05 -5.004311856362e-05 -1.006789516522e-05 7.500000000000e-04 4.417864669111e-06 7.106622329836e-12 -3.412810472180e-11 1.440355051916e-12
95 1 3.576925482852e-03 1.712176682974e-03 1.305537265717e-02 -4.333485687162e-09 1.129936205930e-08 -1.510273586217e-08 -2.304375543104e-06 -5.026686093645e-06 -4.925894401902e-08 7.500000000000e-04 4.417864669111e-06 -1.541604612251e-11 -2.783657611575e-11 3.144909982589e-11
96 1 3.030344326793e-03 3.394687422746e-03 8.800305054144e-03 -1.017538817903e-08 3.458127646090e-08 -2.795504896995e-09 4.717984090604e-05 -4.943599409524e-05 1.579772830871e-05 7.500000000000e-04 4.417864669111e-06 1.379262961529e-11 -4.541611392287e-11 -2.058632061653e-12
97 1 4.083715630059e-03 6.396102899272e-03 1.055984297354e-02 4.745326520172e-09 4.578473306596e-08 -3.455934641245e-08 -2.265156077338e-05 9.096968970603e-05 6.117593582189e-05 7.500000000000e-04 4.417864669111e-06 3.116773013991e-12 -4.397514863454e-11 9.149510754829e-12
98 1 5.242658227278e-03 1.528226448327e-02 9.609481803617e-03 9.224205378528e-09 2.993511096344e-08 2.685941219985e-08 -3.297446016487e-05 -2.351687010638e-05 1.150829303601e-05 7.500000000000e-04 4.417864669111e-06 -1.218998369569e-11 -3.627359154057e-11 -3.194624610381e-11
99 1 6.057719282842e-03 4.933686281386e-03 1.333904554212e-02 -1.122027466937e-09 8.933970554728e-09 -5.309517968682e-09 7.181941316227e-07 -1.281227448760e-06 -1.800257420759e-06 7.500000000000e-04 4.417864669111e-06 3.168900347299e-12 -1.303435563486e-11 8.005488881824e-12
100 1 1.781760361733e-03 3.626037028150e-03 1.296013271312e-02 -1.875388479593e-09 1.549795315855e-08 -4.489261458051e-09 -1.130114012184e-05 -1.517017469984e-05 -7.752093332983e-06 7.500000000000e-04 4.417864669111e-06 -5.218108915842e-13 -1.706003100746e-11 1.517834940316e-12
101 2 3.992461982393e-03 1.868362192330e-03 1.454683645217e-02 -3.920166377091e-09 7.769054733895e-09 -6.848676960615e-09 6.623974435834e-06 3.586205845363e-06 -2.048522678792e-06 1.000000000000e-03 1.047197551197e-05 1.575731206280e-11 -2.203397691851e-11 2.369077952507e-11
102 2 7.107992254036e-03 4.567363086568e-03 8.954500373773e-03 -1.113102093147e-08 2.022229524894e-08 -2.779272096563e-08 1.066356928420e-05 -2.592093153374e-05 1.948804343924e-06 1.000000000000e-03 1.047197551197e-05 2.296917181371e-11 -7.380090138251e-11 9.292764891495e-11
103 2 3.578476377079e-03 3.045449193775e-03 1.037414199582e-02 -7.524875218090e-09 2.278777093006e-08 -4.861209073788e-09 -2.113196121545e-05 -8.558409381066e-06 -5.618756229267e-06 1.000000000000e-03 1.047197551197e-05 2.312899691020e-11 -4.418600356101e-11 2.380801389881e-12
104 2 4.816323933056e-03 3.641299248596e-03 1.442909326384e-02 -4.116093804829e-10 8.139248216931e-09 -7.876916967410e-10 4.771875898323e-06 -1.474789239997e-06 -2.446223931130e-06 1.000000000000e-03 1.047197551197e-05 2.514111311400e-11 -2.473985914767e-11 -3.517702820935e-12
105 2 5.673246840843e-03 6.108607258260e-03 1.210817080707e-02 -6.647943229735e-10 1.543031134314e-08 -3.696781666055e-09 8.090530648943e-06 -4.285481161818e-06 1.515244135248e-06 1.000000000000e-03 1.047197551197e-05 -5.254986041959e-12 -5.866351427955e-11 5.130010994579e-12
106 2 8.497445005221e-03 5.255460188168e-03 1.257527335045e-02 -2.476566612241e-09 1.075084916494e-08 -8.084248560508e-09 -9.385752853976e-06 8.383864119655e-06 4.756733552799e-06 1.000000000000e-03 1.047197551197e-05 8.935157931625e-12 -2.982354120468e-11 2.530924935248e-11
107 2 8.517631379728e-04 3.287534541085e-03 1.438840942342e-02 -3.676140518316e-09 9.276796783292e-09 -8.918173879466e-09 7.258740735948e-06 4.197831371698e-06 2.075058374524e-06 1.000000000000e-03 1.047197551197e-05 8.339277145619e-12 -2.724557974808e-11 2.865600971444e-11
108 2 7.104577665679e-03 6.325460880972e-03 1.327289258307e-02 -2.331658208513e-09 1.096802596198e-08 -4.187801147334e-09 1.122708515671e-08 3.635891921239e-06 1.229914540089e-06 1.000000000000e-03 1.047197551197e-05 1.887949740137e-11 -3.369273070430e-11 2.534214022537e-13
109 2 1.981316180917e-03 4.634404782752e-03 8.450730287590e-03 1.135197056783e-10 3.993519406731e-08 3.650108958630e-10 -1.323865935717e-05 1.327924291417e-05 -2.049793377810e-05 1.000000000000e-03 1.047197551197e-05 -2.656520582846e-12 -1.073866198604e-10 -1.306046442120e-12
110 2 4.583233848333e-03 2.784874294168e-03 8.802423084730e-03 -7.336457273281e-09 4.198806135038e-08 -1.623743294939e-08 3.906081441069e-05 2.004543604012e-05 2.985834339035e-06 1.000000000000e-03 1.047197551197e-05 8.601280674097e-12 -1.193890969195e-10 6.241823951331e-11
111 2 5.077212822366e-03 1.575633527404e-03 7.475487219710e-03 -1.546172826332e-08 4.304557485357e-08 -2.946320122204e-08 -1.879473047075e-05 -7.794036395952e-05 -8.595429438285e-05 1.000000000000e-03 1.047197551197e-05 4.961144818249e-11 -1.321093544098e-10 8.587064427414e-11
112 2 2.805008333646e-03 2.612024995751e-03 1.202754161768e-02 -5.941229584806e-09 2.286544516574e-08 -5.557017532434e-09 1.896689725823e-05 7.800620894273e-06 -2.347840556039e-06 1.000000000000e-03 1.047197551197e-05 1.279172807629e-11 -4.707245117581e-11 6.425977978800e-12
113 2 1.040193490891e-03 2.164308318754e-03 1.254405608433e-02 -3.604209692694e-09 1.346029069052e-08 -6.808001114799e-09 -1.507693395820e-06 -5.285425276675e-06 1.050191714134e-05 1.000000000000e-03 1.047197551197e-05 1.220244062488e-12 -3.912504226974e-11 3.185080243357e-12
114 2 3.883168045612e-03 2.867757272179e-03 6.435026088794e-03 -1.000286084316e-07 5.246784001099e-08 -2.954312204586e-07 -1.059458439310e-04 2.801720247940e-04 1.907069230536e-05 1.000000000000e-03 1.047197551197e-05 2.888146273512e-10 -1.421907271151e-10 8.358406902127e-10
115 2 5.759464825148e-03 3.825954571259e-03 7.737083019825e-03 -1.796455949431e-08 3.618274474594e-08 -4.362796703693e-08 -1.255793409534e-05 1.767160858440e-05 -2.975402085212e-05 1.000000000000e-03 1.047197551197e-05 6.256693410159e-11 -9.094729532556e-11 1.162331861674e-10
116 2 5.777523590345e-03 3.042958856044e-03 1.144382391575e-02 7.897678323583e-10 2.132574665339e-08 -1.551522225105e-08 -3.659651446285e-06 -4.478385573530e-06 -9.287197628997e-06 1.000000000000e-03 1.047197551197e-05 -1.771122910537e-12 -5.935801727682e-11 4.636877367777e-11
117 2 6.390196904286e-03 2.921492704066e-03 9.594163807386e-03 -5.631537333695e-09 2.031704865038e-08 -2.713418770532e-08 -1.346760060418e-05 1.840296515174e-05 6.399304264943e-06 1.000000000000e-03 1.047197551197e-05 1.330183739032e-11 -7.007208737492e-11 8.025794981543e-11
118 2 6.626373437767e-03 4.718195238279e-03 1.110982010763e-02 9.336399728017e-09 1.967256913953e-08 -2.958131175498e-09 7.948983448971e-06 -3.271029718257e-06 -1.506908062960e-06 1.000000000000e-03 1.047197551197e-05 -3.315241627463e-11 -5.544283215229e-11 1.281085028690e-11
119 2 6.634646212478e-03 3.399915795141e-03 1.385612873585e-02 -3.350317304385e-09 6.987072368778e-09 -2.996445270350e-09 -2.469765403676e-06 2.788873953384e-06 -2.165338941370e-06 1.000000000000e-03 1.047197551197e-05 -8.151211187225e-13 -1.859720848132e-11 1.487764654042e-11
120 2 3.414308182033e-03 4.100396426595e-03 1.312369234046e-02 5.496253257202e-10 1.129581299572e-08 -1.595112165626e-09 -5.967852569099e-06 2.678003090223e-06 -1.168989523915e-07 1.000000000000e-03 1.047197551197e-05 -4.072104606554e-12 -3.348580959332e-11 -3.455864903610e-12
121 2 2.299233072826e-03 2.670816471898e-03 7.469556209727e-03 4.856605021179e-08 5.384331766955e-08 -4.384005926264e-08 1.020993488705e-05 -3.302384845419e-06 4.062376499242e-05 1.000000000000e-03 1.047197551197e-05 -1.308023345006e-10 -1.531174163576e-10 1.388622883266e-10
122 2 5.811207996823e-03 6.143636646513e-03 1.454229403482e-02 -6.245391714763e-10 5.154333208096e-09 -1.674779164984e-09 5.209571923257e-06 3.232181015373e-08 1.430082622070e-06 1.000000000000e-03 1.047197551197e-05 -1.138817667638e-11 -1.558760852098e-11 8.183381962780e-12
123 2 3.333215066631e-03 4.885490983945e-03 1.025890687225e-02 1.669207590972e-08 3.477427661451e-08 -1.986544104595e-08 1.767959288660e-05 -4.651732613916e-05 -2.226458575704e-05 1.000000000000e-03 1.047197551197e-05 -4.904723699943e-11 -1.163432169236e-10 4.814289712542e-11
124 2 1.551757913676e-03 6.436691727834e-03 7.466749515641e-03 -2.547170903888e-08 1.467423314664e-08 -2.104135058158e-08 -2.939627120273e-05 9.865270757597e-05 -1.324681086112e-05 1.000000000000e-03 1.047197551197e-05 8.408891764090e-11 -6.045543821908e-11 4.101758153706e-11
125 2 3.703656100922e-03 5.459302372895e-03 8.283454613816e-03 2.430210245845e-08 -1.855404438229e-08 -4.614259362277e-08 -1.745716704653e-04 -3.354980694946e-05 -2.257720770499e-05 1.000000000000e-03 1.047197551197e-05 -7.225135674459e-11 6.453166064516e-11 1.303933943245e-10
126 2 5.089483887921e-03 4.600408925183e-03 9.351896069248e-03 1.858500936713e-08 3.334037983727e-08 -1.065724939920e-08 3.394411125529e-05 3.323625430538e-05 5.018253981914e-06 1.000000000000e-03 1.047197551197e-05 -4.699848815160e-11 -9.979570606482e-11 3.069954721889e-11
127 2 2.229535489929e-03 6.177705189498e-03 9.496628003720e-03 2.413184259734e-08 5.378637556751e-08 -2.013734495128e-08 -2.084491112595e-06 3.727008808568e-05 2.405807490872e-05 1.000000000000e-03 1.047197551197e-05 -6.462578559301e-11 -1.770119290122e-10 8.384354347950e-11
128 2 3.752937896340e-03 5.819136914596e-03 1.228779881918e-02 6.766667139572e-10 9.776605717056e-09 -8.305813044287e-09 2.359157023471e-06 -5.420342018656e-06 1.734490080871e-06 1.000000000000e-03 1.047197551197e-05 2.134563440712e-13 -3.386022716151e-11 2.199568265698e-11
129 2 2.956302723303e-03 7.308750828694e-03 1.132037306553e-02 5.530665234057e-11 1.663489693079e-08 8.799653618519e-09 1.317104117733e-05 -1.107873812671e-06 2.396941781761e-06 1.000000000000e-03 1.047197551197e-05 -4.252640657912e-12 -5.057344745388e-11 -3.369884409007e-11
130 2 5.895558459812e-03 1.341809167840e-03 1.046776573418e-02 -5.388663263621e-10 2.046267476020e-08 -1.775665666502e-08 5.054111428697e-06 -2.866009250546e-05 -9.699146802650e-06 1.000000000000e-03 1.047197551197e-05 -7.469899943154e-13 -6.630064862848e-11 5.484303969016e-11
131 2 7.765600106352e-03 1.552493149113e-03 1.030371694761e-02 -9.115994888644e-09 2.379034623789e-08 -1.937232068544e-08 -1.669097510517e-06 2.631710765460e-05 1.021827540998e-05 1.000000000000e-03 1.047197551197e-05 5.371950564093e-11 -4.521814284912e-11 5.216615336819e-11
132 2 1.432405066295e-03 3.134141796632e-03 9.522061297929e-03 1.262336862740e-08 2.074377008013e-08 -1.773312894558e-08 2.443982562996e-05 -1.315446859675e-05 2.482559697282e-05 1.000000000000e-03 1.047197551197e-05 -3.848406705122e-11 -7.161938334111e-11 6.378755684591e-11
133 2 6.610490961757e-03 1.853896626185e-03 1.266125185873e-02 -6.178799468895e-09 1.166221464054e-08 -7.963956396893e-09 6.247699941838e-06 -2.248771875177e-06 1.351098220657e-06 1.000000000000e-03 1.047197551197e-05 2.287165143335e-11 -3.778803669131e-11 2.478180067225e-11
134 2 5.934661858080e-03 6.966608686843e-03 9.876211693221e-03 -4.122310190662e-08 -9.404808510792e-09 -7.736476076232e-09 -9.782951912536e-06 -5.119662536964e-05 7.543245282900e-05 1.000000000000e-03 1.047197551197e-05 1.085646926032e-10 3.054847216650e-11 2.952917270351e-11
135 2 5.264786431157e-03 1.122222817017e-02 6.401633820863e-03 -1.861370830910e-09 1.101567604396e-07 -3.042178988602e-08 1.001363840386e-04 1.761188322456e-05 6.407106848375e-05 1.000000000000e-03 1.047197551197e-05 7.700760273604e-12 -3.240727943822e-10 9.323255886183e-11
136 2 3.702914962503e-03 1.044928892492e-02 5.627244356863e-03 6.833626986020e-09 1.546763652514e-08 -5.323759271614e-09 1.415761693691e-05 -4.501667363181e-05 -2.898202634995e-05 1.000000000000e-03 1.047197551197e-05 -7.127498024990e-12 -7.200204045631e-11 2.570378786067e-11
137 2 5.293489360800e-03 8.974736607344e-03 3.507698868525e-03 6.428623163427e-09 1.344997295798e-07 1.760117964725e-08 2.905130462954e-05 -3.995203908223e-05 -3.934409544977e-05 1.000000000000e-03 1.047197551197e-05 -1.085757764950e-11 -3.955256861411e-10 -5.906755911988e-11
138 2 2.722677014201e-03 8.163064987870e-03 3.787040545758e-03 1.197596353817e-07 -1.928672225844e-08 -1.286858724899e-07 3.412441221936e-05 -1.950058172316e-04 1.252191845947e-04 1.000000000000e-03 1.047197551197e-05 -3.531962258131e-10 4.096835804081e-11 3.481704010036e-10
139 2 1.447215449478e-03 1.382029261593e-02 2.391115778406e-03 9.721655517366e-09 2.809743206246e-08 2.652179369935e-08 -1.113574930202e-05 9.364588475195e-06 -2.844730883936e-05 1.000000000000e-03 1.047197551197e-05 -2.062583335963e-11 -6.919635285492e-11 -9.546743204596e-11
140 2 4.811148827490e-03 1.447932828219e-02 4.897858050643e-03 1.454706194463e-07 2.064598742409e-07 -3.115302053673e-07 -3.886841841244e-04 1.526613538019e-04 -7.012276531590e-05 1.000000000000e-03 1.047197551197e-05 -4.072292429361e-10 -5.884389470447e-10 8.984875032367e-10
141 2 6.085708993288e-03 1.277694353231e-02 5.541034032421e-03 8.291020067144e-09 1.409723028466e-07 -3.546217386955e-08 -5.156202465907e-05 2.572787598168e-05 -9.668712595750e-05 1.000000000000e-03 1.047197551197e-05 1.936051846800e-11 -4.248097574066e-10 1.012026099635e-10
142 2 2.987196223646e-03 9.169061675456e-03 2.133988859959e-03 4.427101368333e-08 1.131768811053e-07 -3.072030471223e-08 7.482011257411e-05 6.037693831478e-05 1.951573306074e-04 1.000000000000e-03 1.047197551197e-05 -1.233263386035e-10 -3.235129139407e-10 8.830865316957e-11
143 2 3.727708568040e-03 1.385311602206e-02 3.429307167030e-03 5.758961453204e-09 6.790568239074e-08 -9.291899086358e-08 1.306488473805e-04 6.168905889212e-05 3.100063462818e-05 1.000000000000e-03 1.047197551197e-05 -8.627436276788e-12 -2.029083369001e-10 2.520232760130e-10
144 2 4.110225265308e-03 8.751641546443e-04 9.481291715455e-04 -3.475187569519e-09 5.288030096670e-08 -6.181699224843e-08 4.493985808170e-05 9.657276439108e-06 7.227212533225e-05 1.000000000000e-03 1.047197551197e-05 -1.691805084827e-12 -1.344144381183e-10 1.636846260839e-10
145 2 2.249514075744e-03 1.510900487655e-02 3.790704243212e-03 4.660265020072e-08 5.483890666485e-08 1.590492672927e-08 -3.900354075644e-06 4.498231630729e-05 -4.465509615789e-06 1.000000000000e-03 1.047197551197e-05 -1.279872280125e-10 -1.585182405282e-10 -4.250711251978e-11
146 2 1.879097538779e-03 1.043859245838e-02 4.157481000249e-03 1.069845147810e-08 3.339124918468e-08 -1.167835406531e-09 3.791680884426e-05 -3.204220840344e-05 1.738202815605e-05 1.000000000000e-03 1.047197551197e-05 -9.739841463964e-12 -1.015684513614e-10 -1.750832512296e-11
147 2 3.462963377872e-03 1.519690587681e-02 7.702056901500e-03 6.750807577577e-08 1.148326456736e-07 3.579805711283e-08 3.250832691242e-05 -6.146161253758e-06 2.273756367256e-05 1.000000000000e-03 1.047197551197e-05 -2.027814892952e-10 -3.178430183198e-10 -1.179349642295e-10
148 2 2.864469347573e-03 1.120321436294e-02 2.670077989680e-03 8.826361976671e-11 6.104357550014e-08 7.855925582804e-09 -3.846373317139e-05 9.585015297725e-06 2.541270122080e-05 1.000000000000e-03 1.047197551197e-05 -4.678285453192e-13 -1.748499347205e-10 -1.662816866100e-11
149 2 2.132175061775e-03 1.325287563335e-02 4.054687101614e-03 4.334510315161e-08 2.954713218641e-08 2.584121285532e-09 -4.430088460384e-07 7.083207079365e-05 -3.346604468780e-05 1.000000000000e-03 1.047197551197e-05 -7.915683969360e-11 -1.074028086948e-10 -3.196092672475e-11
150 2 5.115417590460e-03 1.518729572586e-02 6.662006084659e-03 -3.528929394825e-08 1.792535597948e-07 -3.055871670775e-07 3.853958571848e-04 -4.165021658755e-04 -1.004416481977e-04 1.000000000000e-03 1.047197551197e-05 8.899538727454e-11 -5.057048901139e-10 8.496840113139e-10
151 2 1.272434612384e-03 1.053233773846e-02 5.957115667899e-03 -1.370463262380e-09 2.119711332534e-08 -1.152688513002e-08 -1.745798439154e-05 2.190251177648e-05 -2.514043986773e-05 1.000000000000e-03 1.047197551197e-05 -1.139015569929e-11 -5.642524356907e-11 3.282934906464e-11
152 2 6.919074852921e-03 9.236179631623e-03 4.407520188751e-03 -2.128899834261e-08 2.915523496200e-08 1.860281563157e-08 -1.229918903523e-05 1.961345597098e-05 -6.232114967850e-05 1.000000000000e-03 1.047197551197e-05 3.167910158440e-11 -7.599312261380e-11 -7.482790189153e-11
153 2 6.554594736685e-03 9.779575947826e-03 6.213863605839e-03 -4.335633555180e-08 3.624199050678e-08 1.460004832477e-08 1.566660493904e-05 -1.491907939922e-05 5.196484558347e-05 1.000000000000e-03 1.047197551197e-05 1.030413099574e-10 -8.951594316463e-11 -4.340442127056e-11
154 2 6.535554563269e-03 1.054102736620e-02 2.892006722495e-03 2.566570826792e-79 4.939029650001e-80 -4.820685329275e-80 1.748016147562e+03 8.612421149216e+02 6.171345581071e+02 1.000000000000e-03 1.047197551197e-05 -2.569024064064e-80 -4.943750584058e-81 4.825293144810e-81
155 2 5.700210215969e-03 7.760347516383e-05 3.082698809483e-03 -2.283322898711e-09 1.479818538514e-07 -6.999950683845e-08 1.906282118767e-05 1.160543880862e-04 4.656920463687e-05 1.000000000000e-03 1.047197551197e-05 -1.917597426672e-13 -3.948928896912e-10 2.225931839439e-10
156 2 2.974848623607e-03 1.198730769763e-02 6.610879851889e-03 9.567455219877e-08 6.719867141134e-08 -5.936236518616e-08 -2.157842757073e-05 -1.797274151450e-05 -9.827794743169e-05 1.000000000000e-03 1.047197551197e-05 -2.396867848876e-10 -1.948323842270e-10 1.862402503161e-10
157 2 4.445352303023e-03 1.322175778262e-02 6.284422587397e-03 4.687987027033e-08 2.762791329454e-07 -7.259368838747e-08 2.005437921833e-04 -8.669240064063e-05 -7.737862614736e-05 1.000000000000e-03 1.047197551197e-05 -1.424323896642e-10 -7.770715256463e-10 2.100466752171e-10
158 2 4.420386732554e-03 1.463948799074e-02 1.924393639429e-03 -1.649353539539e-08 1.121496997839e-07 -7.314403429219e-08 -9.637943155758e-05 -4.698903802647e-05 -3.293188943110e-05 1.000000000000e-03 1.047197551197e-05 5.519126106366e-11 -3.292319789134e-10 2.251210814847e-10
159 2 2.347299068578e-03 1.687083314929e-03 3.726015001087e-03 -1.560618988580e-07 1.114042617024e-07 2.616317599934e-08 -6.217974063351e-06 8.996457808300e-05 2.044032662462e-04 1.000000000000e-03 1.047197551197e-05 4.289325851848e-10 -3.147629546298e-10 -7.160072995309e-11
160 2 4.081771214088e-03 1.312482657977e-02 8.625519963440e-04 -5.568481105292e-09 2.733492671259e-08 -1.687454703872e-09 -1.294934951909e-05 -2.983706443527e-06 9.232776511066e-06 1.000000000000e-03 1.047197551197e-05 2.987864173658e-11 -8.910373040774e-11 1.068411712280e-11
161 2 6.984570843427e-03 1.441489562203e-02 4.948171484364e-03 -2.408379952866e-08 1.008228580741e-07 -1.178600961976e-07 -6.258429032091e-05 -2.834120770831e-05 9.808976597682e-05 1.000000000000e-03 1.047197551197e-05 7.184972019664e-11 -2.819561121489e-10 3.259866769498e-10
162 2 3.324376414261e-03 1.204790364584e-02 4.742020822869e-03 5.537532844539e-08 2.579190947305e-11 -5.235368372373e-08 -4.539057189917e-05 5.244896656458e-05 -2.584572448249e-05 1.000000000000e-03 1.047197551197e-05 -1.514132488712e-10 2.122005149525e-11 1.295805302382e-10
163 2 1.962091157164e-03 1.083083722137e-02 7.712496987600e-03 9.435630482311e-09 6.840325093785e-08 -2.459780857607e-08 -1.118143513289e-05 -1.366805075820e-05 3.694716846799e-05 1.000000000000e-03 1.047197551197e-05 -4.951676932016e-11 -1.886749977624e-10 6.629891166012e-11
164 2 5.924868686983e-03 8.728558266166e-03 7.508336608858e-03 -2.850302252138e-08 2.505809596369e-08 -5.016873749375e-09 -5.429382070087e-06 5.650468535819e-06 -3.029414924089e-05 1.000000000000e-03 1.047197551197e-05 7.517307921303e-11 -5.426849029486e-11 1.211983203860e-12
165 2 2.699496569319e-03 1.393616940990e-02 6.459776679298e-03 2.805731792875e-08 1.166399524422e-07 4.777706322001e-08 5.118088085031e-05 1.415435891603e-04 1.557902098263e-04 1.000000000000e-03 1.047197551197e-05 -8.177616254479e-11 -3.132298239103e-10 -1.213256022014e-10
166 2 5.769988756542e-03 9.426227540206e-03 9.259900762668e-04 5.251119911503e-10 7.028781566932e-08 -1.055445482383e-08 -4.327191359214e-05 -1.928762014887e-05 3.317215566716e-05 1.000000000000e-03 1.047197551197e-05 -5.001955134481e-12 -1.940081000818e-10 2.081921673471e-11
167 2 5.003335575429e-03 9.047765271212e-03 5.374839828132e-03 -2.224077016336e-08 2.348602361840e-08 -1.158263024574e-08 5.514778383929e-05 7.003504799343e-07 9.261456531147e-06 1.000000000000e-03 1.047197551197e-05 4.763723675706e-11 -6.432540295796e-11 3.804288192943e-11
168 2 5.418680375494e-03 1.194865014869e-02 1.528644715579e-03 4.767665996599e-09 5.873511366836e-08 -1.477402237065e-08 9.564612981271e-06 1.847475708912e-06 2.202133626772e-06 1.000000000000e-03 1.047197551197e-05 -2.706773163875e-11 -1.558534678451e-10 4.049923422738e-11
169 2 4.402476136749e-03 7.842177453297e-03 6.755709759535e-03 -2.286824999204e-08 2.973627839779e-08 1.077020941886e-08 -6.020344483494e-05 -1.322746972562e-05 1.301620380838e-05 1.000000000000e-03 1.047197551197e-05 7.363084394834e-11 -7.850753098594e-11 -2.289937283896e-12
170 2 1.493714068005e-02 1.347651556351e-02 8.317484439780e-04 1.432397948595e-08 -4.608883647331e-09 7.479286248909e-09 8.799004493582e-06 1.277503656565e-05 -1.661942049532e-05 1.000000000000e-03 1.047197551197e-05 -4.138191688731e-11 -3.191154290407e-12 -4.100884962108e-11
171 2 3.109016095711e-03 8.674459656818e-03 5.609775737124e-03 -3.391932743579e-08 1.143019750823e-08 -3.988291832493e-08 -2.648066530408e-06 1.079708221716e-05 -1.923531115853e-05 1.000000000000e-03 1.047197551197e-05 9.278568493483e-11 -3.341783323725e-11 1.129300886482e-10
172 2 5.251410683060e-04 8.781844593838e-03 4.047225810982e-03 2.539934377514e-82 -3.280958472144e-82 -2.310827639034e-82 -8.283436195259e+02 -2.292145325117e+03 1.741754868546e+03 1.000000000000e-03 1.047197551197e-05 -2.542362154538e-83 3.284094551433e-83 2.313036426118e-83
173 2 3.971854846265e-03 7.031347281411e-03 4.738970193222e-03 -3.213308008637e-08 6.051769396577e-08 4.618201135521e-08 -7.030922687687e-05 -3.629467744951e-05 -8.028672595345e-06 1.000000000000e-03 1.047197551197e-05 9.567190348989e-11 -1.695152729906e-10 -1.178867613124e-10
174 2 5.777670332282e-03 1.381144476997e-02 8.184250577059e-04 -1.909927190149e-08 5.578198656629e-08 1.322687471191e-08 -1.907408719812e-05 -2.331264782724e-05 3.125248130557e-05 1.000000000000e-03 1.047197551197e-05 5.502937935440e-11 -1.713750470413e-10 2.199880414108e-11
175 2 4.654988981639e-03 1.030715702648e-02 2.248470326799e-03 1.176900793251e-08 9.477043886325e-08 -1.609955781728e-09 -4.042635077681e-05 3.582953883236e-05 7.396467371834e-06 1.000000000000e-03 1.047197551197e-05 -4.509774159152e-11 -2.644271226035e-10 7.139362336397e-12
176 2 5.119559646023e-03 1.263518599207e-02 3.887279248785e-03 -3.646357916053e-10 2.856393598857e-08 -2.667624478297e-08 -6.924513293921e-05 -5.868747997343e-05 9.545087804539e-05 1.000000000000e-03 1.047197551197e-05 -1.871308471789e-11 -7.694807500734e-11 6.920962431535e-11
177 2 5.304008429639e-03 6.381747351152e-03 5.909955957091e-03 -2.963284203977e-08 5.597365136565e-08 1.742114507224e-08 5.956363970896e-05 4.403100708712e-05 9.943104974672e-06 1.000000000000e-03 1.047197551197e-05 9.228668426416e-11 -1.669623517356e-10 -5.611240666748e-11
178 2 3.828262378052e-03 6.237082685364e-04 3.172253216206e-03 -4.342320237051e-08 2.126365911514e-07 -1.529624349986e-07 1.009168975308e-05 1.520921024259e-04 9.516518561389e-05 1.000000000000e-03 1.047197551197e-05 1.367929316573e-10 -5.986544823049e-10 4.483410689604e-10
179 2 1.347956788463e-03 7.811933639782e-03 1.697305161868e-03 -9.478444928937e-09 -1.221387862068e-08 -8.057832722887e-09 -7.679268850553e-05 -1.109800715678e-05 1.390369690365e-05 1.000000000000e-03 1.047197551197e-05 2.907410794695e-11 3.037124122841e-11 1.534744517329e-11
180 2 7.122756159368e-03 1.122092677674e-02 5.311798632894e-03 -6.335426951375e-08 3.899092774578e-08 6.682867111342e-09 -2.496045679763e-05 -2.741089313810e-06 -2.020689609180e-05 1.000000000000e-03 1.047197551197e-05 1.817080741386e-10 -6.581292246682e-11 -4.586309621601e-11
181 2 1.739013702281e-03 1.157254856663e-02 9.963048222870e-04 -5.110910901740e-09 6.177166953837e-09 -9.252148790023e-09 -1.344321317252e-05 -4.086282262471e-06 -3.604578521895e-06 1.000000000000e-03 1.047197551197e-05 5.947319398285e-12 -1.517047940171e-11 2.795556174536e-11
182 2 2.324499871634e-03 2.996381904275e-04 1.996766148528e-03 -1.251505984097e-07 5.481540976081e-10 1.533462638990e-08 -1.677875829979e-05 5.459517548443e-05 1.928773587977e-04 1.000000000000e-03 1.047197551197e-05 3.660981597188e-10 -6.560779563701e-12 -2.170977510029e-11
183 2 2.107990071439e-03 5.148713220100e-04 6.540964011250e-03 1.294018262089e-07 -5.793623976788e-08 -6.954887409160e-08 -9.975256261097e-05 -1.523911069262e-04 1.276828699691e-04 1.000000000000e-03 1.047197551197e-05 -3.668346173831e-10 1.348208425601e-10 2.563731244856e-10
184 2 4.448019163578e-03 7.414613327211e-03 2.806778151921e-03 -1.499208836240e-07 3.853906893801e-07 8.410736197887e-09 -2.679381095508e-05 -6.846237378720e-05 -2.265051917452e-04 1.000000000000e-03 1.047197551197e-05 4.314114953425e-10 -1.093284198563e-09 -1.842350120578e-11
185 2 5.255134242080e-03 1.077911982296e-02 4.459575474531e-03 4.156990910797e-08 3.867329565763e-08 2.626090465403e-08 2.145879237660e-05 7.657705917749e-06 -2.510201471904e-05 1.000000000000e-03 1.047197551197e-05 -1.080731889885e-10 -1.099225102780e-10 -7.844799343640e-11
186 2 3.354727834800e-03 4.256079636476e-04 5.118599428249e-03 1.322796235440e-07 2.275299839971e-07 -1.323396069521e-07 4.830304114001e-05 2.092928267622e-04 3.542165148006e-04 1.000000000000e-03 1.047197551197e-05 -3.610678747453e-10 -6.587484761942e-10 3.543134059897e-10
187 2 1.225616086391e-03 1.332805987707e-03 8.952911437965e-04 -9.176312012074e-08 -6.587381698717e-09 -6.200768497615e-09 -1.965339161344e-06 -6.853066515709e-05 -2.041080732274e-04 1.000000000000e-03 1.047197551197e-05 2.429584545568e-10 3.715024021008e-11 2.071627049774e-12
188 2 1.591336761476e-03 9.621059329793e-03 9.047726319001e-04 -1.396430897953e-08 -4.720046423382e-09 -1.293306393927e-09 7.908375028314e-06 -2.413548821848e-05 1.587042605118e-05 1.000000000000e-03 1.047197551197e-05 3.750621406218e-11 1.598286338544e-11 3.774014430234e-12
189 2 3.442929047209e-03 6.200250472706e-03 6.441212257731e-03 -7.250799959350e-09 3.261262346298e-08 3.516453179702e-08 6.824207799653e-05 2.398659775996e-05 -2.389509057441e-05 1.000000000000e-03 1.047197551197e-05 2.732286627093e-12 -1.023473627511e-10 -1.041841277032e-10
190 2 6.721281800283e-03 7.837459119001e-03 5.849345760922e-03 -2.334895347205e-08 4.300446548576e-08 -4.418049162735e-08 1.459906521935e-05 -2.388698902301e-05 4.879971577790e-05 1.000000000000e-03 1.047197551197e-05 6.694744340934e-11 -1.188157042170e-10 1.197640592939e-10
191 2 3.643118365378e-03 1.127152691185e-02 9.173667159835e-04 -3.069801646720e-09 2.506710271971e-08 2.256151848483e-09 -1.578094429217e-05 -4.707745912432e-06 1.115974821650e-05 1.000000000000e-03 1.047197551197e-05 1.712746088120e-11 -7.126785390603e-11 -7.465523866953e-13
192 2 4.239245534743e-03 8.178057866635e-03 9.812275803659e-04 1.500950489271e-08 1.596298042428e-07 1.140877257753e-09 -1.535135925813e-04 -9.312579658987e-06 -8.512015029150e-05 1.000000000000e-03 1.047197551197e-05 -4.325967149856e-11 -4.568567236900e-10 -4.477447877945e-12
193 2 4.487561133297e-05 1.494178357370e-02 1.936240863571e-03 -3.700308016424e-09 4.859809056423e-09 1.718863469443e-08 -6.489989347191e-06 -1.095263331679e-06 5.216556756240e-05 1.000000000000e-03 1.047197551197e-05 2.090771923718e-11 -2.667113818979e-11 -4.784601004993e-11
194 2 5.855064953978e-03 7.240445345758e-03 4.192102371214e-03 -8.872532560655e-08 8.484469311545e-08 -1.951148967526e-08 3.796429006611e-05 1.070475285365e-04 -4.254461290627e-05 1.000000000000e-03 1.047197551197e-05 2.470787160149e-10 -2.367424660746e-10 5.181390762317e-11
195 2 3.652185584336e-03 9.842476362200e-03 3.818985081298e-03 2.408400849075e-08 8.321615253574e-08 4.776447107469e-09 3.963934919032e-05 1.229220637427e-06 1.977972416642e-05 1.000000000000e-03 1.047197551197e-05 -8.451046560836e-11 -2.306760405600e-10 -2.208104611216e-11
196 2 5.066746791511e-03 9.926209067028e-04 4.547356928858e-03 2.696056642191e-08 3.754535269937e-07 -2.703623923690e-07 -3.382457957786e-04 -7.710852501599e-05 -1.021763834359e-04 1.000000000000e-03 1.047197551197e-05 -8.067272004281e-11 -1.073700518546e-09 7.121173094222e-10
197 2 6.060398102345e-03 1.352309628244e-02 2.501295825557e-03 -1.291778326237e-08 6.764883058861e-08 -1.084031779755e-08 1.903629760937e-05 2.561610938057e-05 4.538557299404e-05 1.000000000000e-03 1.047197551197e-05 4.724544609647e-11 -1.630306903427e-10 -3.341495651192e-11
198 2 6.664167902911e-03 8.432327399129e-03 2.331503331524e-03 -5.351029681865e-09 1.179442032126e-07 -2.316403180775e-09 2.341317417653e-05 3.730570648500e-05 -1.789608368752e-05 1.000000000000e-03 1.047197551197e-05 3.176717704749e-11 -3.320906821702e-10 -4.815583447688e-12
199 2 6.059806931649e-03 1.286940750294e-02 7.444391648223e-03 2.173601424526e-08 1.201626734351e-07 -4.835014878152e-08 6.419606167945e-05 -3.599021642948e-06 1.438666994062e-06 1.000000000000e-03 1.047197551197e-05 -4.838927469234e-11 -3.383024229765e-10 8.431006764050e-11
200 2 2.508246684328e-03 1.410556022837e-02 8.896497107644e-04 -1.876560202478e-09 7.289025888421e-09 6.676224856657e-09 2.318699961836e-06 9.328979357161e-06 2.871282870985e-06 1.000000000000e-03 1.047197551197e-05 -1.442561764491e-11 -1.841218540456e-11 -1.059173386774e-11
201 2 2.950980249432e-03 1.121056266675e-02 1.292351883489e-02 1.930316637899e-10 1.381037284470e-08 -9.952786001066e-09 5.528170164463e-06 -4.535355193121e-07 1.383639774129e-06 1.000000000000e-03 1.047197551197e-05 6.801549428964e-12 -3.191397137978e-11 2.449897359790e-11
202 2 4.824400197619e-03 1.126175400936e-02 1.196321742532e-02 -5.763381350454e-09 9.076718802771e-09 -7.627238664369e-09 -2.089948946091e-07 -4.965144938237e-06 -1.093422012907e-05 1.000000000000e-03 1.047197551197e-05 1.787522014281e-11 -2.510146394516e-11 3.220980545232e-11
203 2 5.482112114142e-03 1.515157690848e-02 1.133887434538e-02 -3.466992860546e-09 1.274807887873e-08 -2.831200969468e-08 7.211261073327e-06 3.071565723479e-05 4.874816915087e-06 1.000000000000e-03 1.047197551197e-05 5.274327278720e-12 -3.850007046470e-11 8.621045868419e-11
204 2 5.672336175678e-03 1.228628322138e-02 9.153352849616e-03 -4.268107164842e-09 4.602405767582e-08 -5.585813873552e-08 2.453416568791e-05 -3.373854598594e-05 -4.869764539809e-05 1.000000000000e-03 1.047197551197e-05 -4.574210693393e-11 -1.194459179337e-10 2.078544409110e-10
205 2 3.318119810134e-03 2.663241757167e-04 1.377767298267e-02 -6.330008969357e-09 1.158010397535e-08 -9.613414206224e-09 -3.986942587301e-06 -1.854717674308e-06 1.134420287702e-06 1.000000000000e-03 1.047197551197e-05 1.450217099827e-11 -4.138671258763e-11 3.000806092135e-11
206 2 1.111716554743e-03 8.759792914635e-03 1.449342085170e-02 -1.081113344444e-09 6.898895763534e-09 -1.724989465246e-09 4.336013196677e-06 1.063919973517e-06 -4.136681651349e-06 1.000000000000e-03 1.047197551197e-05 1.009777414635e-12 -2.056463437040e-11 4.628319047046e-12
207 2 1.827716469628e-03 1.063907621646e-02 1.140766820234e-02 -2.077511549039e-09 2.146116219619e-08 -4.766333493664e-09 1.418684996703e-06 6.282605567512e-06 -8.248841633777e-06 1.000000000000e-03 1.047197551197e-05 4.618508872379e-11 -8.486048747087e-11 7.279000473548e-12
208 2 6.899659588162e-03 9.307952729996e-03 8.969550371499e-03 -1.250089823397e-08 1.946394971845e-08 -1.783191031997e-08 -6.947387072783e-06 1.265440832417e-06 -5.270706809218e-06 1.000000000000e-03 1.047197551197e-05 5.001442655386e-11 -5.050044793607e-11 4.903093656732e-11
209 2 2.037418377109e-03 6.979431509614e-04 1.192580179225e-02 -1.804320033030e-09 1.857352537767e-08 -1.659011541216e-08 9.556998125190e-06 1.853820914759e-05 -6.461128134412e-06 1.000000000000e-03 1.047197551197e-05 -3.915325823969e-13 -4.121401949810e-11 6.211151079772e-11
210 2 2.127537447066e-03 1.217990872284e-02 1.440332034711e-02 -1.664105526696e-09 7.141532711502e-09 -6.756240139338e-09 2.687109284899e-06 1.971272020393e-06 1.251597662336e-06 1.000000000000e-03 1.047197551197e-05 2.393018675518e-11 2.074613115342e-11 2.084539886298e-11
211 2 4.977022380432e-03 1.192734490434e-02 1.450157678362e-02 -5.470202115994e-10 9.115633756570e-09 -3.737376823371e-09 7.620527105453e-06 -4.975192449266e-07 2.923639767471e-06 1.000000000000e-03 1.047197551197e-05 9.895097446921e-12 -2.019314093192e-11 1.029224482313e-11
212 2 3.306403745353e-03 1.052086990487e-02 9.470901822599e-03 2.055143890703e-09 1.319843996864e-08 -3.173716884733e-08 8.605482903060e-05 -5.094296670480e-05 2.936068934765e-05 1.000000000000e-03 1.047197551197e-05 -9.729906881243e-13 -3.618489952089e-11 8.932967755203e-11
213 2 7.495115502580e-03 1.021917466146e-02 1.064342387259e-02 -1.223978973364e-08 1.462808693090e-08 -1.988540943816e-08 -2.101354615476e-06 -3.990403926592e-06 5.018851387241e-06 1.000000000000e-03 1.047197551197e-05 6.871431480833e-11 -8.929681257740e-11 6.346283124719e-11
214 2 6.676720794272e-03 1.389409005429e-02 9.188937328507e-03 3.261124587216e-08 2.173455639584e-08 -2.989209928846e-08 2.157796708045e-06 3.724477701391e-05 9.237331354667e-06 1.000000000000e-03 1.047197551197e-05 -8.685385772935e-11 -5.027316660028e-11 9.216073905802e-11
215 2 2.424638668579e-03 1.638932782860e-04 1.016926289479e-02 -3.225417904666e-09 2.846698734385e-08 -3.192863344594e-08 -4.932756746151e-06 -1.752259878934e-05 2.713054197477e-05 1.000000000000e-03 1.047197551197e-05 3.251175064043e-11 -1.070369759185e-10 7.227951920661e-11
216 2 7.090265399051e-03 7.501063481477e-03 8.433718836235e-03 -2.403733985132e-08 1.771189914323e-08 -3.841258057576e-09 -1.432266430299e-05 1.663721443361e-05 2.168704441066e-06 1.000000000000e-03 1.047197551197e-05 7.414460797251e-11 -3.411837470151e-11 7.060146619989e-12
217 2 1.680100220215e-04 1.129226364654e-02 8.462130108231e-03 3.793688908634e-09 2.407579231700e-08 -1.493463014689e-08 -8.881852237369e-06 -1.378542984787e-05 1.713349687450e-05 1.000000000000e-03 1.047197551197e-05 -2.647878149683e-12 -6.801391290204e-11 3.160441798575e-11
218 2 3.110637505894e-03 7.283654721227e-03 8.270701863047e-03 6.620995992176e-09 -9.623083658536e-10 -1.185040986402e-07 9.264283130032e-05 3.083965047484e-05 3.436841116737e-05 1.000000000000e-03 1.047197551197e-05 -2.777443955994e-11 -1.390779766403e-11 3.155276401323e-10
219 2 4.698646815059e-03 7.752784214389e-03 1.187859549097e-02 -5.399719763866e-10 1.284319246564e-08 -4.991330939994e-11 5.653463156390e-07 9.671423131900e-06 -3.125184620166e-06 1.000000000000e-03 1.047197551197e-05 -8.465316659403e-12 -4.953547873311e-11 -1.397894167392e-12
220 2 4.417655510857e-03 6.987735150486e-03 1.360619946594e-02 -5.803118865248e-10 9.089646373487e-09 -2.348751217459e-09 6.226300885184e-07 -2.437698108653e-06 -2.895172642774e-06 1.000000000000e-03 1.047197551197e-05 1.382165771848e-11 -2.976281457680e-11 4.505815404601e-12
221 2 2.059954189537e-03 1.028700647672e-02 1.428691223915e-02 8.746930399383e-10 8.638508212657e-09 -6.387518927045e-09 -5.178521491561e-06 1.416314799292e-06 2.717228697525e-06 1.000000000000e-03 1.047197551197e-05 -4.656780689434e-13 -2.722697448610e-11 2.069356489343e-11
222 2 3.110383293449e-03 1.436278839117e-03 8.716519826527e-03 2.400199296223e-08 7.569096308328e-08 -9.396092413075e-09 -2.682949041778e-05 -6.691897504266e-05 -1.963249442911e-05 1.000000000000e-03 1.047197551197e-05 -5.985713678806e-11 -2.199089929976e-10 2.165416854612e-11
223 2 4.692548219153e-03 1.285105536859e-02 1.054872937119e-02 -6.650942081676e-09 2.480929247509e-08 -4.074907767900e-08 2.212181936523e-05 1.985070539526e-05 8.166332175362e-06 1.000000000000e-03 1.047197551197e-05 2.558376936120e-11 -1.037087186108e-10 1.118900087221e-10
224 2 3.844435354526e-03 1.402244485399e-02 1.176481202841e-02 3.057206397090e-09 9.848743714397e-09 -1.206282289113e-08 2.809840181006e-06 9.820108963480e-06 2.997711746788e-06 1.000000000000e-03 1.047197551197e-05 6.516046362927e-12 -3.922985602133e-11 -2.219306260094e-13
225 2 6.388106870641e-03 1.355241637285e-02 1.120278486851e-02 -6.342094107393e-09 1.727314658534e-08 -3.911152779445e-08 -7.151732010990e-06 -1.093031516099e-05 -7.197702186928e-06 1.000000000000e-03 1.047197551197e-05 1.536839756149e-11 -6.246743150873e-11 1.102135742431e-10
226 2 3.814220020345e-03 1.054060541793e-02 7.548011094578e-03 9.634416256770e-09 4.358454186617e-08 -2.000805946439e-08 -5.214249289691e-05 4.385663821792e-05 -3.787908321765e-05 1.000000000000e-03 1.047197551197e-05 2.198087924273e-11 -9.012412544222e-11 6.657402533981e-11
227 2 1.712676912052e-03 8.477557189842e-03 1.206043087199e-02 -3.457975215297e-09 1.571578345209e-08 2.804367777282e-09 -3.773154012646e-06 -1.329249205386e-05 -6.644386084912e-06 1.000000000000e-03 1.047197551197e-05 -2.216769963207e-12 -4.171775590136e-11 -3.875652107658e-12
228 2 3.063249853395e-03 1.343972970349e-02 8.396773558560e-03 3.002363815168e-08 6.982492174663e-08 -4.727606736336e-08 6.990758387887e-05 2.678157747854e-05 -4.456881734549e-05 1.000000000000e-03 1.047197551197e-05 -5.669998456443e-11 -2.347217793039e-10 1.275641767275e-10
229 2 6.320386035935e-03 8.119270731481e-03 1.349064252218e-02 -2.133823042360e-09 1.067915347811e-08 -7.040221647791e-09 9.186038924753e-08 2.593741392811e-06 -1.382495276320e-06 1.000000000000e-03 1.047197551197e-05 2.883151004054e-13 -3.005082842171e-11 2.361728100440e-11
230 2 1.348195370868e-03 7.746746475335e-03 8.795225646961e-03 1.240317222664e-08 2.688063985481e-08 -5.675787866419e-09 -1.707046357386e-06 -1.368003835660e-05 3.968901245127e-06 1.000000000000e-03 1.047197551197e-05 -4.480283906839e-11 -5.530910770788e-11 2.386418681407e-11
231 2 1.998399015347e-03 9.084465976928e-03 1.017899618754e-02 -5.328390528995e-09 2.072229976872e-08 -5.782930747164e-09 6.372363549586e-06 -1.635323818432e-05 -9.854804573187e-06 1.000000000000e-03 1.047197551197e-05 1.605089147934e-11 -6.195549045840e-11 9.090882989671e-12
232 2 4.346471097201e-03 1.225397741561e-02 7.915356805095e-03 2.370887274430e-08 7.421478551943e-08 -9.976245752285e-08 -2.073842391189e-05 1.960207258747e-06 4.253275393965e-05 1.000000000000e-03 1.047197551197e-05 -1.023877687656e-10 -2.009756080357e-10 2.554370662674e-10
233 2 3.231980213361e-03 1.184579198616e-02 1.116416759026e-02 -1.520298239570e-10 1.332294646343e-08 -1.844106848776e-08 -1.423625588075e-05 3.120520280466e-06 1.289268913700e-06 1.000000000000e-03 1.047197551197e-05 3.432567124309e-12 -5.210137678792e-11 5.090146635021e-11
234 2 6.452644254666e-03 1.172088071350e-02 1.068864958394e-02 -2.222781059496e-08 1.393698868884e-08 -2.653457372066e-08 -7.860378890033e-06 1.187163507630e-05 1.110608278388e-06 1.000000000000e-03 1.047197551197e-05 4.462605196487e-11 2.432702144643e-11 1.022358927835e-10
235 2 3.972030992100e-03 1.033119185528e-02 1.436608998563e-02 -1.400783062846e-10 9.066536845012e-09 -5.803799732248e-09 -7.113604672928e-06 -2.475524309381e-06 -3.125391114857e-06 1.000000000000e-03 1.047197551197e-05 1.148436854522e-12 -2.166752988244e-11 1.718715649622e-11
236 2 4.984905070767e-03 9.414630522679e-03 1.278549193214e-02 -6.735479643953e-10 1.115609613584e-08 -2.904499564195e-09 -2.035514265398e-06 -1.687164899960e-06 -8.293701843485e-07 1.000000000000e-03 1.047197551197e-05 -5.965629604618e-12 -3.185619355831e-11 1.389579030202e-11
237 2 5.303777226445e-03 1.416608286154e-02 1.286559779163e-02 8.467190584250e-09 9.734360991431e-09 -1.342019778613e-08 -7.038241441747e-06 -9.318293471877e-06 -6.031418915884e-06 1.000000000000e-03 1.047197551197e-05 -1.942955688962e-11 -5.489344747742e-12 1.040401511817e-11
238 2 2.287931354361e-03 1.438576364154e-02 1.273668135417e-02 7.487337474322e-10 9.989936670543e-09 -1.141364356502e-08 -4.877029701791e-06 -9.041616961641e-06 2.958163155954e-07 1.000000000000e-03 1.047197551197e-05 -3.868195964337e-11 -6.982089131170e-12 5.819841941049e-11
239 2 3.284733550233e-03 8.558499360967e-03 1.321197338770e-02 -3.727169123994e-09 1.165780474213e-08 5.076764382009e-09 1.985666419297e-06 9.222431960374e-06 -4.079720190362e-07 1.000000000000e-03 1.047197551197e-05 5.234370456939e-12 -3.741865391558e-11 -1.620115829174e-11
240 2 5.239543465804e-03 6.775336762944e-04 1.344678745514e-02 -6.238386104295e-09 9.808452066190e-09 -8.005959253190e-09 -5.609440527966e-06 2.316972234227e-06 -1.558807126260e-06 1.000000000000e-03 1.047197551197e-05 1.742907299554e-11 -3.329463044036e-11 2.530921931415e-11
241 2 7.146343271150e-03 1.518882632115e-02 1.046434265039e-02 1.051866297131e-08 2.355183466218e-08 -2.631721417743e-08 2.268142711128e-06 -4.341271409845e-05 6.798690711522e-06 1.000000000000e-03 1.047197551197e-05 -5.251285554988e-11 -1.015132035430e-10 4.663013249103e-11
242 2 2.804080364445e-03 9.109836467011e-03 8.122898678888e-03 -1.688998181472e-08 3.968542369787e-08 1.354284133639e-08 3.990586676169e-05 -2.685992899166e-05 -9.158804672786e-07 1.000000000000e-03 1.047197551197e-05 4.642436086244e-11 -1.093195155655e-10 -3.866063788142e-11
243 2 6.464979367935e-03 1.038795440465e-02 1.214560309062e-02 -7.970435872584e-09 1.178331084261e-08 -1.377295090173e-08 1.904055360700e-07 1.258478453298e-05 7.228573767969e-06 1.000000000000e-03 1.047197551197e-05 3.167814638866e-11 -3.415468037893e-11 3.554568270524e-11
244 2 4.921931162732e-03 1.409622395717e-02 8.372107254634e-03 2.998565600355e-08 6.982578483693e-08 8.804195033587e-09 5.415847854665e-05 -1.993842015162e-05 -3.703468807114e-05 1.000000000000e-03 1.047197551197e-05 -7.081456910117e-11 -2.013177732648e-10 -2.757161661771e-11
245 2 2.737961595525e-03 1.395364767308e-02 1.449018846804e-02 -3.532056733151e-09 8.156973435061e-09 -4.706496553655e-09 4.744201484158e-06 4.304821998807e-06 4.588038622104e-07 1.000000000000e-03 1.047197551197e-05 -3.104052709748e-12 -5.833667130835e-11 1.476599186448e-11
246 2 3.845006808020e-03 1.438767115807e-02 9.940734579763e-03 4.360441891191e-09 3.722070998152e-08 -5.016068212465e-09 1.824220447783e-05 -1.733092528576e-05 -1.688997021780e-05 1.000000000000e-03 1.047197551197e-05 -5.227513159120e-11 -7.255409339360e-11 2.980609714051e-11
247 2 9.646342267964e-04 9.549253355840e-03 8.590356511918e-03 1.166552445143e-08 3.704100373763e-08 -1.079404735843e-08 1.093152047100e-06 2.506599355655e-07 -6.900808713624e-06 1.000000000000e-03 1.047197551197e-05 -3.532509331381e-11 -1.092083594154e-10 5.266348508584e-11
248 2 4.618334235111e-03 1.449134707302e-02 1.452325030988e-02 -2.876490503255e-09 1.040309081523e-08 -7.541909644743e-09 8.545838796511e-06 4.308635615988e-07 2.121963480672e-06 1.000000000000e-03 1.047197551197e-05 8.265711126489e-12 -2.924133941881e-11 2.321298193815e-11
249 2 4.111367466282e-03 1.269063694083e-02 1.305498337640e-02 2.549577179825e-09 1.376861749309e-08 -9.337176367404e-09 -5.889418156303e-06 -3.921707481066e-06 -3.862713292071e-06 1.000000000000e-03 1.047197551197e-05 -7.514389164226e-12 -3.104396060924e-11 1.831177496182e-11
250 2 2.231608869685e-03 1.343966033004e-02 1.106868733601e-02 3.747242569045e-09 2.350224964784e-08 -1.622326894396e-08 1.398436382016e-05 -2.106269652312e-06 -1.232215329444e-05 1.000000000000e-03 1.047197551197e-05 -2.036255228409e-11 -6.478052752522e-11 3.208931477193e-11
251 2 1.693770626910e-03 1.162672674748e-02 9.678709001446e-03 1.063053557442e-08 1.388114195323e-08 -1.505019721903e-08 -3.415260955572e-06 1.607525775845e-05 -4.354032882872e-05 1.000000000000e-03 1.047197551197e-05 -2.245124296612e-11 -3.905843041914e-11 4.023783254564e-11
252 2 8.236351523001e-04 1.224015187748e-02 1.176745622400e-02 3.503741304237e-09 1.964368468648e-08 -6.896193744464e-09 -3.959128005159e-06 -2.945703913639e-06 6.308962240188e-06 1.000000000000e-03 1.047197551197e-05 -6.017782587301e-12 -3.512599478112e-11 2.234885537471e-11
253 2 4.761269158500e-03 8.614337005357e-03 1.450800695072e-02 -4.593692700715e-10 7.004849492948e-09 -1.319060282390e-09 4.567828113681e-06 8.628124181569e-07 2.006140724952e-06 1.000000000000e-03 1.047197551197e-05 -4.273504234256e-13 -2.484482309599e-11 -6.165539056195e-13
254 2 3.847238951099e-03 8.480073374745e-03 1.030509161861e-02 -6.981604151763e-09 6.497619188330e-09 3.159448851508e-09 -2.155912340603e-05 8.719998081171e-06 -4.613898978016e-06 1.000000000000e-03 1.047197551197e-05 -6.120985431697e-13 -3.855173556694e-11 2.817268411545e-12
255 2 4.526941790050e-03 8.446878183794e-03 8.589617857705e-03 -2.550455211764e-08 2.354483510095e-08 7.002161906111e-09 4.037433036525e-05 1.106348351262e-05 7.369774047343e-06 1.000000000000e-03 1.047197551197e-05 9.596280652793e-11 -5.528481955814e-11 -4.839121878756e-11
256 2 5.620199485338e-03 1.055582230720e-02 8.159998579375e-03 2.099680956097e-09 1.979715264605e-08 -4.281371887210e-08 -9.451134743226e-06 -2.890590071726e-05 -7.733569335329e-06 1.000000000000e-03 1.047197551197e-05 7.346202776174e-12 -4.403701058472e-11 1.087698795227e-10
257 2 1.557405076407e-03 1.357473806207e-02 9.401062856204e-03 1.591372895847e-08 1.995396493183e-08 -2.889561601951e-08 -7.837198309834e-06 -2.004857449295e-05 4.523193361511e-05 1.000000000000e-03 1.047197551197e-05 -5.335461821837e-11 -8.172982116118e-11 1.104881122793e-10
258 2 6.146708396182e-03 1.339541515338e-02 1.436242124612e-02 -3.139121664266e-09 1.301976502287e-08 -3.103943370416e-09 -6.273051835144e-06 -2.482438217945e-06 -9.659662039971e-07 1.000000000000e-03 1.047197551197e-05 2.623046736278e-11 -5.444073403190e-11 3.064051098603e-11
259 2 3.938067907809e-03 6.112891474361e-04 1.194206818506e-02 3.496543915109e-09 8.198940488910e-09 -1.342822917587e-08 -1.576714468400e-06 -1.474676751207e-05 -3.878534450179e-06 1.000000000000e-03 1.047197551197e-05 -1.375467316743e-11 -2.996078564092e-11 3.688647743307e-11
260 2 3.497687385111e-03 9.800435085901e-03 1.164788234870e-02 -7.861850231335e-10 1.624878893210e-08 -9.482923748840e-09 3.164707950761e-06 -2.512095999751e-06 9.057034455942e-07 1.000000000000e-03 1.047197551197e-05 -3.267781093549e-11 -3.688796360059e-11 2.340802111919e-11
261 2 5.483997866363e-04 1.082971449963e-03 3.897842743910e-03 -8.205676282794e-08 -1.752196745894e-08 4.450753413797e-08 1.848310673724e-06 -6.296041443167e-05 1.072158773666e-05 1.000000000000e-03 1.047197551197e-05 1.861180260085e-10 5.496586502261e-11 -1.825695324327e-10
262 2 9.460434111909e-03 4.841597701697e-03 6.764203984361e-03 -1.505912925747e-08 2.046965402869e-08 -3.301623198108e-08 -7.587277088951e-06 2.030639953170e-05 5.967916850954e-06 1.000000000000e-03 1.047197551197e-05 4.086261903960e-11 -5.500254044930e-11 8.478209698148e-11
263 2 8.994962297753e-03 5.140299908478e-03 4.592546257389e-03 -4.897335398158e-08 -2.455392087957e-08 -3.444204696242e-08 -1.020374270886e-05 6.748535649998e-05 5.965218291317e-05 1.000000000000e-03 1.047197551197e-05 1.381755382012e-10 5.416541377223e-11 9.206500523351e-11
264 2 1.252465689489e-02 5.490989053894e-06 1.483380234454e-03 -6.426088209919e-09 -2.933692540284e-08 -1.323833059855e-08 1.246323053949e-05 4.764784602894e-06 3.684743721143e-05 1.000000000000e-03 1.047197551197e-05 2.829370677067e-11 8.093294215681e-11 3.974298547454e-11
265 2 1.229290098702e-02 2.818794102720e-03 4.026918762943e-03 9.635472803622e-09 4.966710869866e-08 -4.891026315367e-09 2.203739557148e-05 1.174799054726e-05 3.683600242314e-06 1.000000000000e-03 1.047197551197e-05 -2.525575042433e-11 -1.283155380313e-10 -3.820029978370e-11
266 2 1.516084766379e-02 1.912007345670e-03 6.351018283465e-03 -3.639517904622e-08 -7.323360307090e-09 -5.604397614781e-09 1.761406523831e-06 -6.346670157129e-06 -4.881341689860e-05 1.000000000000e-03 1.047197551197e-05 1.117565154782e-10 2.435457720239e-11 8.786796765288e-12
267 2 1.225824787080e-02 5.029177502777e-03 6.721915573529e-03 -8.729446505117e-09 1.851802694960e-08 -1.837131315221e-08 3.787982400210e-06 -1.406947351770e-05 3.580334979543e-06 1.000000000000e-03 1.047197551197e-05 1.082139744196e-11 -5.043622943410e-11 5.400978159224e-11
268 2 1.106140194224e-02 4.573086331630e-03 5.341602457409e-03 3.343429818232e-09 1.968809570318e-08 -2.683775445013e-08 1.601385424783e-05 8.253147743930e-06 1.959762294773e-05 1.000000000000e-03 1.047197551197e-05 -1.140148238173e-11 -6.616665103052e-11 7.257374285057e-11
269 2 7.719100941514e-03 3.510144352195e-03 5.577481889636e-03 1.009694394952e-08 7.099786431273e-08 -5.659414450615e-08 2.367222153341e-05 -4.639612112915e-05 -9.246214330531e-05 1.000000000000e-03 1.047197551197e-05 -2.221308963267e-11 -2.090529046705e-10 1.353132588086e-10
270 2 9.053141691761e-03 1.468618073348e-03 2.811894147549e-03 1.425981636940e-07 -5.692930605563e-08 4.295007901603e-08 -2.173046494787e-05 2.413650309449e-05 -7.772960233769e-05 1.000000000000e-03 1.047197551197e-05 -3.866417157625e-10 1.381351357085e-10 -1.271089917309e-10
271 2 9.574212463325e-03 5.328205188727e-03 9.037124042722e-04 -3.363088981895e-08 -4.055308047410e-08 -1.427452437805e-09 1.622683351647e-05 -3.928278012445e-06 -3.566346714381e-05 1.000000000000e-03 1.047197551197e-05 7.323099891780e-11 9.493488553872e-11 1.571943242631e-11
272 2 9.601910411970e-03 3.370098029220e-03 5.139049355348e-03 2.503012091284e-08 -6.882165132270e-10 -5.446800694213e-09 -2.375561689277e-05 4.255227851311e-06 1.012710690552e-08 1.000000000000e-03 1.047197551197e-05 -6.344889975039e-11 -4.615839010248e-12 2.055094194627e-11
273 2 1.075228268173e-02 6.229526524598e-03 6.739886335539e-03 -1.664439441071e-08 1.864573108549e-08 -3.432921609941e-08 1.217779370311e-05 -1.715170341158e-05 -3.250121972316e-06 1.000000000000e-03 1.047197551197e-05 5.085499902515e-11 -6.402714210542e-11 9.582392339343e-11
274 2 3.772124857966e-04 6.105557670299e-03 2.973220730392e-03 1.453968690334e-07 -4.255457577122e-08 -4.933828692420e-08 3.201800408081e-05 1.483910980597e-04 -1.156189660446e-04 1.000000000000e-03 1.047197551197e-05 -4.100773292264e-10 1.191849347738e-10 1.366557734440e-10
275 2 9.288428721812e-03 3.779963207918e-03 2.526411994563e-03 1.151533274465e-07 -2.541730214518e-08 -1.711699448348e-09 -3.807866796650e-05 1.598485631908e-04 8.227588924258e-05 1.000000000000e-03 1.047197551197e-05 -3.347919877429e-10 5.585420009111e-11 1.979683938450e-11
276 2 9.288330339554e-03 5.694715987915e-03 2.723357632462e-03 -1.403213590556e-07 -3.871958881009e-08 -6.636762762338e-08 -6.792422963492e-05 -4.679124725319e-05 1.794125624337e-04 1.000000000000e-03 1.047197551197e-05 3.906300810271e-10 9.357575993402e-11 1.531350889137e-10
277 2 1.125353567075e-02 8.713861457486e-04 2.929632318572e-03 5.652531146510e-08 -5.414115049328e-08 -2.148523206311e-08 3.293069607520e-06 2.489900845658e-05 -6.300431703189e-05 1.000000000000e-03 1.047197551197e-05 -1.066167561722e-10 1.632034551673e-10 5.652709699209e-11
278 2 1.516271002695e-02 7.016987625048e-03 6.681205320983e-03 -2.154144570761e-09 2.444364786291e-08 1.068413886173e-08 -8.173667427593e-06 -1.610079011765e-05 -9.851410932009e-07 1.000000000000e-03 1.047197551197e-05 6.512535302918e-12 -6.304542447277e-11 -2.956913498147e-11
279 2 1.380782813408e-02 1.301772671850e-03 8.799626206546e-04 -3.181827246661e-08 -8.745799204623e-10 6.037926007063e-09 4.171290201693e-07 -2.683450380360e-05 1.860407101075e-06 1.000000000000e-03 1.047197551197e-05 9.334021043765e-11 -1.302079744385e-13 1.119882118192e-13
280 2 1.100668709972e-02 6.566944311926e-03 9.178499280525e-04 -1.644411804375e-08 -2.450590879145e-08 1.232082424659e-08 2.522611684224e-05 4.093847538803e-06 5.051034402668e-05 1.000000000000e-03 1.047197551197e-05 6.313361917901e-11 9.175221952501e-11 -8.383739006551e-12
281 2 1.076482896633e-02 4.789443886215e-03 3.469792722527e-03 -3.839289647350e-08 5.969284985222e-08 -2.286290258386e-08 1.551960708434e-05 2.400714950222e-05 -3.547427015159e-05 1.000000000000e-03 1.047197551197e-05 1.163438986644e-10 -1.673466542286e-10 7.893384174130e-11
282 2 6.947623326611e-03 5.894095102025e-03 5.114624186009e-03 -1.160665339347e-07 2.524120578490e-08 -7.187143502942e-08 -2.982666713164e-06 4.303636007177e-05 -7.129613636877e-05 1.000000000000e-03 1.047197551197e-05 2.976297854158e-10 -8.961790406467e-11 2.092990597748e-10
283 2 7.561100324553e-03 4.683576611284e-03 7.039117424595e-03 1.031837485748e-08 3.933716986114e-08 -1.553711145344e-08 2.605556698863e-05 3.202106652439e-07 -8.106293328777e-06 1.000000000000e-03 1.047197551197e-05 -3.332461703620e-11 -8.037965868581e-11 6.970721933741e-11
284 2 1.417078590663e-02 3.346058478176e-03 7.156273975669e-03 -2.846286678698e-09 1.558812182026e-08 2.606123221246e-10 5.112432430417e-06 2.901412059177e-06 4.245436513538e-06 1.000000000000e-03 1.047197551197e-05 2.043930897328e-11 -3.649624627606e-11 1.176686506998e-11
285 2 1.361206257161e-02 3.216663789410e-03 5.335474127854e-03 4.544501903079e-10 2.780703850844e-08 2.033912922517e-10 7.569878067783e-06 -6.810430614301e-06 -5.331640373853e-06 1.000000000000e-03 1.047197551197e-05 1.551535119715e-11 -8.294760493811e-11 4.900503426988e-12
286 2 1.396668990878e-02 5.491345080826e-03 2.707709082152e-03 4.532310904745e-08 2.437605884586e-08 2.494137563985e-08 8.233085754487e-06 -2.290159711929e-05 3.450330282653e-05 1.000000000000e-03 1.047197551197e-05 -1.300025183679e-10 -7.265830811082e-11 -7.596427871966e-11
287 2 1.137384886194e-02 2.600389755134e-03 5.587738413955e-03 2.723589534726e-09 6.106974732181e-09 -1.404551971716e-08 1.875140879636e-05 -1.684463875532e-05 -6.150323756142e-06 1.000000000000e-03 1.047197551197e-05 -1.239474889074e-11 -2.983862877898e-11 4.770381700210e-11
288 2 1.535174884126e-02 3.188677541589e-03 2.313210312737e-03 1.013915357757e-08 -4.104827968715e-09 3.264439919247e-09 2.307965039100e-05 -7.815779852901e-07 -5.929314063877e-05 1.000000000000e-03 1.047197551197e-05 -3.700542065266e-11 3.475778578085e-11 -9.399695447693e-12
289 2 1.509632048600e-02 4.462058674401e-03 4.637444653328e-03 7.415796470371e-09 3.825339691605e-08 -9.838768126782e-09 3.484344965898e-06 3.291871596064e-05 3.816567218372e-05 1.000000000000e-03 1.047197551197e-05 -3.298143151786e-11 -9.318735742444e-11 4.025965971450e-11
290 2 7.658675709875e-04 3.912235948394e-03 6.164029812970e-03 5.300609314117e-10 4.610368393588e-08 1.816631389437e-08 -5.512174382854e-05 -1.745605096673e-05 -1.087112657903e-04 1.000000000000e-03 1.047197551197e-05 6.206278720440e-12 -1.310952627954e-10 -3.902729031465e-11
291 2 1.204162612138e-02 2.701751939278e-03 8.542558916989e-04 4.672392981193e-09 1.466469647219e-08 -1.083434498941e-09 -1.026834976789e-05 2.587422816876e-06 7.916260707262e-06 1.000000000000e-03 1.047197551197e-05 -3.219073208810e-11 -1.629301734727e-11 1.494844429629e-11
292 2 9.333566255066e-03 1.453806930534e-03 4.888969301627e-03 1.369744579439e-08 8.756750642792e-10 -1.803763674969e-08 -1.492869557063e-06 -6.273694386364e-05 -2.488309051662e-05 1.000000000000e-03 1.047197551197e-05 -3.274125087903e-11 -8.728107258858e-12 5.210615345098e-11
293 2 1.408155455025e-02 4.909774326229e-03 6.145025086815e-03 3.371949330718e-10 2.101990424795e-08 6.002390236541e-09 7.298722415603e-07 -1.231804681662e-05 5.749642050210e-07 1.000000000000e-03 1.047197551197e-05 1.600947223164e-11 -7.680236262157e-11 -1.868952099876e-11
294 2 1.509765499292e-02 6.767159445897e-03 1.288973689398e-03 1.459999257995e-08 -1.724633480509e-08 9.542465749494e-09 -2.166850942095e-05 9.159319938508e-06 2.510496031239e-05 1.000000000000e-03 1.047197551197e-05 -4.036457018149e-11 7.295808323571e-11 -2.073871407002e-11
295 2 1.370169943984e-02 1.495279066546e-02 4.532338636347e-03 1.769631181951e-08 -8.340699585677e-09 4.663308291601e-09 2.379411504143e-06 -3.145615092751e-05 -3.940082415484e-05 1.000000000000e-03 1.047197551197e-05 -3.413072378533e-11 2.109598727912e-11 -2.392008139064e-11
296 2 8.367798613023e-03 8.578217480317e-04 1.072727787386e-03 6.461079659966e-09 -3.798388569353e-09 5.512007985580e-08 1.157999218527e-04 3.308260198986e-05 -3.694950869445e-05 1.000000000000e-03 1.047197551197e-05 2.556309414522e-12 1.348956875652e-11 -1.485927272120e-10
297 2 8.972478264568e-03 2.983473331822e-03 6.947549768532e-03 -1.185476129088e-08 1.675971987861e-08 -3.002226558997e-08 2.715732059673e-06 -6.216925828750e-06 2.095756397379e-06 1.000000000000e-03 1.047197551197e-05 2.206823842374e-11 -6.323262959478e-11 8.414342141607e-11
298 2 1.387950742932e-02 3.727655424001e-03 3.442990355627e-03 1.873818251977e-08 2.747338157200e-08 1.494565042827e-09 -1.618047615164e-07 -1.600458025354e-05 -2.785953791944e-05 1.000000000000e-03 1.047197551197e-05 -6.473724983407e-11 -1.109985321439e-10 -1.848865942788e-11
299 2 1.117161814926e-02 4.452901317530e-03 8.661549444140e-03 -1.235776722687e-08 1.746854957478e-08 -1.666662741674e-08 6.816890466857e-06 -7.475932890977e-07 -1.131829494701e-06 1.000000000000e-03 1.047197551197e-05 4.191729923544e-11 -4.632240161558e-11 4.201686797874e-11
300 2 1.113973851906e-03 4.341767326384e-03 3.333797424344e-03 3.314746276036e-08 -3.308833464499e-08 6.820732660769e-09 -1.112626388703e-04 -9.364667741331e-05 -4.794338408715e-05 1.000000000000e-03 1.047197551197e-05 -1.061324981715e-10 9.417051014759e-11 -2.346130070267e-11
301 2 1.408366885411e-02 3.184959894389e-03 8.655328709470e-04 -1.119151425048e-08 -7.609437869416e-09 5.030693163688e-09 9.179288980656e-07 -1.201276288192e-05 -2.485013431708e-05 1.000000000000e-03 1.047197551197e-05 5.055708466798e-11 3.110932505654e-11 -2.939608715684e-11
302 2 1.498571514961e-02 1.318587555284e-03 2.312568308386e-03 -4.568674867136e-08 -4.344676546099e-09 9.132826447797e-09 -5.906994488726e-06 1.458959638202e-05 -5.289383517732e-06 1.000000000000e-03 1.047197551197e-05 1.366901662503e-10 -3.657808898446e-13 5.003361913418e-12
303 2 1.315618810096e-02 7.332825896173e-03 8.751698554036e-04 4.844418773954e-09 -1.337088845870e-08 3.881848231838e-09 1.312659928654e-05 5.768552475535e-06 3.486671431553e-05 1.000000000000e-03 1.047197551197e-05 -1.487195748132e-11 3.633956707087e-11 -1.123353326117e-11
304 2 1.214352683959e-02 6.108668083507e-03 2.970977666905e-03 2.696783642669e-08 1.523127633988e-08 -4.050220849331e-09 7.822569178314e-06 -2.540803482058e-05 -2.669790533941e-05 1.000000000000e-03 1.047197551197e-05 -7.152133656097e-11 -4.898508513111e-11 1.051621071149e-11
305 2 1.424868068254e-02 1.522123431764e-03 4.695337200547e-03 -6.088236397650e-08 2.077916176054e-08 1.373010873231e-08 -2.177758353036e-05 2.595211165804e-05 -4.676889597024e-05 1.000000000000e-03 1.047197551197e-05 1.854443704656e-10 -6.163277119000e-11 -4.557137828868e-11
306 2 1.189378163583e-02 6.511892928238e-03 8.234779666641e-03 -2.789149882919e-08 6.926264184503e-09 -1.473345888732e-08 1.368485554729e-05 2.269165990888e-06 1.555443276514e-05 1.000000000000e-03 1.047197551197e-05 7.339296030683e-11 -2.918325829190e-11 5.202899276993e-11
307 2 1.052936208580e-03 2.851642987992e-03 4.566798930199e-03 -1.100293542974e-07 4.896065561456e-10 7.550117300051e-08 1.645181005619e-05 3.423118165778e-05 -5.589113502000e-05 1.000000000000e-03 1.047197551197e-05 3.107890166514e-10 -3.126501564174e-12 -2.220656668217e-10
308 2 1.044592888853e-02 2.523838568439e-03 3.602993678321e-03 6.579814834828e-08 -2.866543209182e-08 -2.411072789771e-09 -2.224592048321e-05 -6.687100781768e-06 9.425491429992e-05 1.000000000000e-03 1.047197551197e-05 -1.591485862040e-10 8.686140747072e-11 2.242667310206e-11
309 2 1.323158749211e-02 2.414625117286e-03 2.312630865056e-03 -2.191519029289e-08 2.661895877063e-08 1.327876593382e-08 -1.987237715116e-05 1.761463597460e-05 -2.721718336753e-05 1.000000000000e-03 1.047197551197e-05 8.374066340901e-11 -1.171204179312e-10 1.258928752418e-11
310 2 1.306753974977e-02 8.527481296433e-04 3.326243790834e-03 2.716950079506e-08 -3.030501813533e-09 -8.063631650140e-10 3.983723291278e-05 -6.849715660108e-05 1.211247091503e-04 1.000000000000e-03 1.047197551197e-05 -8.637720344564e-11 1.887798159099e-11 7.196162091328e-12
311 2 1.359485647801e-02 6.167391746150e-03 7.469162901153e-03 -1.882677411115e-08 2.666535943138e-08 -5.932189612814e-09 -1.090737588406e-05 -1.084044068688e-05 2.916874523711e-06 1.000000000000e-03 1.047197551197e-05 7.011926451220e-11 -1.095883556906e-10 1.445262759419e-11
312 2 1.034253097484e-02 3.568321041359e-03 9.503684415600e-04 -1.442752008273e-08 -1.477425623163e-08 -2.148841305443e-08 -7.804717708593e-06 -1.605489585655e-05 3.454943696755e-05 1.000000000000e-03 1.047197551197e-05 4.194915113683e-11 3.879944368942e-11 4.668869576543e-11
313 2 1.169221494649e-02 3.538898753138e-03 2.438650227079e-03 -1.682184718744e-08 3.702471470900e-08 -9.305003701072e-09 -2.191649547590e-05 -2.066752574923e-05 2.727567975516e-05 1.000000000000e-03 1.047197551197e-05 5.308004028119e-11 -1.162338035186e-10 1.468645337580e-11
314 2 7.698894313264e-03 2.497334485592e-03 1.960929519294e-03 1.559818978443e-07 -1.250647558786e-07 2.888380469586e-07 -1.315407806961e-04 4.113201492770e-04 -1.754155882355e-05 1.000000000000e-03 1.047197551197e-05 -4.148989191099e-10 3.542160014580e-10 -7.996837877140e-10
315 2 1.285135715006e-02 4.976093315854e-03 4.592090496773e-03 1.727370174885e-08 4.002497819894e-08 -1.183161121166e-08 1.254241441280e-05 -2.057023241997e-05 -1.106221441952e-05 1.000000000000e-03 1.047197551197e-05 -4.677258904945e-11 -1.153613913186e-10 3.628599625535e-11
316 2 8.223968340913e-03 3.961952160593e-03 9.024375196090e-04 -4.218701709433e-08 -1.258977582615e-07 1.436058432054e-08 5.579616981980e-05 -4.395761008798e-05 1.210869769826e-04 1.000000000000e-03 1.047197551197e-05 1.139264643441e-10 3.500298806683e-10 -3.279004557553e-11
317 2 7.401000842974e-03 5.279482835132e-03 2.797347755249e-03 -2.986497337059e-07 -9.963600454675e-08 -2.654841312383e-07 5.424078201796e-04 -1.062354631245e-04 -2.684305556494e-04 1.000000000000e-03 1.047197551197e-05 8.247980825114e-10 2.540677821788e-10 7.278876547265e-10
318 2 1.474144671490e-02 4.943905883585e-03 9.331677611349e-04 2.124934171511e-08 -1.743837559391e-08 1.116626574873e-08 1.746307047106e-05 1.757759889770e-05 -1.388336084543e-05 1.000000000000e-03 1.047197551197e-05 -5.159503573062e-11 6.164364321346e-11 -2.975252951977e-11
319 2 1.081258820827e-02 3.593234751585e-03 7.010676995984e-03 -7.844509480161e-09 1.261599504050e-08 -2.079021667691e-08 -1.359546256707e-05 -1.105567969894e-05 -1.099127594633e-05 1.000000000000e-03 1.047197551197e-05 1.742904773883e-11 -2.033606928537e-11 7.810765797019e-11
320 2 8.241797841284e-03 2.921953557491e-03 3.830036698779e-03 1.787611511248e-07 2.070012166960e-08 -1.548735388978e-08 -1.587091872747e-05 -1.653932587555e-04 -3.451187445474e-05 1.000000000000e-03 1.047197551197e-05 -4.736843964567e-10 -3.558357613995e-11 3.709069356297e-11
321 2 1.520430223500e-02 6.278320274310e-03 1.158939145488e-02 -7.310080290206e-10 1.441104895269e-08 -1.384229729072e-08 3.543489730072e-06 -2.777974539392e-06 1.064741578790e-06 1.000000000000e-03 1.047197551197e-05 -1.903567392737e-11 -4.785672590871e-11 4.517025691061e-11
322 2 8.820778932951e-03 1.339602000205e-03 8.618911261700e-03 -1.263470436942e-08 3.531155645783e-08 -4.675688420130e-08 -2.075869400999e-06 -2.869278743702e-05 -1.521275789758e-05 1.000000000000e-03 1.047197551197e-05 3.974198008303e-11 -1.120838212362e-10 1.270995772381e-10
323 2 1.484488813698e-02 8.165611625523e-03 1.071413999193e-02 4.415790872334e-09 1.968937206903e-08 -9.144799267555e-09 -4.371788283386e-06 -4.156255461499e-06 -4.192102554488e-07 1.000000000000e-03 1.047197551197e-05 -6.641793016159e-12 -3.735479039767e-11 8.751694304010e-11
324 2 8.300475347381e-03 3.155349385022e-03 9.482732043950e-03 -1.951770468290e-08 1.746496179074e-08 -3.164863099080e-08 9.820859470202e-07 -2.943015754712e-06 -7.186330942399e-06 1.000000000000e-03 1.047197551197e-05 6.785990512360e-11 -4.312105974710e-11 7.972636919102e-11
325 2 1.463878589536e-02 3.749019611303e-03 1.249850118378e-02 -9.840299936121e-11 1.312852333966e-08 -1.236543348697e-08 9.696813196959e-06 3.607710480181e-06 -6.049338807654e-06 1.000000000000e-03 1.047197551197e-05 3.630681379893e-12 -3.394601732880e-11 4.520485616163e-11
326 2 1.045392419738e-02 3.259416528606e-04 9.456862426428e-03 -1.650571289953e-08 1.146406706497e-08 -3.948617890270e-08 1.874611294925e-05 -2.237748624930e-05 -9.237071696242e-07 1.000000000000e-03 1.047197551197e-05 4.368947164793e-11 -3.251830251386e-11 1.142765925320e-10
327 2 2.382178838427e-04 4.905634034139e-04 1.280113546964e-02 -5.735704006601e-09 1.188956697759e-08 -1.308341166890e-08 -3.624262159142e-07 -2.916812653261e-06 -9.424479515220e-06 1.000000000000e-03 1.047197551197e-05 1.007244520041e-11 -3.642066036277e-11 2.325385388385e-11
328 2 9.976206992067e-03 2.912567723056e-03 8.616853436362e-03 -1.583426830217e-08 1.725041449044e-08 -2.444299692222e-08 4.178685110126e-06 -3.250674958665e-06 1.315416866488e-06 1.000000000000e-03 1.047197551197e-05 4.192491591748e-11 -5.863866831920e-11 7.451506503269e-11
329 2 6.571960398799e-04 1.093630849402e-03 1.454294588747e-02 -2.772997315149e-09 7.875400245233e-09 -5.753939553606e-09 7.097758464246e-06 1.965017195675e-06 6.463825683457e-07 1.000000000000e-03 1.047197551197e-05 1.943176979211e-11 -4.423716020967e-11 6.498790791873e-12
330 2 1.170832922672e-03 7.280338800486e-03 1.066604054671e-02 4.202917840515e-09 2.100722727651e-08 -8.148699641932e-10 3.075069958583e-06 -7.337676449739e-06 1.621664988886e-06 1.000000000000e-03 1.047197551197e-05 1.689391602491e-12 -6.472999305833e-11 9.018306329678e-12
331 2 1.299866473935e-02 6.047376354938e-03 1.291737837259e-02 -7.161513091941e-10 8.623336892361e-09 -1.119956451813e-08 2.253938017755e-06 -3.782138571363e-06 -4.980482950708e-06 1.000000000000e-03 1.047197551197e-05 -1.023245465807e-11 -3.531743084481e-11 3.768330551306e-11
332 2 1.303549014207e-02 3.264743759168e-03 1.326580931994e-02 -1.408776729700e-09 1.309331811870e-08 -7.453020887406e-09 -1.505023917683e-06 1.263451351948e-06 1.621788653694e-06 1.000000000000e-03 1.047197551197e-05 1.828423947225e-11 -4.007818990908e-11 1.986930830808e-11
333 2 1.175962789331e-02 3.098136229164e-03 1.456761965257e-02 -1.224059056738e-09 8.839834832094e-09 -3.797628293867e-09 5.962755556090e-06 6.060024727571e-07 -4.917230837879e-07 1.000000000000e-03 1.047197551197e-05 -7.303837919590e-13 -2.518085271046e-11 1.941496592887e-11
334 2 3.860631330357e-04 3.761241412780e-03 8.033602581653e-03 7.399706332998e-10 3.640364799878e-08 4.258496082089e-09 6.239019716918e-05 1.106580421954e-05 4.447760389867e-05 1.000000000000e-03 1.047197551197e-05 -3.200168440259e-11 -5.920167915924e-11 -2.019095346053e-11
335 2 1.338385162821e-02 2.917600356416e-03 1.139783883991e-02 -7.714661990717e-09 1.530116528416e-08 -9.364243484769e-09 -4.703274341597e-07 9.219194936653e-06 9.063882447588e-06 1.000000000000e-03 1.047197551197e-05 2.071770214276e-11 -3.469034331383e-11 3.013015953480e-11
336 2 1.268296524570e-02 3.700052510887e-03 9.873345280259e-03 -1.787971795225e-08 1.056551276281e-08 -1.038402186418e-08 -1.724181987354e-06 7.002402459756e-07 1.144328405300e-06 1.000000000000e-03 1.047197551197e-05 5.232612022092e-11 -2.962815628931e-11 3.993862700663e-11
337 2 1.110471229119e-02 3.228739292176e-03 1.284641407276e-02 -1.840054039718e-09 1.064176681137e-08 -9.680100196344e-09 -1.357727950521e-06 -2.616174177905e-06 6.638300364502e-07 1.000000000000e-03 1.047197551197e-05 1.379918708930e-11 -3.038777916911e-11 3.620859904636e-11
338 2 1.150275640509e-02 1.760208101352e-03 8.569874508103e-03 -1.595491984155e-08 1.173213463250e-08 -2.322628860936e-08 -8.700751148257e-06 1.186881402281e-05 6.084524389009e-06 1.000000000000e-03 1.047197551197e-05 3.496730381431e-11 -3.785570889435e-11 6.931866712574e-11
339 2 1.095789376604e-02 4.221706862088e-03 1.057684399306e-02 -1.356959389622e-08 1.211874932445e-08 -1.448590614497e-08 -1.041542634437e-06 -1.611272043091e-06 6.742361225244e-07 1.000000000000e-03 1.047197551197e-05 3.797826088232e-11 -3.399521796787e-11 3.501415474547e-11
340 2 1.532175341694e-02 5.521578925171e-03 7.791706875369e-03 -2.812149652322e-08 3.537239892929e-08 4.578287452464e-08 -1.469915750890e-05 -3.818514669169e-05 -1.545436485722e-06 1.000000000000e-03 1.047197551197e-05 5.013250419231e-11 -1.163005990948e-10 -1.259144844769e-10
341 2 1.480110597486e-02 2.176531921893e-03 1.356503208187e-02 -4.320591334102e-09 9.126977647192e-09 -8.155457340022e-09 -8.684879075888e-06 9.462439299778e-07 -7.533384095091e-08 1.000000000000e-03 1.047197551197e-05 1.139022760082e-11 -2.174410957116e-11 2.682794888298e-11
342 2 1.310278611555e-02 1.454734131672e-03 1.264568125720e-02 3.173865350993e-10 1.432218765970e-08 -6.803241159316e-09 1.133680884426e-06 -6.301009042833e-06 -2.010026364399e-06 1.000000000000e-03 1.047197551197e-05 3.983495396388e-12 -3.583447677158e-11 6.629018199837e-12
343 2 1.321287624986e-02 1.766612059404e-03 1.450424944616e-02 -2.455704752414e-09 8.971556049093e-09 -4.233015361024e-09 4.895413315608e-06 9.492908257518e-07 -6.311021685412e-08 1.000000000000e-03 1.047197551197e-05 1.060689692352e-11 -2.737640858822e-11 1.476844285294e-11
344 2 1.238415880093e-02 4.468373794415e-03 1.185672264687e-02 -1.076836475695e-08 1.043111596125e-08 -8.344854969836e-09 1.873476795716e-07 -3.572545502594e-06 -5.177116668304e-06 1.000000000000e-03 1.047197551197e-05 2.584843783632e-11 -2.543362764968e-11 4.098028892823e-11
345 2 1.434277868060e-02 4.688300487868e-03 1.080076453846e-02 1.796143759104e-08 1.480135217983e-08 -2.558069268031e-08 1.391261869186e-05 -7.961209202871e-07 1.728894002157e-05 1.000000000000e-03 1.047197551197e-05 -4.510502389632e-11 -5.833417956604e-11 7.183767445161e-11
346 2 8.289843598080e-03 7.031309101121e-03 9.914944727298e-03 -3.407720025707e-09 1.455442387015e-08 -2.208026480041e-08 -3.483240956028e-06 -8.839503140254e-06 8.169244387104e-06 1.000000000000e-03 1.047197551197e-05 7.746548683512e-12 -3.797831430503e-11 6.049933719546e-11
347 2 9.730752076429e-03 3.198556114163e-03 1.159645056033e-02 -5.857264652717e-09 8.908142961303e-09 -1.498347058427e-08 2.003868889265e-07 2.015317694908e-06 3.608076964580e-06 1.000000000000e-03 1.047197551197e-05 1.161436274025e-11 -2.242370021702e-11 4.633649679700e-11
348 2 6.593614348805e-04 1.362921213003e-03 1.002878158181e-02 8.117439476189e-09 1.702470895798e-08 -4.313115610359e-08 6.956936309937e-06 -9.801268406230e-06 2.197222291780e-05 1.000000000000e-03 1.047197551197e-05 -3.032499947636e-11 -5.152146222415e-11 1.269867216625e-10
349 2 1.475727056585e-02 5.382746448805e-03 1.336754793502e-02 1.657321106501e-09 1.028065262339e-08 -7.860602638760e-09 -4.474930116542e-06 3.798500837276e-06 7.505895506470e-06 1.000000000000e-03 1.047197551197e-05 -5.383220282979e-13 -2.768460869152e-11 1.639160041955e-11
350 2 1.186932583894e-02 4.784614813655e-03 1.366123812127e-02 -3.505718099876e-09 1.229151873399e-08 -5.479497271208e-09 -4.088352779456e-06 7.573920676013e-06 -3.060799423455e-07 1.000000000000e-03 1.047197551197e-05 1.243750920879e-11 -2.469594015908e-11 -6.577649780100e-12
351 2 7.431691982808e-03 1.765390098745e-03 1.444900734424e-02 -1.406815338151e-09 5.899853646206e-09 -4.242772028666e-09 5.693533501409e-06 1.333940908588e-06 4.556700591400e-06 1.000000000000e-03 1.047197551197e-05 6.723003566533e-12 -1.568813678693e-11 8.228649102477e-12
352 2 9.049899562829e-03 4.590545872682e-03 1.043200198530e-02 -1.322949312090e-08 1.277138105093e-08 -2.222993699598e-08 1.598882580094e-06 -3.626335791073e-06 -4.972939723921e-07 1.000000000000e-03 1.047197551197e-05 3.374008178555e-11 -6.507873643771e-11 5.325520638000e-11
353 2 1.376552491088e-02 4.810879684377e-03 8.779841699977e-03 -2.029373068968e-08 2.658612853189e-08 2.440848926338e-09 7.242632446590e-06 -1.281837403555e-05 1.797508336934e-05 1.000000000000e-03 1.047197551197e-05 5.649317189899e-11 -4.648365326254e-11 -2.700359685731e-11
354 2 9.603205314311e-03 1.818087814218e-03 1.034788898814e-02 -1.302197631115e-08 1.149851596723e-08 -2.856430249379e-08 1.032091384408e-05 -6.399420785992e-06 -2.208974345649e-05 1.000000000000e-03 1.047197551197e-05 2.673603650908e-11 -4.411477565621e-11 7.067723633193e-11
355 2 9.460237668462e-03 6.208430511374e-03 1.124327813086e-02 -1.007178454302e-08 1.112677504292e-08 -1.353104500973e-08 8.856560802263e-06 1.837484930579e-06 -3.676224725707e-06 1.000000000000e-03 1.047197551197e-05 3.271932167186e-11 -9.471585162404e-12 4.790811325568e-11
356 2 1.051066664241e-02 7.203461283754e-04 1.171551849157e-02 -7.919038461994e-09 1.404057556649e-08 -6.436728686293e-09 -2.844454540204e-05 6.074121230768e-06 1.850237422339e-05 1.000000000000e-03 1.047197551197e-05 2.106177907265e-11 -4.524017822259e-11 1.714525778255e-11
357 2 1.248010433099e-02 7.251316757253e-03 9.906295333375e-03 -1.597014068527e-08 7.601528909838e-09 -1.436325079000e-08 -5.386310913725e-06 1.224752406751e-05 2.443414862084e-06 1.000000000000e-03 1.047197551197e-05 3.208410103764e-11 -1.226197158697e-11 4.897831645517e-11
358 2 1.033909611352e-02 4.889978406553e-03 1.240830408661e-02 -1.862045402430e-09 1.241522309353e-08 -1.128785490035e-08 3.840821659770e-06 -4.257473658675e-06 -1.796400318187e-06 1.000000000000e-03 1.047197551197e-05 -1.144189781413e-12 -3.864633346732e-11 3.281248080864e-11
359 2 9.906093932670e-03 6.878042845785e-03 1.301000248912e-02 -4.002284967314e-09 9.523267348852e-09 -7.217505798030e-09 -5.753661610475e-06 2.081201621976e-06 1.595005643888e-06 1.000000000000e-03 1.047197551197e-05 1.545594294622e-11 -2.034035262636e-11 2.403399776246e-11
360 2 2.070006227322e-03 5.746559808784e-03 1.141775541616e-02 4.799989794982e-10 1.951969772751e-08 -2.033457758118e-08 2.273545739420e-05 2.648920616748e-06 -1.538070471096e-06 1.000000000000e-03 1.047197551197e-05 -5.452698850443e-12 -3.991340449649e-11 6.229750486214e-11
361 2 1.227593560526e-02 5.466202967071e-03 9.871221658162e-03 -1.469082882453e-08 1.019884690456e-08 -9.590615391846e-09 2.517951698598e-06 6.959169549009e-07 -3.879543924008e-06 1.000000000000e-03 1.047197551197e-05 3.505576574592e-11 -4.431747292410e-11 2.727162393948e-11
362 2 6.867838177894e-04 1.989086497485e-03 8.157139475944e-03 3.372622381841e-08 2.689711939940e-08 -5.479041439843e-08 1.390506626098e-06 -4.254871642679e-06 -1.757875959311e-05 1.000000000000e-03 1.047197551197e-05 -1.119776526193e-10 -1.149700561022e-10 1.506967915093e-10
363 2 8.672611122072e-03 6.190780912603e-03 1.440881167861e-02 -1.731595923585e-10 6.608479726214e-09 -5.197969649016e-09 4.313249870530e-06 -5.831673733384e-07 -1.509161829374e-07 1.000000000000e-03 1.047197551197e-05 -4.582055984277e-12 -2.367620113536e-11 1.867211254851e-11
364 2 1.340664833704e-02 6.299139287577e-03 1.115777286558e-02 -2.243088692384e-09 9.837198488358e-09 -1.416133004614e-08 -2.410285185996e-06 5.264654067589e-06 8.279414456042e-07 1.000000000000e-03 1.047197551197e-05 6.451608322924e-12 -3.131700017594e-11 5.641397060293e-11
365 2 1.402535612495e-02 1.882892081693e-04 1.379621282884e-02 -2.781884825109e-09 1.373242211610e-08 -8.005228352506e-09 -1.406477932475e-06 7.886852622650e-06 4.817228907998e-06 1.000000000000e-03 1.047197551197e-05 1.464451375191e-11 -4.107709050467e-11 1.503775197834e-11
366 2 1.151383433127e-02 6.196527461887e-03 1.166478378306e-02 -3.789254204114e-09 1.357105961369e-08 -9.528717751903e-09 -5.801892185799e-07 7.973514859940e-06 -2.677959075960e-07 1.000000000000e-03 1.047197551197e-05 4.655754626609e-12 -4.360165920050e-11 2.370957598605e-11
367 2 3.715001603669e-04 5.635876303834e-03 9.803901793514e-03 1.915774789005e-08 3.956742798315e-08 -1.758795522141e-08 2.812234111995e-05 -2.981922893563e-05 -1.652237995375e-05 1.000000000000e-03 1.047197551197e-05 -5.765009182852e-11 -1.190423116614e-10 5.648000283271e-11
368 2 8.831768238430e-03 5.390941032446e-03 8.518888994241e-03 -2.681420233855e-09 2.038081657487e-08 -1.575310475372e-08 1.012952447347e-06 6.588660009587e-06 -4.423726555714e-06 1.000000000000e-03 1.047197551197e-05 1.716274390506e-11 -5.913054018510e-11 3.841856412074e-11
369 2 8.556553871013e-03 3.755686760659e-03 1.436760529837e-02 1.163530402221e-81 -6.147971941994e-82 -1.923560073040e-82 -3.553680257138e+03 2.999212505891e+03 -6.490857771099e+03 1.000000000000e-03 1.047197551197e-05 -1.164642553938e-82 6.153848434378e-83 1.925398693357e-83
370 2 1.061076031390e-02 5.934685826723e-03 1.447553580170e-02 -6.378478424015e-10 8.872155644820e-09 -2.575651446984e-09 6.792241388843e-06 -1.553586664985e-06 2.410256520057e-06 1.000000000000e-03 1.047197551197e-05 2.154809120668e-12 -2.804704919935e-11 4.079811024062e-12
371 2 4.353405312716e-04 3.154672865236e-03 1.113854327702e-02 -1.688150122689e-09 5.260685125777e-09 -1.437467539586e-08 -8.566624659707e-06 -1.421515449045e-06 -7.302906228514e-06 1.000000000000e-03 1.047197551197e-05 1.015685471947e-11 -3.076122680799e-11 5.887784413777e-11
372 2 1.355551234141e-02 4.583183432757e-03 1.452842626366e-02 1.528634034727e-09 7.273120778052e-09 -4.881092131637e-09 6.489584142682e-06 -2.571068996915e-06 -6.018103396857e-06 1.000000000000e-03 1.047197551197e-05 -1.233925647929e-11 -2.335339403613e-11 1.852921319504e-11
373 2 1.467795239660e-02 1.477455603390e-03 1.144184098117e-02 -1.440352446387e-09 1.338313551781e-08 -1.974034019166e-08 -6.965696828830e-06 1.346519617710e-05 -8.676093268271e-06 1.000000000000e-03 1.047197551197e-05 1.603484764599e-11 -4.867328505804e-11 6.096269057325e-11
374 2 7.783329709752e-03 3.167718062396e-03 1.141664140396e-02 -2.099198553171e-10 1.408855425749e-08 -1.355505279246e-08 1.157531242749e-05 -1.882341162587e-06 -6.580227567976e-06 1.000000000000e-03 1.047197551197e-05 5.743208496132e-12 -4.652234884120e-11 4.061624202372e-11
375 2 8.296560505249e-03 7.288123485663e-03 1.222278593344e-02 -4.143756234987e-09 1.081391900634e-08 -8.155911251093e-09 -7.514229768031e-07 -4.973594108649e-07 -3.756538397168e-06 1.000000000000e-03 1.047197551197e-05 2.481837407080e-12 -3.338790343096e-11 3.118856252397e-11
376 2 1.251293315464e-02 3.289101129708e-03 8.049998542188e-03 -1.132349243157e-08 1.380800825127e-08 -1.391309204947e-08 7.755917590054e-06 -1.575736094879e-05 -1.062040469944e-05 1.000000000000e-03 1.047197551197e-05 5.570770672796e-11 -3.570229149174e-11 3.620766628801e-11
377 2 1.149101595040e-02 2.254670527529e-03 1.056102163961e-02 -1.290935152185e-08 -1.311318901331e-09 -1.576554515202e-08 9.459357542939e-06 -2.049268143327e-06 1.075856197605e-05 1.000000000000e-03 1.047197551197e-05 3.447510825929e-11 2.122338486985e-12 4.588954760411e-11
378 2 1.481739508944e-02 3.316754400946e-03 9.579534135507e-03 9.899898687265e-09 -3.138159296376e-10 -1.651962007384e-08 -2.487522115360e-05 -6.417767367445e-06 -3.164485472223e-05 1.000000000000e-03 1.047197551197e-05 -4.113218606480e-11 -4.811748361413e-12 6.219757355052e-11
379 2 1.039156824612e-02 5.842094354934e-03 9.644567613016e-03 -9.993207269335e-09 1.695381153694e-08 -1.573292999736e-08 -1.852597376699e-06 -6.193905788170e-06 -2.882979894147e-06 1.000000000000e-03 1.047197551197e-05 2.070354810971e-11 -3.294274853961e-11 4.358584905626e-11
380 2 7.826048155557e-04 4.728996479256e-03 1.217100136090e-02 1.962935875720e-09 1.341521415918e-08 -1.815124466303e-08 -2.082227295996e-06 6.833126655631e-06 2.904966153232e-06 1.000000000000e-03 1.047197551197e-05 -1.047673821545e-11 -4.306100762787e-11 6.048556001295e-11
381 2 7.351971363903e-03 2.798992999140e-03 7.882628136690e-03 -2.115436804302e-08 2.366206309755e-08 -4.921851586022e-08 1.430113585582e-05 -1.378989730871e-05 -3.483000274799e-07 1.000000000000e-03 1.047197551197e-05 6.990998000459e-11 -6.964755330588e-11 1.299297886036e-10
382 2 8.255817590172e-03 1.056052894887e-02 3.945661974961e-03 -2.983809228205e-08 1.310020686530e-08 -6.473585170578e-09 1.099027367354e-06 -2.114949012187e-06 3.681340261405e-05 1.000000000000e-03 1.047197551197e-05 7.329416128139e-11 -4.758938290047e-11 2.265849103364e-11
383 2 1.014313327979e-02 1.270918762245e-02 8.007423931648e-04 -6.424592813433e-09 -2.576660547033e-09 -6.801869397273e-09 -4.070016494754e-06 -8.809896736682e-06 1.074263683750e-05 1.000000000000e-03 1.047197551197e-05 7.779823135815e-11 -7.122943375392e-12 -1.080266839341e-10
384 2 1.369845840722e-02 1.120497739890e-02 3.007520599145e-03 -2.810708542266e-09 -1.318197651643e-09 -9.042616884473e-09 7.893104869527e-06 2.581633606374e-05 -4.134531032479e-06 1.000000000000e-03 1.047197551197e-05 6.928905883919e-12 -3.693879246936e-12 2.375300085233e-11
385 2 9.098266683743e-03 1.072709580754e-02 2.261503364847e-03 -1.355302124865e-08 2.992453697533e-08 9.899458928614e-10 1.839905283750e-05 -1.532855040662e-05 -3.629118364361e-05 1.000000000000e-03 1.047197551197e-05 2.146657054273e-11 -7.749465119545e-11 -3.907357656222e-12
386 2 6.923805383598e-03 1.457605447509e-02 6.889042346579e-03 -4.152959502883e-08 7.703430875748e-08 -8.918161051322e-08 3.850166533556e-05 3.978612656989e-05 7.002166728331e-05 1.000000000000e-03 1.047197551197e-05 1.182636958052e-10 -2.061854624800e-10 2.519209461121e-10
387 2 1.155572992845e-02 1.372697164292e-02 5.280463296890e-03 5.795895982606e-09 -8.746499705523e-09 1.190765278903e-09 1.973261363366e-05 -1.831954573103e-05 5.537237328788e-06 1.000000000000e-03 1.047197551197e-05 -1.564477014142e-11 2.463278864075e-11 -8.150715607543e-12
388 2 8.876221855991e-03 1.431809700527e-02 9.314165036238e-04 1.180463525931e-09 -1.758017523857e-08 -1.802350438233e-08 8.089307927946e-06 -3.373190090533e-06 2.485753263768e-05 1.000000000000e-03 1.047197551197e-05 -6.758666073714e-12 5.453680867769e-11 5.820101345508e-11
389 2 9.691228413723e-03 7.458649657676e-03 2.093158847618e-03 -1.290471745367e-07 -5.921757224205e-09 -7.597984317122e-08 5.706808553296e-05 -6.631078790951e-05 -1.116995790288e-04 1.000000000000e-03 1.047197551197e-05 3.547739383068e-10 1.784680518337e-11 2.130213007561e-10
390 2 8.887957023370e-03 8.962145116926e-03 3.034926008579e-03 -3.303264264097e-08 2.996834096421e-09 -1.615044475461e-08 5.698405072404e-05 5.997946875499e-06 -4.494563800367e-05 1.000000000000e-03 1.047197551197e-05 9.702382710332e-11 -1.588666187554e-11 2.593397275950e-11
391 2 1.260746523466e-02 1.048738894116e-02 5.295457829349e-03 2.388122194855e-07 8.629926607700e-08 -3.100058148375e-09 -1.669083397508e+03 1.218119871768e+03 -3.389445746231e+02 1.000000000000e-03 1.047197551197e-05 -4.326402979047e-10 -1.640548391831e-10 3.223360623356e-12
392 2 1.015031687682e-02 1.008715029809e-02 4.045780953500e-03 -2.147352768933e-08 -2.335682690780e-08 -1.933374822637e-09 6.248122151824e-06 2.024768090373e-05 3.906194097273e-05 1.000000000000e-03 1.047197551197e-05 6.035498632286e-11 6.060781811934e-11 4.859177907062e-12
393 2 1.394694443008e-02 8.677774913214e-03 4.758402647721e-03 -4.904395332556e-09 2.447019233508e-08 -1.861599664106e-09 -1.789743523888e-06 -4.425249072511e-06 -7.850698776402e-07 1.000000000000e-03 1.047197551197e-05 2.444304080669e-11 -7.384000990230e-11 1.584029095528e-11
394 2 1.486645628183e-02 1.153715672828e-02 6.711249000848e-03 4.523980824570e-09 1.988273982638e-08 -1.277437429658e-08 1.334400065822e-05 1.461065173932e-05 -6.474551288915e-06 1.000000000000e-03 1.047197551197e-05 -5.775140869452e-12 -8.515592468127e-11 4.121913923195e-11
395 2 1.083516433953e-02 1.453015205063e-02 9.910263614492e-04 5.492595765699e-09 -1.943788407665e-08 -1.225946272160e-08 5.807898040325e-07 8.796720641665e-07 -3.491913638439e-05 1.000000000000e-03 1.047197551197e-05 -1.024792054896e-11 5.174211388845e-11 3.191062774809e-11
396 2 1.017436587343e-02 1.443283418522e-02 6.536842992711e-03 -8.178421162400e-09 -1.200351690384e-08 -3.341352371385e-08 -1.515923858824e-05 1.496958211468e-05 2.403141876013e-05 1.000000000000e-03 1.047197551197e-05 2.182769467072e-11 3.411076932279e-11 8.847012481432e-11
397 2 1.330822791751e-02 1.258002459603e-02 6.915508782778e-03 8.986211654102e-09 1.906055479066e-08 1.132195354459e-08 -8.053003968188e-06 4.890106045189e-06 -8.621552540542e-06 1.000000000000e-03 1.047197551197e-05 -3.038897181328e-11 -2.598599139534e-11 -4.843545097517e-11
398 2 1.040627299966e-02 9.108044442804e-03 1.356539727634e-03 -1.364421446693e-08 -1.462965900158e-08 -2.482302366890e-09 -1.089809066425e-06 -5.454483123953e-06 1.071546444196e-06 1.000000000000e-03 1.047197551197e-05 2.637275689619e-11 6.480113510690e-11 3.301203461522e-12
399 2 1.165062193659e-02 7.822504836921e-03 2.095102060488e-03 -2.653411504235e-08 -1.489062979899e-08 4.407417029605e-09 -2.063323296562e-05 1.747155755079e-05 -9.833097444670e-06 1.000000000000e-03 1.047197551197e-05 6.493515685694e-11 2.028159970512e-11 -2.077949678031e-11
400 2 8.689707844289e-03 8.872188177666e-03 4.888794827123e-03 -2.551996855665e-08 -2.960040252424e-08 -1.741010642137e-08 -3.594307815495e-06 1.707865416606e-06 1.273103653675e-05 1.000000000000e-03 1.047197551197e-05 9.308263078688e-11 7.988737296536e-11 7.992231204345e-11
401 3 1.163305909165e-02 5.360136467094e-04 4.998730928539e-03 1.436529164261e-08 -2.162490412532e-08 -5.300174985782e-09 -3.042075012647e-05 -3.343590538928e-05 -4.497121272671e-06 1.250000000000e-03 2.045307717181e-05 -7.450334996339e-11 1.072277539601e-10 3.174483089892e-11
402 3 1.107002217135e-02 1.109921659536e-02 1.697830024108e-03 -4.785308498045e-09 -6.089995314506e-09 1.096993477055e-09 5.039850314561e-06 5.353999113692e-06 -5.351637275196e-06 1.250000000000e-03 2.045307717181e-05 9.783540514990e-12 5.804812299941e-11 -2.599846137673e-12
403 3 1.081820589566e-02 6.654396391407e-03 4.577273309042e-03 1.124676163987e-08 3.215686000283e-08 -1.778967528015e-08 4.110149593578e-06 -7.365786357948e-06 -1.166443472509e-05 1.250000000000e-03 2.045307717181e-05 -5.319162369019e-11 -2.062644388555e-10 7.723834211272e-11
404 3 1.482709604903e-02 1.062482268063e-02 4.790468713811e-03 5.445423872411e-10 1.462237474598e-08 -8.933624499965e-09 -1.899451334716e-05 -1.551689157000e-05 -3.111409962747e-06 1.250000000000e-03 2.045307717181e-05 4.400627216644e-12 -9.222294329825e-11 6.945393788502e-11
405 3 7.217919965584e-03 1.098477202221e-03 4.252419570622e-03 3.847875232251e-08 1.405012390054e-07 -1.817647077463e-07 -1.051019008704e-07 -1.067495562919e-04 -8.335095773810e-05 1.250000000000e-03 2.045307717181e-05 -2.093486341249e-10 -8.023930279166e-10 9.731090852766e-10
406 3 8.681809569868e-03 6.720361578232e-03 6.092422054125e-03 -5.776786997889e-08 -4.696626519624e-09 -7.610774631705e-08 -3.671221865807e-05 -3.758375017772e-06 1.352284996490e-05 1.250000000000e-03 2.045307717181e-05 3.311688929304e-10 1.516085642105e-11 4.210424000862e-10
407 3 1.026406272506e-02 1.226054753293e-03 6.893356265766e-03 -3.460606908919e-08 -6.787095829245e-09 -3.359865993112e-08 9.619666723007e-06 -6.915294064410e-06 4.172188583302e-06 1.250000000000e-03 2.045307717181e-05 1.860890860006e-10 2.371746102919e-11 1.744198769504e-10
408 3 1.043711644860e-02 1.347278255376e-03 1.095361447818e-03 2.988589454635e-08 -2.368592108399e-08 6.172664295006e-09 1.975060683372e-05 2.831132334037e-05 2.221742276182e-05 1.250000000000e-03 2.045307717181e-05 -1.629929527693e-10 1.139433393536e-10 -9.152015561861e-12
409 3 1.195421813232e-02 8.829913982889e-03 3.921216246382e-03 -7.386356750810e-09 1.545151814635e-08 -1.470543966387e-08 -1.515240333507e-05 -1.523853578369e-06 1.266815206202e-06 1.250000000000e-03 2.045307717181e-05 2.897374537293e-11 -9.077239181931e-11 7.500964830099e-11
410 3 7.888498810547e-03 1.155191157247e-03 6.527791263135e-03 -6.980372727192e-08 5.310599528711e-08 -7.680121572272e-08 2.509911366486e-05 -7.029598677420e-06 -5.588611156101e-05 1.250000000000e-03 2.045307717181e-05 4.043905094742e-10 -2.887895366086e-10 4.013410428571e-10
411 3 1.494481585090e-02 1.128778419596e-02 1.168431564132e-03 1.278264532812e-08 2.367810108974e-09 1.478636258109e-09 -3.094885977919e-06 1.370520446558e-05 4.295690588586e-06 1.250000000000e-03 2.045307717181e-05 -6.653759409500e-11 -4.022488049965e-11 -3.459081387471e-13
412 3 9.755253238508e-03 1.502362039990e-02 3.736136233235e-03 1.993877932645e-08 -2.325815909119e-08 -8.500039204770e-09 1.048147687335e-05 8.957383098012e-07 -2.057972409277e-05 1.250000000000e-03 2.045307717181e-05 -1.473008123867e-10 9.095111964428e-11 5.764206059301e-11
413 3 1.299717876183e-02 1.465062773440e-02 6.505951030446e-03 2.060019292402e-09 3.492905554855e-09 6.849178608285e-09 -9.027399537905e-07 1.936212329129e-05 1.030796086897e-05 1.250000000000e-03 2.045307717181e-05 9.983650692977e-13 -5.151522215857e-11 -3.533965072026e-11
414 3 1.116393854867e-02 1.187933206461e-02 6.315860264433e-03 -1.189945094861e-09 -2.530019993798e-10 -5.129920072768e-09 -2.605003343679e-05 -2.462121959327e-05 8.399079483160e-06 1.250000000000e-03 2.045307717181e-05 -9.660748555429e-12 -2.306359284095e-11 3.684324814624e-11
415 3 7.966304956293e-03 1.269631422363e-02 6.641074626900e-03 5.456957675933e-10 5.356402331221e-08 -5.381682316578e-08 -5.659746637863e-05 -2.396402435710e-06 -6.006033555916e-05 1.250000000000e-03 2.045307717181e-05 3.077476894538e-11 -3.518694126037e-10 2.691940489974e-10
416 3 8.111936392476e-03 7.112128779060e-03 3.786605744473e-03 -1.475289989958e-07 -2.432418704368e-08 -9.967720490041e-08 4.901265136216e-05 6.472485068111e-05 -8.445800403920e-05 1.250000000000e-03 2.045307717181e-05 7.822731610626e-10 1.350813702419e-10 5.491361670778e-10
417 3 6.274556746602e-03 5.231185205243e-04 1.085806249520e-03 -2.392348333792e-08 1.202118989315e-07 -8.296995015152e-09 -8.648846575426e-05 -5.231843492442e-05 -3.708153887277e-05 1.250000000000e-03 2.045307717181e-05 1.318390648650e-10 -6.128803765870e-10 4.905639983502e-11
418 3 1.377930176762e-02 7.662177111936e-03 2.851738456919e-03 -6.135374216887e-11 7.919167110907e-09 4.778914593952e-09 -1.697031724302e-05 -3.471520660545e-06 6.309226725891e-06 1.250000000000e-03 2.045307717181e-05 -1.186960430486e-12 -3.652233496942e-11 -5.141754037142e-11
419 3 7.533510145381e-03 1.177522687886e-02 1.215462536204e-03 6.323442326611e-09 4.799615563782e-08 -1.299698565478e-08 -3.675304447263e-05 5.584266118130e-06 -4.729284963741e-06 1.250000000000e-03 2.045307717181e-05 -1.706358903161e-11 -2.719591863080e-10 8.184268508509e-11
420 3 1.252302589731e-02 5.037801909322e-03 1.135460468163e-03 1.536019023155e-08 1.032549347500e-08 -4.129397779816e-11 -4.720926916950e-06 8.290180481611e-06 -2.708564617032e-05 1.250000000000e-03 2.045307717181e-05 -8.644047369863e-11 -5.791609039391e-11 3.494812953598e-13
421 3 1.277764058412e-02 7.865946520648e-03 6.413564672780e-03 -7.511931288405e-09 2.747309291106e-08 -1.390386120417e-08 9.843145900210e-06 -3.688268212934e-06 -1.000024883475e-05 1.250000000000e-03 2.045307717181e-05 6.265844818257e-11 -1.316707360577e-10 1.032890657115e-10
422 3 1.193052079688e-02 1.415800728092e-02 3.205428791726e-03 2.713222661036e-08 -2.791700701058e-08 6.707963744693e-09 -3.594096242169e-05 -6.636139496224e-06 2.967067418890e-05 1.250000000000e-03 2.045307717181e-05 -1.529328465608e-10 1.412558727427e-10 -3.620528697289e-11
423 3 7.691320844072e-03 1.480313335901e-02 2.684282751089e-03 1.412021322980e-08 5.720059492775e-08 -7.237870895385e-08 -7.033457427328e-05 -3.764754961978e-05 -7.516217254915e-05 1.250000000000e-03 2.045307717181e-05 -5.215840038245e-11 -3.040153055822e-10 4.014772264181e-10
424 3 1.495073809343e-02 8.897807414350e-03 1.135053385655e-03 -2.118798589577e-09 -1.085269074906e-08 -9.879819779912e-09 9.200407956149e-06 1.112067868818e-05 -1.410926144333e-05 1.250000000000e-03 2.045307717181e-05 2.081210323890e-11 4.043208645206e-11 5.775767543967e-11
425 3 9.091593513451e-03 1.066838171614e-02 5.981726659121e-03 -1.657009151266e-08 1.807814264120e-08 -1.947584247679e-08 -2.754488745441e-06 4.701173001063e-06 -2.554288043932e-05 1.250000000000e-03 2.045307717181e-05 9.093354389156e-11 -9.284154294185e-11 9.236613135556e-11
426 3 9.571388191247e-03 1.300182099778e-02 4.982517604432e-03 1.339226541707e-08 -2.762154259760e-08 -3.630506202102e-08 1.402225496542e-05 -7.040436410269e-06 1.548394197583e-05 1.250000000000e-03 2.045307717181e-05 -8.518646405918e-11 1.615930077583e-10 2.028724049477e-10
427 3 1.284122208123e-02 9.610522181824e-03 1.754840622428e-03 -4.596008486335e-09 -6.265161469827e-09 -6.280339685264e-09 5.691274590967e-06 -9.187422286556e-06 4.185004732470e-06 1.250000000000e-03 2.045307717181e-05 6.478922869449e-11 -5.918276008648e-13 3.625066749547e-11
428 3 9.295029106976e-03 1.297881503934e-02 2.607128022238e-03 -8.622907966941e-10 -1.006830097308e-08 -1.798740354751e-08 2.558939057657e-06 1.056765061814e-05 1.204357110563e-05 1.250000000000e-03 2.045307717181e-05 3.968989682911e-12 6.504882926539e-11 1.887690104789e-10
429 3 1.285737780582e-02 1.241371137179e-02 1.064583478085e-03 2.771149545847e-09 1.156949155948e-09 5.874582998526e-09 -1.476769262258e-06 -1.319826302396e-06 3.119166594427e-06 1.250000000000e-03 2.045307717181e-05 -2.427427840381e-11 -3.526338880879e-12 3.525615354927e-13
430 3 7.318393320946e-03 1.255374296156e-02 3.796804347773e-03 -3.062997832898e-09 2.806462078402e-08 -2.451276903064e-08 -1.157916872062e-06 -1.154055612568e-05 -5.149773075449e-05 1.250000000000e-03 2.045307717181e-05 -2.515787426953e-11 -2.070051638748e-10 1.997128570368e-10
431 3 1.144094855700e-02 1.184718118685e-02 3.930115181585e-03 1.929281275940e-08 -3.632393994153e-08 -2.348057103276e-09 6.275103304718e-06 3.292828383577e-06 -5.063592214963e-05 1.250000000000e-03 2.045307717181e-05 -1.096639932244e-10 1.926583240361e-10 -1.648267832622e-11
432 3 1.352888106326e-02 1.278153010000e-02 4.884771072394e-03 8.736215168182e-09 -5.814569206910e-09 1.435456930750e-08 -1.494123140021e-05 -5.979768614525e-06 1.107850743196e-05 1.250000000000e-03 2.045307717181e-05 -3.808005561110e-11 4.930461285123e-11 -1.262391408971e-10
433 3 1.288900674630e-02 1.635705823574e-03 6.722258497599e-03 -1.263479620632e-08 7.684621070574e-09 -2.997165110997e-09 -8.868306411462e-06 -5.220925791336e-06 -2.053505600239e-06 1.250000000000e-03 2.045307717181e-05 8.732251048144e-11 -5.795281284343e-11 2.987664640733e-11
434 3 1.446468481966e-02 6.542806581784e-03 4.774410783356e-03 -3.524546297979e-09 2.790280401357e-08 8.599070904576e-09 1.823568358142e-06 7.558423431636e-06 -3.187768835717e-06 1.250000000000e-03 2.045307717181e-05 3.466513058681e-11 -1.624886475299e-10 -2.710719203969e-11
435 3 6.669860005138e-04 1.194863508105e-02 3.162351509409e-03 1.099516883776e-08 1.881400049026e-08 1.444679152816e-08 1.306274689934e-05 -1.956670608191e-05 2.967134512684e-05 1.250000000000e-03 2.045307717181e-05 -4.751631423504e-11 -9.859594472004e-11 -8.250914899370e-11
436 3 3.067244223108e-04 1.430364510512e-02 4.206131675430e-03 2.754456740528e-08 8.333931303351e-09 4.090651074960e-08 -8.517286484226e-06 -5.014154940280e-06 5.333897270706e-05 1.250000000000e-03 2.045307717181e-05 -1.635711611748e-10 -2.176873663567e-11 -1.809092885028e-10
437 3 8.262808389572e-03 9.117766274596e-03 1.071435193846e-03 -1.520651372131e-08 5.378537083041e-08 -1.421888425151e-08 -2.741630335530e-05 -1.755477333731e-05 -2.136677904120e-05 1.250000000000e-03 2.045307717181e-05 7.455905355377e-11 -3.010420741367e-10 8.528288466117e-11
438 3 1.411163284595e-02 1.337571966951e-02 2.729525933087e-03 2.431220120145e-08 -1.282254215797e-08 1.660737658684e-08 1.436940155306e-05 3.194359020598e-06 -1.984496107582e-05 1.250000000000e-03 2.045307717181e-05 -1.734348034823e-10 3.458961382760e-11 -8.649846690723e-11
439 3 1.103783711099e-03 1.266182106970e-02 5.798608384533e-03 4.892743233574e-08 2.327400830779e-08 3.072483550363e-08 3.974882519905e-05 -2.795081699374e-05 -1.736982629296e-05 1.250000000000e-03 2.045307717181e-05 -3.029142705319e-10 -1.537174804129e-10 -1.877132008874e-10
440 3 7.532813746119e-03 6.742157811857e-03 1.191927364211e-03 -1.549848640561e-08 1.210432103860e-07 3.555889895795e-08 -9.293481909430e-05 -1.005540562591e-05 1.082749794011e-05 1.250000000000e-03 2.045307717181e-05 7.970135794806e-11 -6.623118471010e-10 -1.910748538970e-10
441 3 1.056506797163e-02 8.674527195228e-03 5.803622168363e-03 -1.051024449951e-08 1.816894682961e-08 -1.880678652702e-08 -3.634856763985e-06 3.929711382416e-07 2.523285494545e-05 1.250000000000e-03 2.045307717181e-05 4.706872949909e-11 -8.970285302742e-11 1.022468373642e-10
442 3 9.765825830196e-03 7.366254933777e-03 8.269833684944e-03 -1.534753279635e-08 1.104620410695e-08 -3.249523766861e-08 -8.684014555605e-06 5.818726674524e-06 6.684388022692e-06 1.250000000000e-03 2.045307717181e-05 8.313649738267e-11 -7.223280037961e-11 1.833696340197e-10
443 3 8.193231731727e-03 1.322005739473e-02 1.430491425916e-02 -4.168809505597e-09 6.982917578385e-09 -4.604708954785e-09 6.273530353101e-06 2.979688386842e-06 -3.331089647601e-06 1.250000000000e-03 2.045307717181e-05 2.573787100709e-11 -3.432905963221e-11 2.570502780676e-11
444 3 1.341942071344e-02 1.004316478205e-02 1.402876595153e-02 -1.089089450178e-09 8.451353123009e-09 -7.641777913757e-09 4.737851519614e-07 2.476443851619e-06 1.786823674584e-06 1.250000000000e-03 2.045307717181e-05 4.203868536133e-12 -2.671844065287e-11 4.353185479954e-11
445 3 8.750533625463e-03 1.606585231047e-03 1.270235523630e-02 -4.562684569209e-09 1.074051596081e-08 -7.761661096555e-09 -4.004424071599e-06 3.374056771055e-06 -7.889323102656e-07 1.250000000000e-03 2.045307717181e-05 2.214450022033e-11 -5.670410822632e-11 4.195655758739e-11
446 3 1.345206555984e-02 8.414505544836e-03 1.227167211695e-02 -2.624460907577e-09 1.407464836190e-08 -1.044896363417e-08 4.087579429766e-06 2.635146401917e-07 2.463540512439e-06 1.250000000000e-03 2.045307717181e-05 2.382084931424e-11 -6.120701381745e-11 3.114207674425e-11
447 3 8.981889230174e-03 9.389430161989e-03 1.202558992666e-02 -5.460205405402e-09 1.241295997958e-08 -1.278064809210e-08 -1.945031224822e-07 2.035523890600e-06 1.205893700815e-06 1.250000000000e-03 2.045307717181e-05 3.057500954054e-11 -7.623364252716e-11 5.521694916828e-11
448 3 6.491767166910e-03 1.030611400811e-02 1.424598103824e-02 -4.514334926867e-10 6.236154407082e-09 -7.596578630035e-09 4.118768619716e-06 -1.159228515393e-06 -9.083661708169e-07 1.250000000000e-03 2.045307717181e-05 4.610139402008e-12 -3.323201504290e-11 3.831651408800e-11
449 3 8.217844458301e-03 8.813854584184e-03 7.157718283086e-03 -3.436180998340e-08 2.344874333890e-08 -2.512526019066e-08 3.193341891283e-05 2.168063185762e-05 -1.780205042733e-05 1.250000000000e-03 2.045307717181e-05 1.981453364627e-10 -1.512694990053e-10 1.394932271587e-10
450 3 8.643936038019e-03 1.456594860676e-02 8.229890471594e-03 -2.090382426246e-08 4.721204620204e-08 -8.470702086441e-08 3.351739034169e-05 -3.325773033951e-05 -1.296980605786e-05 1.250000000000e-03 2.045307717181e-05 1.307721632025e-10 -2.594553278036e-10 4.605372084072e-10
451 3 1.088602128998e-02 1.016490089894e-02 1.006334528420e-02 -1.192985051497e-08 1.330065600653e-08 -1.871983520228e-08 2.037162264055e-06 -4.276181931011e-07 8.981787443532e-07 1.250000000000e-03 2.045307717181e-05 5.830234303206e-11 -7.243937650563e-11 9.596147952660e-11
452 3 9.236836790668e-05 1.127133527743e-02 1.428535584485e-02 -1.046126897830e-09 9.505343793048e-09 -5.733385306144e-09 5.804626115992e-06 4.093240461489e-07 -1.113001168639e-06 1.250000000000e-03 2.045307717181e-05 8.645741442255e-12 -4.574874066464e-11 4.020777645364e-11
453 3 9.621358375467e-03 1.185895104456e-02 8.130948900937e-03 -1.981350396487e-08 2.273150608624e-08 -2.360128309644e-08 8.352158614647e-07 5.009079074998e-06 -7.119388654463e-06 1.250000000000e-03 2.045307717181e-05 8.112215768840e-11 -1.407533059384e-10 1.089976397381e-10
454 3 6.703996943792e-03 8.347286142025e-03 1.134910790863e-02 -1.934397079686e-09 9.149993838575e-09 -1.664747628925e-08 -4.029557642653e-06 -3.144744657884e-06 3.883967793256e-06 1.250000000000e-03 2.045307717181e-05 1.009976504192e-11 -6.192958602546e-11 9.221109266061e-11
455 3 1.098543467640e-02 1.392435066762e-02 1.212974622188e-02 -4.523219152971e-09 1.228049832568e-08 -1.746610741648e-09 2.730561993187e-06 3.674657728459e-06 7.843460533136e-07 1.250000000000e-03 2.045307717181e-05 3.822991663693e-11 -5.249331065456e-11 5.171237919156e-12
456 3 1.236796022920e-02 8.779753443608e-03 8.626192031105e-03 -1.389467416677e-08 9.924508218008e-09 -1.472852127074e-08 3.374710861410e-06 -8.741118217663e-06 -7.925328534929e-06 1.250000000000e-03 2.045307717181e-05 6.720999998586e-11 -9.413723882962e-11 6.401173796649e-11
457 3 1.116918206099e-02 1.283100985291e-03 1.388570359857e-02 -2.231508785681e-09 9.364696378483e-09 -3.624281422238e-09 -4.584610780770e-06 -1.432276356248e-07 -2.465018904029e-07 1.250000000000e-03 2.045307717181e-05 2.009880472817e-11 -5.204257148022e-11 1.664499586647e-11
458 3 1.253078546590e-02 9.845133200760e-05 1.110876830421e-02 -7.537973287205e-09 1.682446154985e-08 -6.670757524083e-09 1.440171184565e-06 7.276645451743e-06 -4.017014469402e-06 1.250000000000e-03 2.045307717181e-05 4.571466064967e-11 -9.270095725674e-11 5.032361603954e-11
459 3 1.062505509419e-02 7.893609733395e-03 1.069936622147e-02 -9.181567695962e-09 1.120999584810e-08 -1.335315001286e-08 -5.958542910484e-06 -1.466860416990e-06 4.230313503351e-07 1.250000000000e-03 2.045307717181e-05 6.633014447747e-11 -7.596092025219e-11 7.607068166708e-11
460 3 1.513640271387e-02 1.276775239936e-02 9.950748891641e-03 3.779271931683e-09 9.701582431953e-09 -2.934756430673e-09 -1.694739435005e-05 1.872328972923e-05 -2.149239657064e-05 1.250000000000e-03 2.045307717181e-05 -2.051185482479e-11 -3.153932660640e-11 1.377823084362e-11
461 3 9.585796677552e-03 1.498155158343e-02 1.371910860800e-02 -2.723213393590e-09 9.139234127101e-09 -1.677108964150e-10 1.553560986481e-07 -7.238225017481e-07 4.726369572836e-08 1.250000000000e-03 2.045307717181e-05 2.255108613221e-11 -5.270060684174e-11 3.032368819856e-12
462 3 7.501212455722e-03 1.136504342804e-02 8.766154539295e-03 -1.387868688776e-08 1.881046421277e-08 -2.234912936195e-08 1.257153347358e-07 -4.485092500240e-06 8.194448294559e-06 1.250000000000e-03 2.045307717181e-05 9.451606746779e-11 -1.600743207289e-10 1.110581310335e-10
463 3 9.142140505682e-03 1.173540429775e-02 1.054082592897e-02 -1.393328743334e-08 1.796714517159e-08 -1.631030528317e-08 4.761074136791e-06 -1.017766879396e-06 -3.255213739737e-06 1.250000000000e-03 2.045307717181e-05 6.161459777237e-11 -1.140509266457e-10 7.299310142412e-11
464 3 8.906355347264e-03 1.417415180873e-02 1.103310148428e-02 -1.861546551489e-09 2.173052388519e-08 2.246108898244e-09 1.126662040661e-05 -1.892364388152e-06 -3.339471657477e-06 1.250000000000e-03 2.045307717181e-05 1.258518225178e-11 -1.255428163458e-10 -2.115257323645e-11
465 3 1.107957396699e-02 1.049534031468e-02 1.434951811730e-02 -4.103168285929e-10 6.652278646093e-09 -6.791367660093e-09 3.917230935798e-06 -1.593675535578e-06 -3.439574606418e-06 1.250000000000e-03 2.045307717181e-05 -1.470427363159e-12 -3.535034525728e-11 4.143426072741e-11
466 3 1.342526407980e-02 1.747518744959e-03 9.640127443294e-03 -6.761345465140e-09 1.655462908129e-08 -7.560250273075e-09 -6.102292556960e-07 -7.254698191158e-06 4.200141108631e-06 1.250000000000e-03 2.045307717181e-05 3.541578683358e-11 -9.942762005510e-11 3.902905110881e-11
467 3 8.394580281596e-03 8.377442573770e-03 1.417078466851e-02 -6.534272148719e-10 7.103576298620e-09 -5.302253788519e-09 2.839747521494e-06 6.015767911113e-07 6.830186598239e-08 1.250000000000e-03 2.045307717181e-05 6.957829137170e-12 -4.292248713417e-11 3.102754469471e-11
468 3 5.287691161068e-04 1.347739531283e-02 1.356303906780e-02 -1.320342555022e-09 1.601772582653e-08 -3.815990579858e-09 2.542051532612e-07 3.320212439925e-06 5.339065247459e-07 1.250000000000e-03 2.045307717181e-05 -1.053077381276e-11 -1.059079867263e-10 2.455626173996e-11
469 3 8.793813306882e-03 1.085727194712e-02 1.394980374704e-02 -4.153127348192e-09 1.122715561144e-08 -1.089141245212e-08 -2.128320591516e-07 1.976470755041e-06 3.541616850171e-06 1.250000000000e-03 2.045307717181e-05 2.497541542190e-11 -6.811198489828e-11 5.712800171984e-11
470 3 5.081712675214e-04 1.474012292451e-02 1.102716436660e-02 4.432523771797e-09 1.669029857259e-08 -1.873150217978e-08 3.687945338179e-06 -4.028475206935e-06 2.095593955051e-05 1.250000000000e-03 2.045307717181e-05 -3.908358071239e-11 -1.099774503771e-10 1.020568839598e-10
471 3 6.705075060873e-03 6.589508091348e-04 8.548459478139e-03 -2.778352675458e-08 2.869720395583e-08 -2.945579481109e-08 4.768493158178e-06 5.940613923942e-05 2.371635744851e-05 1.250000000000e-03 2.045307717181e-05 1.483804777428e-10 -1.817845306367e-10 1.687212469940e-10
472 3 1.311311684325e-02 1.293856786329e-02 8.951620562999e-03 -4.086801270451e-09 2.329662221750e-08 4.175976119552e-09 5.318336161611e-06 -1.503655946676e-05 2.083380472867e-06 1.250000000000e-03 2.045307717181e-05 5.716503172588e-11 -1.346818150493e-10 -4.285935355457e-12
473 3 1.246872397506e-02 1.524759516461e-02 8.730807867745e-03 3.952667427533e-10 1.353705460468e-08 -3.486946008949e-09 -7.619405970942e-06 -1.680144496911e-05 -1.493031807741e-06 1.250000000000e-03 2.045307717181e-05 5.245808073444e-11 -1.076085928406e-11 3.398963711510e-11
474 3 1.023835664261e-04 9.650617176790e-03 1.264397157281e-02 -4.084111253475e-09 1.633146775490e-08 -1.095328771606e-08 -9.989293823204e-07 1.698284753892e-06 2.527714443570e-06 1.250000000000e-03 2.045307717181e-05 3.823527780406e-11 -1.180205002587e-10 3.809988779537e-11
475 3 1.337892395554e-02 1.245569406337e-02 1.421409723439e-02 -2.046908640259e-09 7.991951202951e-09 -3.651919151183e-09 3.541924527563e-06 7.843536736692e-07 9.380972722126e-07 1.250000000000e-03 2.045307717181e-05 -1.304682278527e-12 -6.161524461001e-11 2.212361121426e-11
476 3 1.357437395946e-03 1.535964026694e-02 8.407716860350e-03 9.344830643079e-09 9.536180381412e-09 -5.695518413951e-08 -1.116927658338e-05 3.470034157130e-06 -2.178074065461e-05 1.250000000000e-03 2.045307717181e-05 -5.462271855754e-11 -4.900002298427e-11 2.669598831973e-10
477 3 1.034140373994e-02 9.675306764320e-03 7.832837590035e-03 -1.959741313246e-08 1.461847757971e-08 -2.569309374981e-08 1.655695730979e-06 1.219882771414e-06 6.481450434451e-06 1.250000000000e-03 2.045307717181e-05 9.849957206434e-11 -9.174642404985e-11 1.310092513084e-10
478 3 1.272599938759e-02 7.541304426506e-03 1.431404221569e-02 -1.206681619646e-09 5.279815002232e-09 -7.142935508259e-09 2.557766063109e-06 1.403601553903e-07 1.949905034041e-06 1.250000000000e-03 2.045307717181e-05 -6.551986770383e-12 -2.968017853253e-11 3.934070721172e-11
479 3 1.454540496408e-02 7.637300351851e-03 8.687624706955e-03 -3.253896592163e-09 2.644406419804e-08 -5.021693636215e-09 6.037553615157e-06 8.738192374977e-06 -8.609496634979e-06 1.250000000000e-03 2.045307717181e-05 4.091151457430e-11 -1.428658515308e-10 -2.112993502370e-11
480 3 1.776154591248e-03 5.287511799663e-03 1.405276036651e-02 -5.551816840306e-10 1.283220481545e-08 -9.987450666664e-09 3.369932975537e-07 -7.748608033915e-06 -2.521721488833e-06 1.250000000000e-03 2.045307717181e-05 -1.231601621420e-12 -8.258978522049e-11 5.252277050045e-11
481 3 1.087920180162e-02 1.368312757710e-02 8.460120183772e-03 -8.319532225827e-09 1.671960725795e-08 -2.291136005087e-08 -9.474783699430e-06 -1.899256634952e-05 -6.552414221956e-06 1.250000000000e-03 2.045307717181e-05 -2.346288499775e-11 -1.202963471831e-10 9.909561153041e-11
482 3 1.317966220588e-02 1.001178251698e-02 1.049689779450e-02 -7.838482455173e-09 1.189487331313e-08 -1.560871226322e-08 -7.716145652755e-06 2.276914330663e-06 -1.821011503535e-06 1.250000000000e-03 2.045307717181e-05 8.580727395234e-11 -7.637560025848e-11 1.168475009723e-10
483 3 1.388240895665e-02 1.394185601349e-02 1.230043698229e-02 -2.589696976270e-09 1.429328954598e-08 -6.744977617731e-09 -5.518214670524e-07 -3.458783857508e-06 3.310503833181e-06 1.250000000000e-03 2.045307717181e-05 5.805291860410e-12 -8.615515054328e-11 3.256437012322e-11
484 3 7.650982378401e-03 1.221800705318e-02 1.231660409414e-02 -1.266978512798e-08 1.533997755249e-08 -1.861878089462e-08 2.472669906671e-06 -2.593011007811e-06 -7.022234176873e-07 1.250000000000e-03 2.045307717181e-05 7.121276074975e-11 -8.131623610020e-11 1.056288514361e-10
485 3 1.457007674290e-02 5.490195834644e-04 7.930300461878e-03 -8.467123620918e-10 2.181804620431e-08 -1.612583435255e-08 -5.039182862636e-06 3.045118855996e-05 1.058336478073e-05 1.250000000000e-03 2.045307717181e-05 2.570831446345e-11 -1.214008427685e-10 8.586525409698e-11
486 3 1.273384577096e-03 8.506900818168e-03 6.703538561381e-03 -6.799542358612e-09 3.354052605257e-08 -3.392644397109e-09 -5.027349283930e-06 1.888852530379e-05 9.976203353515e-06 1.250000000000e-03 2.045307717181e-05 3.868185050305e-11 -1.915333011786e-10 3.094965458576e-11
487 3 1.219594377169e-02 1.452915976610e-02 1.416629625761e-02 -1.384161091450e-09 7.812176034232e-09 2.705500144717e-10 1.987460114328e-06 3.755304931989e-07 -4.333884216453e-07 1.250000000000e-03 2.045307717181e-05 8.469505479812e-12 -3.492830290036e-11 1.333865822107e-11
488 3 1.057687424766e-02 1.280567909684e-02 1.418949645236e-02 -2.418028352322e-10 5.943301206102e-09 -3.128617667606e-09 2.459237097530e-06 -1.917128412861e-06 2.852591852832e-06 1.250000000000e-03 2.045307717181e-05 8.228500513689e-12 -4.457357973324e-11 2.670662402212e-11
489 3 7.326943838505e-03 1.497554347663e-02 1.275820671372e-02 7.021252649222e-10 8.403221448888e-09 -1.899101942602e-09 -1.118402417982e-07 -2.888968225430e-06 4.050370393660e-06 1.250000000000e-03 2.045307717181e-05 1.670906632965e-12 -5.524669411415e-11 5.014493621943e-12
490 3 1.414772340617e-02 1.156865343538e-02 1.208171622647e-02 -1.863382633256e-09 1.582220584192e-08 -1.211513077864e-08 5.310669642440e-06 -2.920557186240e-06 -3.543769526360e-06 1.250000000000e-03 2.045307717181e-05 1.214210269908e-11 -8.759435598299e-11 6.345247953070e-11
491 3 1.263804238803e-02 1.087006624254e-02 7.802194535086e-03 -4.826647395855e-10 1.759799182513e-08 8.532186895957e-09 1.665805550577e-05 1.435837120389e-05 -3.597243375868e-06 1.250000000000e-03 2.045307717181e-05 -1.374250951773e-11 -9.072825130558e-11 -3.173533683271e-11
492 3 1.534561036466e-02 7.378564141397e-03 1.343812077826e-02 -4.172076562441e-09 1.276473230010e-08 -9.675174471292e-09 1.158645609604e-06 -3.632873285532e-06 -1.490375998323e-06 1.250000000000e-03 2.045307717181e-05 1.280452182123e-11 -8.640568732723e-11 6.470861567094e-11
493 3 1.147809450946e-02 1.242981316837e-02 1.041782912557e-02 -1.725498553676e-08 1.618257311588e-08 -1.080856686296e-08 3.123930100402e-06 4.683370141763e-06 -6.048727404305e-07 1.250000000000e-03 2.045307717181e-05 1.288953300304e-10 -1.066026724200e-10 3.284596900446e-11
494 3 1.447723024099e-02 9.464958535316e-03 7.115570216220e-03 -3.659285501843e-09 2.140322182734e-08 -5.532916996885e-09 -1.211243786537e-05 -6.857868919186e-06 2.087837871774e-06 1.250000000000e-03 2.045307717181e-05 3.428755738000e-11 -1.032087619435e-10 1.461435909240e-11
495 3 5.308144080924e-03 9.982306701762e-03 1.025669105135e-02 -1.020106016668e-08 1.337551888849e-08 -1.785755571225e-08 1.083688802603e-05 2.840168705743e-06 6.352142632239e-06 1.250000000000e-03 2.045307717181e-05 6.716559967692e-11 -8.287174612993e-11 9.369020521174e-11
496 3 8.872134260808e-03 9.096911357148e-03 9.632007412926e-03 -1.165843671639e-08 1.358957047581e-08 -2.081292907771e-08 2.872701433401e-06 3.275249764687e-06 -2.568379679267e-06 1.250000000000e-03 2.045307717181e-05 5.794114228512e-11 -8.827312731335e-11 1.026503307881e-10
497 3 1.176746039032e-02 1.087425951456e-02 1.218616872493e-02 -4.637375742366e-09 1.344325538085e-08 -1.290917023838e-08 8.223950530086e-07 5.275744273704e-06 5.622557740919e-06 1.250000000000e-03 2.045307717181e-05 3.678521144234e-11 -6.988459755962e-11 6.795476588921e-11
498 3 1.506176732618e-02 1.370186852796e-02 7.371857877002e-03 1.192532209537e-08 1.868367287381e-08 9.730690027126e-09 -1.823407797771e-05 -1.849719066382e-05 1.563402736595e-06 1.250000000000e-03 2.045307717181e-05 -9.193274871618e-11 -8.591891767824e-11 -3.791337914054e-11
499 3 1.111743645691e-02 8.603639726134e-03 1.292995462060e-02 -4.312558252012e-09 1.133887272943e-08 -1.143200116504e-08 2.004028363364e-06 -2.715037447103e-07 -1.530819654348e-06 1.250000000000e-03 2.045307717181e-05 2.526915383144e-11 -7.935675160474e-11 6.986110514800e-11
500 3 7.113485431518e-05 1.024090654196e-02 1.033260764601e-02 -2.770447444554e-09 2.456432310777e-08 -9.996143052226e-09 6.186409971681e-06 -7.451504161312e-06 1.121096934489e-05 1.250000000000e-03 2.045307717181e-05 2.642215053414e-11 -1.504535220352e-10 4.239113600477e-11
