ITEM: TIMESTEP
200000
ITEM: NUMBER OF ATOMS
500
ITEM: BOX BOUNDS pp pp ff
0.0000000000000000e+00 1.5370634520482899e-02
0.0000000000000000e+00 1.5370634520482899e-02
0.0000000000000000e+00 1.5370634520482899e-02
ITEM: ATOMS id type x y z radius mass fx fy fz
1 1 0.0011707 0.00511052 0.000726714 0.00075 4.41786e-06 -1.97286e-13 6.6568e-13 1.42717e-12
2 1 0.00682956 0.00395168 0.0019128 0.00075 4.41786e-06 3.44779e-12 2.82074e-12 5.09761e-12
3 1 0.00344407 0.00137597 0.00702864 0.00075 4.41786e-06 2.05953e-12 4.21349e-12 -5.7168e-13
4 1 0.00379403 0.00436476 0.000690016 0.00075 4.41786e-06 -3.92975e-11 1.51934e-11 -1.73639e-12
5 1 0.00628875 0.00663954 0.00724597 0.00075 4.41786e-06 1.88697e-13 -4.42859e-13 -5.42247e-13
6 1 0.00542279 0.00680687 0.00141509 0.00075 4.41786e-06 -1.26823e-13 -1.08747e-13 -6.46285e-14
7 1 0.00404529 0.00458572 0.00550295 0.00075 4.41786e-06 -1.79565e-12 -1.46077e-12 -2.40674e-12
8 1 0.00256822 0.00185237 0.00540656 0.00075 4.41786e-06 -1.53236e-12 4.5713e-12 2.34375e-12
9 1 0.000740444 0.00561481 0.00518617 0.00075 4.41786e-06 -3.56574e-13 -4.07189e-13 8.25124e-13
10 1 0.0037849 0.00384102 0.00271738 0.00075 4.41786e-06 1.59365e-11 -1.12234e-11 -7.87112e-13
11 1 0.0010634 0.00688146 0.00446362 0.00075 4.41786e-06 -2.95448e-12 8.14418e-13 4.10532e-12
12 1 0.00136381 0.00400063 0.00166595 0.00075 4.41786e-06 -1.94698e-12 8.30336e-13 8.67951e-13
13 1 0.00180116 0.0029669 0.000724021 0.00075 4.41786e-06 -1.62124e-13 2.10288e-13 3.01599e-13
14 1 0.00285347 0.00194218 0.0021302 0.00075 4.41786e-06 4.11677e-12 1.29799e-13 -8.92571e-13
15 1 0.00515781 0.00388396 0.00614525 0.00075 4.41786e-06 -1.27185e-12 -1.19679e-12 1.44164e-12
16 1 0.00439855 0.00238369 0.001787 0.00075 4.41786e-06 1.46295e-11 -3.19583e-11 2.31392e-11
17 1 0.00219297 0.00549159 0.00280579 0.00075 4.41786e-06 -2.59023e-12 3.26932e-13 1.47742e-12
18 1 0.00141109 0.00219405 0.00611624 0.00075 4.41786e-06 -4.22457e-12 -5.85254e-13 -3.71997e-12
19 1 0.00279567 0.00445008 0.00364297 0.00075 4.41786e-06 -1.02401e-12 1.86286e-12 -8.67165e-12
20 1 0.00657539 0.00315625 0.00310777 0.00075 4.41786e-06 4.44119e-12 -3.34862e-12 -4.99835e-12
21 1 0.00614882 0.00494256 0.00385241 0.00075 4.41786e-06 -6.59531e-12 -2.23778e-12 6.01e-12
22 1 0.00417694 0.00499294 0.00190663 0.00075 4.41786e-06 -1.24916e-11 -8.74259e-12 6.65579e-13
23 1 0.00276292 0.00450743 0.00186774 0.00075 4.41786e-06 -6.87724e-12 -2.15481e-11 4.13509e-11
24 1 0.0037867 0.00244212 0.00315535 0.00075 4.41786e-06 8.24098e-12 -7.11202e-12 1.01177e-13
25 1 0.00513715 0.00270404 0.00535036 0.00075 4.41786e-06 5.84739e-12 2.941e-13 4.23317e-12
26 1 0.00592388 0.00278187 0.00166533 0.00075 4.41786e-06 -4.92414e-10 4.77799e-10 1.56381e-09
27 1 0.00334507 0.00422073 0.00719383 0.00075 4.41786e-06 6.63178e-13 -3.4365e-12 1.1552e-12
28 1 0.00666115 0.0049784 0.000832305 0.00075 4.41786e-06 6.09667e-11 1.9251e-11 1.01797e-10
29 1 0.00569894 0.00246102 0.00403909 0.00075 4.41786e-06 -7.69533e-12 -6.90604e-12 1.20798e-11
30 1 0.00603666 0.00111207 0.00593149 0.00075 4.41786e-06 4.5177e-12 -5.53515e-12 9.69395e-12
31 1 0.00514995 0.00373308 0.000801508 0.00075 4.41786e-06 -6.92967e-10 -5.54462e-10 1.08848e-09
32 1 0.00228033 0.00509546 0.00687752 0.00075 4.41786e-06 -1.2756e-12 -4.13605e-13 4.76775e-13
33 1 0.0014567 0.00233273 0.00226515 0.00075 4.41786e-06 3.54528e-12 4.68175e-13 5.29444e-12
34 1 0.00279029 0.00552338 0.00076022 0.00075 4.41786e-06 -7.81767e-12 4.62011e-12 6.2266e-12
35 1 0.00511477 0.00321219 0.00288116 0.00075 4.41786e-06 1.04781e-11 -9.54515e-12 7.88561e-12
36 1 0.00387528 0.0021753 0.00484406 0.00075 4.41786e-06 3.78211e-12 -1.62576e-12 6.07655e-12
37 1 0.00351676 0.00601883 0.0026573 0.00075 4.41786e-06 -9.8579e-14 -9.52028e-12 1.39359e-11
38 1 0.0029903 0.00719235 0.0019787 0.00075 4.41786e-06 2.85252e-12 -9.64928e-12 -5.66502e-12
39 1 0.0050585 0.00173411 0.00296705 0.00075 4.41786e-06 1.36277e-11 -1.73913e-11 1.89804e-12
40 1 0.00505141 0.0057516 0.00432738 0.00075 4.41786e-06 6.77911e-13 -1.06114e-12 -2.08599e-12
41 1 0.00623812 0.00369021 0.00455737 0.00075 4.41786e-06 -3.21527e-13 -1.59957e-12 1.05745e-12
42 1 0.00618351 0.00256406 0.00668012 0.00075 4.41786e-06 -1.45799e-12 -8.25084e-13 2.77121e-12
43 1 0.00597012 0.00526271 0.00695189 0.00075 4.41786e-06 1.45137e-13 -8.03391e-13 -7.30261e-13
44 1 0.00498613 0.00577743 0.00284157 0.00075 4.41786e-06 5.58392e-12 -5.6901e-12 -3.3183e-12
45 1 0.00289932 0.00316402 0.00435227 0.00075 4.41786e-06 5.87112e-12 -3.29736e-12 -3.45386e-12
46 1 0.0064113 0.00170331 0.00258678 0.00075 4.41786e-06 7.32863e-12 -1.59968e-11 3.66123e-12
47 1 0.00366126 0.00537321 0.00433115 0.00075 4.41786e-06 2.77822e-12 -2.96077e-12 -4.6066e-12
48 1 0.00479755 0.00450517 0.00355692 0.00075 4.41786e-06 7.00029e-12 -8.22898e-12 8.91269e-12
49 1 0.00455066 0.00499305 0.00683327 0.00075 4.41786e-06 -5.7627e-13 -2.82322e-13 4.40837e-13
50 1 0.0042939 0.00353752 0.00449492 0.00075 4.41786e-06 6.97416e-12 1.91557e-12 6.1774e-12
51 1 0.00233097 0.00324931 0.00568384 0.00075 4.41786e-06 4.23135e-12 3.78821e-12 -1.91794e-12
52 1 0.00284111 0.00193883 0.000692047 0.00075 4.41786e-06 1.81107e-12 8.30025e-13 -2.10794e-13
53 1 0.00320316 0.00319229 0.00135556 0.00075 4.41786e-06 8.74648e-12 -3.4013e-12 7.79856e-12
54 1 0.00622494 0.00654224 0.00265633 0.00075 4.41786e-06 2.00912e-12 -4.60903e-12 1.57316e-12
55 1 0.00648516 0.00245198 0.00527826 0.00075 4.41786e-06 5.52966e-13 -3.40331e-12 6.41795e-12
56 1 0.00274193 0.00641659 0.00382049 0.00075 4.41786e-06 4.70402e-13 -4.87175e-13 -1.31729e-12
57 1 0.00197388 0.00535377 0.00445731 0.00075 4.41786e-06 1.13191e-12 -3.4994e-12 -2.98815e-12
58 1 0.0040045 0.00634479 0.00125722 0.00075 4.41786e-06 1.26823e-13 1.08747e-13 6.46285e-14
59 1 0.00241118 0.00322744 0.00293495 0.00075 4.41786e-06 -3.16409e-12 -4.96788e-12 -3.92833e-12
60 1 0.00172597 0.00615287 0.00160933 0.00075 4.41786e-06 -4.70639e-13 3.20248e-12 1.53539e-12
61 1 0.000977101 0.000911616 0.00545079 0.00075 4.41786e-06 8.54003e-12 -2.70288e-12 1.37951e-11
62 1 0.00443702 0.00126193 0.00603096 0.00075 4.41786e-06 8.75611e-14 -1.98009e-12 8.9059e-12
63 1 0.00561194 0.00474941 0.00194474 0.00075 4.41786e-06 2.53629e-12 9.88033e-12 2.32438e-12
64 1 0.00170942 0.00703751 0.00312605 0.00075 4.41786e-06 -4.30672e-12 -1.3103e-12 5.71642e-12
65 1 0.00243152 0.00701389 0.000672135 0.00075 4.41786e-06 1.83232e-12 1.69808e-12 6.50268e-12
66 1 0.00188511 0.00601158 0.00583302 0.00075 4.41786e-06 -1.57776e-13 -1.39775e-12 2.24619e-13
67 1 0.000323769 0.00273242 0.000725229 0.00075 4.41786e-06 1.63322e-12 -2.87707e-12 1.12354e-12
68 1 0.00634732 0.00449835 0.00574789 0.00075 4.41786e-06 2.20482e-12 -5.29951e-13 -1.12306e-12
69 1 0.00217128 0.00731696 0.00538021 0.00075 4.41786e-06 2.72239e-12 1.57953e-13 9.44377e-13
70 1 0.00258048 0.00464355 0.00556401 0.00075 4.41786e-06 1.18252e-12 -6.51442e-12 -1.55891e-12
71 1 0.00453461 0.00191424 0.0111223 0.00075 4.41786e-06 -1.11336e-12 -2.9628e-14 -1.20656e-12
72 1 0.00353546 0.00135252 0.0103632 0.00075 4.41786e-06 -4.04375e-13 1.92461e-13 4.42471e-13
73 1 0.0045999 0.00528853 0.0136847 0.00075 4.41786e-06 -3.10249e-14 1.80161e-13 -2.03225e-13
74 1 0.00217832 0.00686735 0.0128385 0.00075 4.41786e-06 1.08694e-322 1.08694e-322 -1.08694e-322
75 1 0.00467253 0.00419829 0.0110359 0.00075 4.41786e-06 -3.41128e-12 -8.40757e-12 1.95152e-12
76 1 0.0072877 0.00593717 0.00805869 0.00075 4.41786e-06 4.84854e-13 -1.87735e-13 -1.44178e-12
77 1 0.00464089 0.00120988 0.00938556 0.00075 4.41786e-06 1.15545e-11 1.41671e-13 1.01369e-11
78 1 0.00284042 0.00729213 0.014276 0.00075 4.41786e-06 3.68979e-13 5.1353e-13 1.5106e-13
79 1 0.00494062 0.00455944 0.0124385 0.00075 4.41786e-06 -4.70073e-13 -8.47866e-13 1.43176e-13
80 1 0.00435703 0.00687876 0.00928385 0.00075 4.41786e-06 1.42293e-12 1.97376e-12 3.73182e-12
81 1 0.00145594 0.00708937 0.0146906 0.00075 4.41786e-06 -1.6158e-13 2.88127e-13 -9.78505e-15
82 1 0.00587305 0.00579836 0.00838813 0.00075 4.41786e-06 1.49891e-12 -6.02131e-14 9.56835e-13
83 1 0.00360872 0.00484254 0.0146581 0.00075 4.41786e-06 -2.15164e-14 -2.08497e-13 8.32039e-14
84 1 0.00564652 0.00211842 0.0143288 0.00075 4.41786e-06 1.83144e-14 -2.61944e-13 2.6577e-13
85 1 0.00164471 0.00457336 0.0103152 0.00075 4.41786e-06 -1.2636e-12 -9.12526e-13 1.97561e-12
86 1 0.00718678 0.00427955 0.0126152 0.00075 4.41786e-06 6.75068e-13 1.38498e-13 2.45196e-13
87 1 0.00138808 0.015197 0.0138185 0.00075 4.41786e-06 2.0343e-13 1.15895e-12 -3.77732e-13
88 1 0.00223355 0.00409084 0.0115971 0.00075 4.41786e-06 1.09935e-13 -7.48658e-13 -1.18788e-13
89 1 0.00712973 0.0058333 0.0100266 0.00075 4.41786e-06 4.81986e-13 -2.31809e-12 -1.19656e-13
90 1 0.00514102 0.00550627 0.0107058 0.00075 4.41786e-06 3.41487e-12 8.42167e-12 -3.01475e-12
91 1 0.00196848 0.00116962 0.0135393 0.00075 4.41786e-06 -3.48608e-13 -1.27562e-13 -2.80565e-12
92 1 0.00482817 0.00669996 0.00792395 0.00075 4.41786e-06 1.28402e-12 -1.75983e-12 2.19713e-12
93 1 0.00470613 0.00231828 0.0124863 0.00075 4.41786e-06 -5.84729e-17 -5.6545e-13 5.89737e-13
94 1 0.00227713 0.00190508 0.0102162 0.00075 4.41786e-06 -2.16004e-12 -1.50454e-12 2.84243e-12
95 1 0.00357693 0.00171218 0.0130554 0.00075 4.41786e-06 -2.42248e-14 -9.4301e-14 3.88207e-13
96 1 0.00303034 0.00339469 0.00880031 0.00075 4.41786e-06 9.86994e-13 -1.26957e-12 -5.97256e-14
97 1 0.00408372 0.0063961 0.0105598 0.00075 4.41786e-06 8.46263e-14 1.21393e-12 -5.70851e-13
98 1 0.00524266 0.0152823 0.00960948 0.00075 4.41786e-06 6.35969e-13 -2.54803e-13 -9.47872e-13
99 1 0.00605772 0.00493369 0.013339 0.00075 4.41786e-06 2.63115e-13 -1.31997e-13 -6.83833e-14
100 1 0.00178176 0.00362604 0.0129601 0.00075 4.41786e-06 1.53759e-13 -2.84374e-13 -3.89768e-13
101 2 0.00399246 0.00186836 0.0145468 0.001 1.0472e-05 2.06346e-14 -6.2953e-13 -8.46014e-13
102 2 0.00710799 0.00456736 0.0089545 0.001 1.0472e-05 -2.59597e-12 -1.55072e-12 1.56642e-12
103 2 0.00357848 0.00304545 0.0103741 0.001 1.0472e-05 -6.57898e-13 -3.09891e-12 1.35253e-12
104 2 0.00481632 0.0036413 0.0144291 0.001 1.0472e-05 -1.96478e-13 -4.44839e-13 -1.15457e-13
105 2 0.00567325 0.00610861 0.0121082 0.001 1.0472e-05 1.50229e-12 2.1463e-12 -2.10314e-13
106 2 0.00849744 0.00525546 0.0125753 0.001 1.0472e-05 2.38487e-12 -1.58009e-13 9.10494e-13
107 2 0.000851763 0.00328753 0.0143884 0.001 1.0472e-05 9.28105e-13 -1.25743e-12 -1.51787e-14
108 2 0.00710458 0.00632546 0.0132729 0.001 1.0472e-05 1.07605e-12 -1.10255e-12 7.12676e-13
109 2 0.00198132 0.0046344 0.00845073 0.001 1.0472e-05 6.82437e-12 8.98503e-13 1.48744e-12
110 2 0.00458323 0.00278487 0.00880242 0.001 1.0472e-05 3.84395e-12 -2.14753e-12 2.93249e-12
111 2 0.00507721 0.00157563 0.00747549 0.001 1.0472e-05 1.67742e-12 -2.46008e-13 -3.1574e-13
112 2 0.00280501 0.00261203 0.0120275 0.001 1.0472e-05 1.30451e-12 -1.44317e-12 -3.08097e-13
113 2 0.00104019 0.00216431 0.0125441 0.001 1.0472e-05 2.12061e-12 -1.32387e-12 -7.71778e-12
114 2 0.00388317 0.00286776 0.00643502 0.001 1.0472e-05 5.93796e-12 -1.92881e-12 1.4501e-11
115 2 0.00575946 0.00382595 0.00773708 0.001 1.0472e-05 5.45653e-13 -2.01275e-12 8.42251e-13
116 2 0.00577752 0.00304296 0.0114438 0.001 1.0472e-05 -2.04673e-12 -2.32069e-12 2.26881e-13
117 2 0.0063902 0.00292149 0.00959416 0.001 1.0472e-05 -2.83251e-12 1.18377e-13 -1.01368e-12
118 2 0.00662637 0.0047182 0.0111098 0.001 1.0472e-05 2.9705e-13 3.31928e-14 1.46729e-13
119 2 0.00663465 0.00339992 0.0138561 0.001 1.0472e-05 9.79512e-14 -5.92003e-13 3.21145e-14
120 2 0.00341431 0.0041004 0.0131237 0.001 1.0472e-05 -1.85024e-13 -2.71624e-13 -1.56441e-13
121 2 0.00229923 0.00267082 0.00746956 0.001 1.0472e-05 1.93276e-12 -1.48161e-13 1.00403e-11
122 2 0.00581121 0.00614364 0.0145423 0.001 1.0472e-05 5.3826e-13 -6.90419e-14 -1.97729e-13
123 2 0.00333322 0.00488549 0.0102589 0.001 1.0472e-05 -2.19767e-12 -2.47522e-12 -5.86127e-13
124 2 0.00155176 0.00643669 0.00746675 0.001 1.0472e-05 2.7809e-12 -2.63901e-12 1.05526e-12
125 2 0.00370366 0.0054593 0.00828345 0.001 1.0472e-05 4.69174e-13 -1.41223e-11 3.24399e-14
126 2 0.00508948 0.00460041 0.0093519 0.001 1.0472e-05 1.07804e-12 -1.19665e-12 -1.86186e-12
127 2 0.00222954 0.00617771 0.00949663 0.001 1.0472e-05 4.53566e-12 4.14079e-12 -5.4775e-12
128 2 0.00375294 0.00581914 0.0122878 0.001 1.0472e-05 -5.33018e-13 4.1624e-13 -3.62085e-13
129 2 0.0029563 0.00730875 0.0113204 0.001 1.0472e-05 3.02061e-13 -1.62109e-12 -1.91926e-13
130 2 0.00589556 0.00134181 0.0104678 0.001 1.0472e-05 -1.1419e-11 -2.08867e-12 -8.38458e-12
131 2 0.0077656 0.00155249 0.0103037 0.001 1.0472e-05 -1.84709e-12 -1.40626e-12 -1.10734e-12
132 2 0.00143241 0.00313414 0.00952206 0.001 1.0472e-05 -7.89779e-12 -4.59713e-13 1.27865e-11
133 2 0.00661049 0.0018539 0.0126613 0.001 1.0472e-05 2.27303e-13 -9.95525e-13 1.09287e-12
134 2 0.00593466 0.00696661 0.00987621 0.001 1.0472e-05 6.92242e-12 -1.66882e-12 1.00408e-12
135 2 0.00526479 0.0112222 0.00640163 0.001 1.0472e-05 -3.23738e-12 -9.70756e-12 5.42319e-12
136 2 0.00370291 0.0104493 0.00562724 0.001 1.0472e-05 5.58249e-13 3.23442e-12 1.78932e-12
137 2 0.00529349 0.00897474 0.0035077 0.001 1.0472e-05 1.54882e-13 -3.10486e-12 5.24736e-13
138 2 0.00272268 0.00816306 0.00378704 0.001 1.0472e-05 -7.04877e-12 -1.07653e-11 1.51071e-11
139 2 0.00144722 0.0138203 0.00239112 0.001 1.0472e-05 1.8083e-13 -9.11324e-14 -5.2901e-12
140 2 0.00481115 0.0144793 0.00489786 0.001 1.0472e-05 -5.30935e-12 -1.34506e-11 2.06132e-11
141 2 0.00608571 0.0127769 0.00554103 0.001 1.0472e-05 5.24613e-12 -1.0007e-11 1.66463e-12
142 2 0.0029872 0.00916906 0.00213399 0.001 1.0472e-05 -4.81493e-13 -9.26554e-17 -9.40982e-12
143 2 0.00372771 0.0138531 0.00342931 0.001 1.0472e-05 2.07473e-12 -6.97531e-12 9.24703e-12
144 2 0.00411023 0.000875164 0.000948129 0.001 1.0472e-05 -3.96977e-14 8.81079e-13 1.55904e-12
145 2 0.00224951 0.015109 0.0037907 0.001 1.0472e-05 3.89961e-12 -8.77308e-12 4.65388e-12
146 2 0.0018791 0.0104386 0.00415748 0.001 1.0472e-05 3.9582e-12 -1.68354e-12 -4.36458e-12
147 2 0.00346296 0.0151969 0.00770206 0.001 1.0472e-05 1.07142e-11 -6.65325e-12 1.02905e-11
148 2 0.00286447 0.0112032 0.00267008 0.001 1.0472e-05 3.23348e-12 -7.17196e-13 -6.8613e-12
149 2 0.00213218 0.0132529 0.00405469 0.001 1.0472e-05 5.76901e-12 -2.44402e-12 -5.26322e-12
150 2 0.00511542 0.0151873 0.006662 0.001 1.0472e-05 6.05852e-12 -1.41372e-11 8.63174e-12
151 2 0.00127243 0.0105323 0.00595712 0.001 1.0472e-05 -2.98372e-12 2.42577e-13 2.11069e-12
152 2 0.00691907 0.00923618 0.00440752 0.001 1.0472e-05 1.05009e-12 5.63797e-13 -3.53834e-13
153 2 0.00655459 0.00977958 0.00621386 0.001 1.0472e-05 -2.93261e-12 1.97264e-12 -6.002e-13
154 2 0.00653555 0.010541 0.00289201 0.001 1.0472e-05 -2.43403e-163 -4.68396e-164 4.57173e-164
155 2 0.00570021 7.76042e-05 0.0030827 0.001 1.0472e-05 -1.27135e-11 2.44959e-12 1.2268e-11
156 2 0.00297485 0.0119873 0.00661088 0.001 1.0472e-05 -2.07712e-11 -1.49057e-11 1.01412e-11
157 2 0.00444535 0.0132218 0.00628442 0.001 1.0472e-05 8.81616e-12 -7.72319e-12 4.50757e-12
158 2 0.00442039 0.0146395 0.00192439 0.001 1.0472e-05 7.74808e-13 -1.31783e-11 2.13728e-12
159 2 0.0023473 0.00168708 0.00372602 0.001 1.0472e-05 1.99011e-11 -6.29959e-12 -9.40496e-12
160 2 0.00408177 0.0131248 0.000862552 0.001 1.0472e-05 1.06945e-12 -1.0433e-13 1.6429e-12
161 2 0.00698457 0.0144149 0.00494817 0.001 1.0472e-05 1.40835e-12 -4.25092e-12 -7.30689e-14
162 2 0.00332438 0.0120479 0.00474202 0.001 1.0472e-05 2.66075e-12 -3.97399e-12 -4.20517e-12
163 2 0.00196209 0.0108308 0.0077125 0.001 1.0472e-05 2.57332e-12 3.87771e-12 2.7762e-12
164 2 0.00592487 0.00872856 0.00750834 0.001 1.0472e-05 -3.96034e-12 -1.88318e-12 -6.87371e-12
165 2 0.0026995 0.0139362 0.00645978 0.001 1.0472e-05 -1.63092e-11 -9.74826e-12 -1.06407e-11
166 2 0.00576999 0.00942623 0.00092599 0.001 1.0472e-05 -3.75687e-12 -4.05216e-12 6.50068e-13
167 2 0.00500334 0.00904777 0.00537484 0.001 1.0472e-05 2.0957e-12 3.811e-12 1.42424e-13
168 2 0.00541868 0.0119487 0.00152864 0.001 1.0472e-05 -9.21249e-13 -1.97011e-13 4.15878e-13
169 2 0.00440248 0.00784218 0.00675571 0.001 1.0472e-05 -1.16901e-12 1.6136e-12 -4.61123e-12
170 2 0.0149371 0.0134765 0.000831748 0.001 1.0472e-05 -2.31345e-12 4.84836e-13 -6.91437e-13
171 2 0.00310902 0.00867446 0.00560978 0.001 1.0472e-05 3.59588e-12 4.40186e-12 3.60638e-12
172 2 0.000525141 0.00878184 0.00404723 0.001 1.0472e-05 -2.40876e-166 3.11152e-166 2.19149e-166
173 2 0.00397185 0.00703135 0.00473897 0.001 1.0472e-05 1.73425e-12 -1.77207e-12 -3.10519e-12
174 2 0.00577767 0.0138114 0.000818425 0.001 1.0472e-05 1.13319e-12 -2.93061e-12 -1.97723e-13
175 2 0.00465499 0.0103072 0.00224847 0.001 1.0472e-05 -2.95713e-13 -1.99037e-12 1.90978e-12
176 2 0.00511956 0.0126352 0.00388728 0.001 1.0472e-05 3.25972e-12 1.95521e-12 -1.17404e-12
177 2 0.00530401 0.00638175 0.00590996 0.001 1.0472e-05 5.94413e-12 -1.04871e-12 -5.93692e-13
178 2 0.00382826 0.000623709 0.00317225 0.001 1.0472e-05 -1.56295e-11 -7.0651e-12 4.78699e-12
179 2 0.00134796 0.00781193 0.00169731 0.001 1.0472e-05 2.92384e-12 4.88872e-12 -4.70768e-12
180 2 0.00712276 0.0112209 0.0053118 0.001 1.0472e-05 9.09041e-13 -2.7588e-12 -1.18913e-12
181 2 0.00173901 0.0115725 0.000996305 0.001 1.0472e-05 -3.00656e-12 1.86751e-12 1.70467e-12
182 2 0.0023245 0.000299638 0.00199677 0.001 1.0472e-05 9.5268e-12 -2.38132e-12 -4.18747e-12
183 2 0.00210799 0.000514871 0.00654096 0.001 1.0472e-05 -1.94355e-11 8.18555e-12 -3.77999e-12
184 2 0.00444802 0.00741462 0.00280678 0.001 1.0472e-05 4.21375e-13 -1.76607e-11 -1.06119e-12
185 2 0.00525513 0.0107791 0.00445958 0.001 1.0472e-05 -4.93582e-12 4.59885e-12 -5.49121e-12
186 2 0.00335473 0.000425609 0.0051186 0.001 1.0472e-05 -7.45894e-12 -1.01404e-11 7.65942e-12
187 2 0.00122562 0.00133281 0.000895291 0.001 1.0472e-05 9.99457e-14 -4.38967e-14 -1.36811e-13
188 2 0.00159134 0.00962106 0.000904773 0.001 1.0472e-05 -1.85938e-13 1.76915e-12 2.48841e-13
189 2 0.00344293 0.00620025 0.00644121 0.001 1.0472e-05 -8.72103e-13 1.06415e-12 -1.39277e-12
190 2 0.00672128 0.00783746 0.00584935 0.001 1.0472e-05 1.9667e-12 -2.21672e-12 1.17056e-12
191 2 0.00364312 0.0112715 0.000917367 0.001 1.0472e-05 -2.33809e-12 9.9751e-13 3.46629e-12
192 2 0.00423925 0.00817806 0.000981228 0.001 1.0472e-05 2.69228e-12 -2.06235e-12 -2.61763e-13
193 2 4.48756e-05 0.0149418 0.00193624 0.001 1.0472e-05 -2.05706e-12 -1.50974e-12 -5.43695e-12
194 2 0.00585506 0.00724045 0.0041921 0.001 1.0472e-05 -3.49833e-13 -9.66083e-13 6.77636e-14
195 2 0.00365219 0.00984248 0.00381899 0.001 1.0472e-05 2.3515e-13 -2.89993e-12 -1.03149e-12
196 2 0.00506675 0.000992623 0.00454736 0.001 1.0472e-05 -6.68035e-12 -2.09997e-11 -7.23629e-13
197 2 0.0060604 0.0135231 0.0025013 0.001 1.0472e-05 4.15249e-12 -2.83542e-12 -6.19399e-13
198 2 0.00666417 0.00843233 0.0023315 0.001 1.0472e-05 1.72339e-12 -5.46302e-12 1.77815e-12
199 2 0.00605981 0.0128694 0.00744439 0.001 1.0472e-05 3.63478e-12 -1.04682e-11 4.25117e-12
200 2 0.00250825 0.0141056 0.00088965 0.001 1.0472e-05 1.16977e-12 7.92011e-13 1.39634e-12
201 2 0.00295098 0.0112106 0.0129235 0.001 1.0472e-05 -3.27822e-13 -2.42925e-12 -3.69261e-13
202 2 0.0048244 0.0112618 0.0119632 0.001 1.0472e-05 -4.2779e-13 -2.89541e-12 -1.81438e-12
203 2 0.00548211 0.0151516 0.0113389 0.001 1.0472e-05 -3.61626e-12 -1.30415e-12 1.0927e-13
204 2 0.00567234 0.0122863 0.00915335 0.001 1.0472e-05 3.80831e-12 -1.47619e-12 -8.22744e-13
205 2 0.00331812 0.000266324 0.0137777 0.001 1.0472e-05 2.88003e-13 3.3576e-13 -2.20208e-13
206 2 0.00111172 0.00875979 0.0144934 0.001 1.0472e-05 -1.5969e-12 -4.21807e-15 1.19855e-12
207 2 0.00182772 0.0106391 0.0114077 0.001 1.0472e-05 -2.00962e-12 -9.20649e-13 8.32146e-13
208 2 0.00689966 0.00930795 0.00896955 0.001 1.0472e-05 1.182e-12 -1.04873e-12 2.62917e-12
209 2 0.00203742 0.000697943 0.0119258 0.001 1.0472e-05 4.38851e-12 -4.41643e-12 -1.22942e-12
210 2 0.00212754 0.0121799 0.0144033 0.001 1.0472e-05 3.13069e-13 3.48203e-16 2.2793e-13
211 2 0.00497702 0.0119273 0.0145016 0.001 1.0472e-05 -3.50117e-14 -2.48853e-12 1.718e-13
212 2 0.0033064 0.0105209 0.0094709 0.001 1.0472e-05 -2.60775e-12 -6.49381e-12 -1.81449e-12
213 2 0.00749512 0.0102192 0.0106434 0.001 1.0472e-05 1.65588e-12 2.60176e-13 2.11061e-12
214 2 0.00667672 0.0138941 0.00918894 0.001 1.0472e-05 -5.92252e-13 6.22487e-12 6.92615e-12
215 2 0.00242464 0.000163893 0.0101693 0.001 1.0472e-05 -2.38349e-12 2.86463e-12 2.00465e-12
216 2 0.00709027 0.00750106 0.00843372 0.001 1.0472e-05 2.82611e-12 -3.04154e-12 -7.12375e-13
217 2 0.00016801 0.0112923 0.00846213 0.001 1.0472e-05 -1.26665e-12 4.38639e-13 9.1423e-13
218 2 0.00311064 0.00728365 0.0082707 0.001 1.0472e-05 -8.33971e-13 1.10994e-11 1.26839e-11
219 2 0.00469865 0.00775278 0.0118786 0.001 1.0472e-05 -1.9153e-13 3.60072e-13 9.92275e-13
220 2 0.00441766 0.00698774 0.0136062 0.001 1.0472e-05 1.73494e-13 1.02775e-12 -3.26027e-13
221 2 0.00205995 0.010287 0.0142869 0.001 1.0472e-05 -7.89463e-14 3.48426e-14 6.50335e-13
222 2 0.00311038 0.00143628 0.00871652 0.001 1.0472e-05 5.16467e-12 -5.25945e-12 3.44881e-12
223 2 0.00469255 0.0128511 0.0105487 0.001 1.0472e-05 1.59027e-12 -1.73754e-12 1.35911e-12
224 2 0.00384444 0.0140224 0.0117648 0.001 1.0472e-05 5.7078e-12 2.16434e-12 -4.97421e-12
225 2 0.00638811 0.0135524 0.0112028 0.001 1.0472e-05 -1.96644e-12 -5.80803e-13 6.15714e-13
226 2 0.00381422 0.0105406 0.00754801 0.001 1.0472e-05 -2.90202e-12 2.65079e-12 1.43644e-12
227 2 0.00171268 0.00847756 0.0120604 0.001 1.0472e-05 -5.97671e-13 -5.19905e-13 1.4117e-13
228 2 0.00306325 0.0134397 0.00839677 0.001 1.0472e-05 2.04688e-12 2.11001e-12 -2.9341e-12
229 2 0.00632039 0.00811927 0.0134906 0.001 1.0472e-05 2.82733e-13 -8.35458e-13 -2.75217e-14
230 2 0.0013482 0.00774675 0.00879523 0.001 1.0472e-05 2.5816e-12 -2.0636e-12 -2.46162e-12
231 2 0.0019984 0.00908447 0.010179 0.001 1.0472e-05 -3.64646e-13 -1.41445e-12 1.16754e-12
232 2 0.00434647 0.012254 0.00791536 0.001 1.0472e-05 -1.90613e-12 1.769e-12 -1.03736e-12
233 2 0.00323198 0.0118458 0.0111642 0.001 1.0472e-05 -1.26798e-12 -3.43787e-12 3.00895e-12
234 2 0.00645264 0.0117209 0.0106886 0.001 1.0472e-05 1.2524e-12 -1.73325e-13 -2.20286e-15
235 2 0.00397203 0.0103312 0.0143661 0.001 1.0472e-05 8.38323e-14 -8.14169e-13 -4.28754e-13
236 2 0.00498491 0.00941463 0.0127855 0.001 1.0472e-05 -1.24507e-12 -2.60846e-12 3.69524e-12
237 2 0.00530378 0.0141661 0.0128656 0.001 1.0472e-05 -3.37412e-13 -4.66119e-13 3.02023e-12
238 2 0.00228793 0.0143858 0.0127367 0.001 1.0472e-05 5.93267e-14 8.74262e-13 2.78051e-12
239 2 0.00328473 0.0085585 0.013212 0.001 1.0472e-05 -6.02577e-13 1.34479e-12 1.48138e-12
240 2 0.00523954 0.000677534 0.0134468 0.001 1.0472e-05 -1.97928e-13 -1.68308e-13 1.42595e-12
241 2 0.00714634 0.0151888 0.0104643 0.001 1.0472e-05 -3.81249e-12 -1.47022e-12 -8.54027e-13
242 2 0.00280408 0.00910984 0.0081229 0.001 1.0472e-05 -1.78098e-12 6.03487e-13 1.08967e-12
243 2 0.00646498 0.010388 0.0121456 0.001 1.0472e-05 4.74198e-14 -5.22388e-13 1.06381e-12
244 2 0.00492193 0.0140962 0.00837211 0.001 1.0472e-05 1.73559e-12 1.62557e-12 1.92936e-12
245 2 0.00273796 0.0139536 0.0144902 0.001 1.0472e-05 -7.65005e-13 1.3037e-12 1.55162e-12
246 2 0.00384501 0.0143877 0.00994073 0.001 1.0472e-05 -5.57812e-12 3.0583e-12 6.64612e-12
247 2 0.000964634 0.00954925 0.00859036 0.001 1.0472e-05 2.16641e-12 -1.74382e-12 5.60773e-13
248 2 0.00461833 0.0144913 0.0145233 0.001 1.0472e-05 7.27384e-14 -2.64195e-13 1.22322e-12
249 2 0.00411137 0.0126906 0.013055 0.001 1.0472e-05 4.96672e-13 -4.27223e-12 2.46168e-12
250 2 0.00223161 0.0134397 0.0110687 0.001 1.0472e-05 -7.46709e-12 -6.07964e-12 6.56962e-13
251 2 0.00169377 0.0116267 0.00967871 0.001 1.0472e-05 -1.38868e-12 -4.87193e-12 -1.97674e-13
252 2 0.000823635 0.0122402 0.0117675 0.001 1.0472e-05 -1.53086e-12 -3.12856e-12 1.43747e-12
253 2 0.00476127 0.00861434 0.014508 0.001 1.0472e-05 6.88331e-13 1.01693e-12 -4.8312e-12
254 2 0.00384724 0.00848007 0.0103051 0.001 1.0472e-05 -5.8281e-13 -2.94165e-13 -1.7329e-12
255 2 0.00452694 0.00844688 0.00858962 0.001 1.0472e-05 -1.09423e-11 -7.88078e-12 -7.48576e-12
256 2 0.0056202 0.0105558 0.00816 0.001 1.0472e-05 -1.54058e-12 2.97877e-12 -4.87727e-12
257 2 0.00155741 0.0135747 0.00940106 0.001 1.0472e-05 6.71188e-13 -1.40139e-12 2.91198e-12
258 2 0.00614671 0.0133954 0.0143624 0.001 1.0472e-05 -1.99266e-13 -4.71345e-13 -3.87209e-15
259 2 0.00393807 0.000611289 0.0119421 0.001 1.0472e-05 2.28518e-12 -1.96275e-12 -1.60637e-12
260 2 0.00349769 0.00980044 0.0116479 0.001 1.0472e-05 -9.00632e-13 -9.77714e-13 -8.25656e-13
261 2 0.000548399 0.00108297 0.00389784 0.001 1.0472e-05 1.01711e-11 -2.85824e-13 -7.03721e-12
262 2 0.00946043 0.0048416 0.0067642 0.001 1.0472e-05 -1.73981e-12 -1.03426e-12 -7.55518e-13
263 2 0.00899496 0.0051403 0.00459255 0.001 1.0472e-05 1.73234e-12 9.87764e-13 -2.38216e-12
264 2 0.0125247 5.49085e-06 0.00148338 0.001 1.0472e-05 3.58263e-12 7.48585e-14 2.1256e-12
265 2 0.0122929 0.00281879 0.00402692 0.001 1.0472e-05 1.56309e-12 -1.25119e-12 -4.16821e-12
266 2 0.0151608 0.00191201 0.00635102 0.001 1.0472e-05 5.11913e-12 5.12479e-12 -1.14269e-12
267 2 0.0122582 0.00502918 0.00672192 0.001 1.0472e-05 2.07297e-12 -1.72494e-13 7.95166e-13
268 2 0.0110614 0.00457309 0.0053416 0.001 1.0472e-05 2.70161e-12 7.46716e-14 1.35615e-12
269 2 0.0077191 0.00351014 0.00557748 0.001 1.0472e-05 1.71563e-12 -8.32565e-12 1.18469e-11
270 2 0.00905314 0.00146862 0.00281189 0.001 1.0472e-05 -9.34474e-12 -2.1849e-12 2.88117e-12
271 2 0.00957421 0.00532821 0.000903712 0.001 1.0472e-05 6.18371e-13 3.93331e-12 -4.96717e-13
272 2 0.00960191 0.0033701 0.00513905 0.001 1.0472e-05 -3.8602e-12 -4.80662e-12 1.1793e-11
273 2 0.0107523 0.00622953 0.00673989 0.001 1.0472e-05 -8.83351e-13 -2.25923e-13 2.43772e-13
274 2 0.000377213 0.00610556 0.00297322 0.001 1.0472e-05 -3.38811e-12 4.52815e-12 1.37917e-12
275 2 0.00928843 0.00377996 0.00252641 0.001 1.0472e-05 -3.49646e-12 4.82859e-12 -5.37019e-12
276 2 0.00928833 0.00569472 0.00272336 0.001 1.0472e-05 4.92993e-12 -4.36576e-13 -5.25465e-13
277 2 0.0112535 0.000871386 0.00292963 0.001 1.0472e-05 -4.26431e-12 1.80322e-12 3.47496e-13
278 2 0.0151627 0.00701699 0.00668121 0.001 1.0472e-05 -6.91874e-13 -1.47341e-12 1.35128e-12
279 2 0.0138078 0.00130177 0.000879963 0.001 1.0472e-05 2.70564e-12 3.8371e-12 -1.65726e-12
280 2 0.0110067 0.00656694 0.00091785 0.001 1.0472e-05 7.07719e-13 2.75198e-12 2.81555e-12
281 2 0.0107648 0.00478944 0.00346979 0.001 1.0472e-05 6.36801e-12 -6.75681e-12 5.14964e-12
282 2 0.00694762 0.0058941 0.00511462 0.001 1.0472e-05 7.12268e-12 -3.96883e-12 1.51567e-11
283 2 0.0075611 0.00468358 0.00703912 0.001 1.0472e-05 -2.95774e-12 -2.00733e-12 -1.4636e-12
284 2 0.0141708 0.00334606 0.00715627 0.001 1.0472e-05 2.23e-12 5.15568e-13 -4.15591e-12
285 2 0.0136121 0.00321666 0.00533547 0.001 1.0472e-05 1.82404e-12 -2.63393e-12 -2.9593e-12
286 2 0.0139667 0.00549135 0.00270771 0.001 1.0472e-05 -1.50233e-12 1.93798e-12 -6.02224e-12
287 2 0.0113738 0.00260039 0.00558774 0.001 1.0472e-05 1.09167e-12 -2.1746e-12 -2.07021e-12
288 2 0.0153517 0.00318868 0.00231321 0.001 1.0472e-05 -6.02932e-12 1.75603e-13 -6.62902e-13
289 2 0.0150963 0.00446206 0.00463744 0.001 1.0472e-05 3.58205e-12 -1.96983e-12 2.22989e-12
290 2 0.000765868 0.00391224 0.00616403 0.001 1.0472e-05 -2.83702e-13 -3.0894e-12 -4.92365e-13
291 2 0.0120416 0.00270175 0.000854256 0.001 1.0472e-05 -6.60945e-12 5.53599e-12 -9.43653e-12
292 2 0.00933357 0.00145381 0.00488897 0.001 1.0472e-05 -1.42367e-12 2.98465e-12 1.07457e-12
293 2 0.0140816 0.00490977 0.00614503 0.001 1.0472e-05 1.07612e-12 -8.41329e-12 -8.26948e-13
294 2 0.0150977 0.00676716 0.00128897 0.001 1.0472e-05 -7.26779e-13 2.69534e-12 -1.3202e-12
295 2 0.0137017 0.0149528 0.00453234 0.001 1.0472e-05 -2.46746e-12 -1.15605e-12 1.59939e-12
296 2 0.0083678 0.000857822 0.00107273 0.001 1.0472e-05 4.63064e-12 -3.53615e-12 -4.33201e-13
297 2 0.00897248 0.00298347 0.00694755 0.001 1.0472e-05 -3.90397e-12 1.18782e-11 -1.65488e-11
298 2 0.0138795 0.00372766 0.00344299 0.001 1.0472e-05 3.49057e-12 5.1426e-12 -3.20187e-12
299 2 0.0111716 0.0044529 0.00866155 0.001 1.0472e-05 2.44296e-12 1.04983e-12 1.43937e-12
300 2 0.00111397 0.00434177 0.0033338 0.001 1.0472e-05 -5.03907e-12 2.60153e-12 2.21757e-12
301 2 0.0140837 0.00318496 0.000865533 0.001 1.0472e-05 3.21941e-12 4.9495e-12 -4.80018e-12
302 2 0.0149857 0.00131859 0.00231257 0.001 1.0472e-05 -7.18998e-13 -3.29313e-13 -6.28752e-12
303 2 0.0131562 0.00733283 0.00087517 0.001 1.0472e-05 -1.25557e-12 1.38429e-12 -2.35607e-12
304 2 0.0121435 0.00610867 0.00297098 0.001 1.0472e-05 -2.0431e-12 -1.32312e-12 1.85943e-13
305 2 0.0142487 0.00152212 0.00469534 0.001 1.0472e-05 3.4877e-12 2.97752e-12 1.15717e-11
306 2 0.0118938 0.00651189 0.00823478 0.001 1.0472e-05 -2.4562e-12 -6.16079e-12 -4.66995e-12
307 2 0.00105294 0.00285164 0.0045668 0.001 1.0472e-05 1.56288e-12 -6.31404e-13 -9.23665e-13
308 2 0.0104459 0.00252384 0.00360299 0.001 1.0472e-05 -3.9303e-12 2.00053e-12 4.75397e-12
309 2 0.0132316 0.00241463 0.00231263 0.001 1.0472e-05 1.25216e-11 9.69236e-12 -4.34837e-12
310 2 0.0130675 0.000852748 0.00332624 0.001 1.0472e-05 -1.15813e-11 -1.70708e-11 1.17239e-11
311 2 0.0135949 0.00616739 0.00746916 0.001 1.0472e-05 3.79421e-12 -4.18782e-12 -2.56232e-12
312 2 0.0103425 0.00356832 0.000950368 0.001 1.0472e-05 -4.30084e-12 1.35114e-12 4.37043e-12
313 2 0.0116922 0.0035389 0.00243865 0.001 1.0472e-05 3.66301e-12 1.02771e-12 2.31017e-12
314 2 0.0076989 0.00249733 0.00196093 0.001 1.0472e-05 -9.742e-12 -1.39302e-12 -5.11631e-12
315 2 0.0128514 0.00497609 0.00459209 0.001 1.0472e-05 -3.44919e-13 -4.94401e-13 -1.1801e-12
316 2 0.00822397 0.00396195 0.000902438 0.001 1.0472e-05 4.71442e-12 8.62364e-12 -2.64703e-12
317 2 0.007401 0.00527948 0.00279735 0.001 1.0472e-05 2.00377e-11 1.07035e-11 1.49326e-12
318 2 0.0147414 0.00494391 0.000933168 0.001 1.0472e-05 -1.25249e-13 -1.11852e-12 -7.65137e-13
319 2 0.0108126 0.00359323 0.00701068 0.001 1.0472e-05 3.43549e-13 6.54775e-13 8.97175e-13
320 2 0.0082418 0.00292195 0.00383004 0.001 1.0472e-05 -1.84686e-11 -2.18435e-11 3.45383e-12
321 2 0.0152043 0.00627832 0.0115894 0.001 1.0472e-05 -1.31415e-12 -1.24593e-12 -1.27991e-13
322 2 0.00882078 0.0013396 0.00861891 0.001 1.0472e-05 -1.48199e-13 3.1079e-13 2.99433e-12
323 2 0.0148449 0.00816561 0.0107141 0.001 1.0472e-05 5.6519e-13 -9.5438e-13 2.23292e-12
324 2 0.00830048 0.00315535 0.00948273 0.001 1.0472e-05 -5.71797e-13 9.55061e-13 1.71101e-12
325 2 0.0146388 0.00374902 0.0124985 0.001 1.0472e-05 1.39014e-12 -5.9568e-13 -2.02906e-12
326 2 0.0104539 0.000325942 0.00945686 0.001 1.0472e-05 3.53444e-12 -1.01137e-12 -2.48733e-13
327 2 0.000238218 0.000490563 0.0128011 0.001 1.0472e-05 1.06369e-12 -6.24238e-13 -7.6706e-13
328 2 0.00997621 0.00291257 0.00861685 0.001 1.0472e-05 -5.36085e-13 1.35406e-12 1.84003e-12
329 2 0.000657196 0.00109363 0.0145429 0.001 1.0472e-05 -2.23338e-13 -7.97325e-13 -2.36992e-12
330 2 0.00117083 0.00728034 0.010666 0.001 1.0472e-05 1.56001e-12 -1.27012e-12 -4.12822e-13
331 2 0.0129987 0.00604738 0.0129174 0.001 1.0472e-05 -1.4068e-13 1.21435e-14 1.17207e-12
332 2 0.0130355 0.00326474 0.0132658 0.001 1.0472e-05 -4.99563e-13 -5.22792e-13 1.03481e-13
333 2 0.0117596 0.00309814 0.0145676 0.001 1.0472e-05 -1.78866e-13 -3.80227e-13 1.59964e-13
334 2 0.000386063 0.00376124 0.0080336 0.001 1.0472e-05 -1.10305e-12 4.08138e-12 -1.18335e-12
335 2 0.0133839 0.0029176 0.0113978 0.001 1.0472e-05 1.60645e-12 7.30772e-13 -2.53148e-12
336 2 0.012683 0.00370005 0.00987335 0.001 1.0472e-05 3.99839e-12 2.53874e-12 -1.15288e-12
337 2 0.0111047 0.00322874 0.0128464 0.001 1.0472e-05 9.75576e-13 2.70727e-13 1.68595e-13
338 2 0.0115028 0.00176021 0.00856987 0.001 1.0472e-05 2.40008e-12 -1.52838e-12 1.8295e-12
339 2 0.0109579 0.00422171 0.0105768 0.001 1.0472e-05 -1.83089e-12 1.72673e-12 1.19926e-12
340 2 0.0153218 0.00552158 0.00779171 0.001 1.0472e-05 2.23666e-12 -8.03393e-12 -2.49054e-12
341 2 0.0148011 0.00217653 0.013565 0.001 1.0472e-05 -2.41165e-13 -4.21123e-13 -7.12282e-13
342 2 0.0131028 0.00145473 0.0126457 0.001 1.0472e-05 -1.01812e-12 -1.3125e-12 1.46682e-12
343 2 0.0132129 0.00176661 0.0145042 0.001 1.0472e-05 4.46836e-13 2.02926e-13 6.0405e-13
344 2 0.0123842 0.00446837 0.0118567 0.001 1.0472e-05 -1.24547e-12 -1.34675e-12 8.56153e-13
345 2 0.0143428 0.0046883 0.0108008 0.001 1.0472e-05 3.53998e-12 -5.7607e-12 -6.67609e-13
346 2 0.00828984 0.00703131 0.00991494 0.001 1.0472e-05 1.66002e-12 -2.58514e-12 3.43947e-12
347 2 0.00973075 0.00319856 0.0115965 0.001 1.0472e-05 -3.90096e-13 1.0968e-12 6.92613e-14
348 2 0.000659361 0.00136292 0.0100288 0.001 1.0472e-05 -1.39232e-12 -3.35288e-12 3.14323e-12
349 2 0.0147573 0.00538275 0.0133675 0.001 1.0472e-05 1.15245e-12 3.64783e-13 6.25217e-15
350 2 0.0118693 0.00478461 0.0136612 0.001 1.0472e-05 8.73768e-14 -1.21912e-13 9.53678e-13
351 2 0.00743169 0.00176539 0.014449 0.001 1.0472e-05 -1.13293e-13 -9.30479e-14 -6.07053e-13
352 2 0.0090499 0.00459055 0.010432 0.001 1.0472e-05 -1.66678e-12 1.82926e-13 8.53764e-13
353 2 0.0137655 0.00481088 0.00877984 0.001 1.0472e-05 -3.3582e-13 -3.12546e-12 9.60586e-13
354 2 0.00960321 0.00181809 0.0103479 0.001 1.0472e-05 8.00304e-13 7.30527e-14 1.23478e-12
355 2 0.00946024 0.00620843 0.0112433 0.001 1.0472e-05 5.36184e-13 -1.19854e-12 1.12449e-12
356 2 0.0105107 0.000720346 0.0117155 0.001 1.0472e-05 -1.46802e-12 -2.08423e-12 2.64016e-12
357 2 0.0124801 0.00725132 0.0099063 0.001 1.0472e-05 -3.06621e-12 -3.37505e-12 -1.30518e-12
358 2 0.0103391 0.00488998 0.0124083 0.001 1.0472e-05 1.9488e-12 5.89736e-13 1.13295e-12
359 2 0.00990609 0.00687804 0.01301 0.001 1.0472e-05 4.64832e-13 -3.50541e-13 1.42056e-12
360 2 0.00207001 0.00574656 0.0114178 0.001 1.0472e-05 -6.80088e-13 -2.90018e-13 1.4149e-13
361 2 0.0122759 0.0054662 0.00987122 0.001 1.0472e-05 8.47474e-13 1.8149e-12 3.54029e-12
362 2 0.000686784 0.00198909 0.00815714 0.001 1.0472e-05 -1.31783e-12 -8.82323e-13 1.92166e-12
363 2 0.00867261 0.00619078 0.0144088 0.001 1.0472e-05 1.3865e-12 2.52285e-13 -2.17655e-14
364 2 0.0134066 0.00629914 0.0111578 0.001 1.0472e-05 2.71483e-13 -2.35884e-12 5.31323e-12
365 2 0.0140254 0.000188289 0.0137962 0.001 1.0472e-05 7.59249e-13 3.52555e-13 1.96176e-12
366 2 0.0115138 0.00619653 0.0116648 0.001 1.0472e-05 1.0654e-12 -5.85838e-13 2.86107e-12
367 2 0.0003715 0.00563588 0.0098039 0.001 1.0472e-05 8.11005e-13 -3.02248e-12 -1.13616e-12
368 2 0.00883177 0.00539094 0.00851889 0.001 1.0472e-05 2.10487e-12 9.24839e-13 1.05359e-12
369 2 0.00855655 0.00375569 0.0143676 0.001 1.0472e-05 -1.10344e-165 5.83047e-166 1.82422e-166
370 2 0.0106108 0.00593469 0.0144755 0.001 1.0472e-05 6.40818e-13 3.04871e-13 9.51742e-13
371 2 0.000435341 0.00315467 0.0111385 0.001 1.0472e-05 5.74259e-12 -1.98139e-13 -1.21515e-11
372 2 0.0135555 0.00458318 0.0145284 0.001 1.0472e-05 7.83518e-13 -5.89782e-13 1.72002e-12
373 2 0.014678 0.00147746 0.0114418 0.001 1.0472e-05 -8.79625e-13 3.72172e-16 -1.78672e-12
374 2 0.00778333 0.00316772 0.0114166 0.001 1.0472e-05 9.20918e-14 2.78063e-13 8.95375e-13
375 2 0.00829656 0.00728812 0.0122228 0.001 1.0472e-05 1.10993e-12 -1.72501e-12 7.67652e-13
376 2 0.0125129 0.0032891 0.00805 0.001 1.0472e-05 2.61573e-12 -6.03041e-13 -1.8895e-12
377 2 0.011491 0.00225467 0.010561 0.001 1.0472e-05 1.53407e-12 1.6664e-12 -1.77004e-12
378 2 0.0148174 0.00331675 0.00957953 0.001 1.0472e-05 1.36086e-12 3.02773e-12 -5.2774e-12
379 2 0.0103916 0.00584209 0.00964457 0.001 1.0472e-05 1.39454e-12 4.25045e-13 8.4893e-13
380 2 0.000782605 0.004729 0.012171 0.001 1.0472e-05 9.95023e-14 -1.1093e-12 -1.50081e-12
381 2 0.00735197 0.00279899 0.00788263 0.001 1.0472e-05 -2.33553e-13 2.33307e-12 3.16286e-12
382 2 0.00825582 0.0105605 0.00394566 0.001 1.0472e-05 1.04735e-12 -1.42258e-12 -7.42715e-14
383 2 0.0101431 0.0127092 0.000800742 0.001 1.0472e-05 -1.43306e-12 2.25878e-12 1.15667e-12
384 2 0.0136985 0.011205 0.00300752 0.001 1.0472e-05 1.28607e-13 5.58425e-13 2.04631e-12
385 2 0.00909827 0.0107271 0.0022615 0.001 1.0472e-05 1.84913e-11 -1.09848e-11 1.40555e-11
386 2 0.00692381 0.0145761 0.00688904 0.001 1.0472e-05 5.8878e-12 -5.92364e-12 7.03151e-12
387 2 0.0115557 0.013727 0.00528046 0.001 1.0472e-05 -3.54164e-12 3.11831e-12 -3.32798e-12
388 2 0.00887622 0.0143181 0.000931416 0.001 1.0472e-05 7.12194e-13 1.67973e-12 1.97436e-12
389 2 0.00969123 0.00745865 0.00209316 0.001 1.0472e-05 6.00765e-12 3.55281e-13 2.83545e-12
390 2 0.00888796 0.00896215 0.00303493 0.001 1.0472e-05 1.85862e-12 -3.0958e-12 4.31473e-12
391 2 0.0126075 0.0104874 0.00529546 0.001 1.0472e-05 -2.02378e-11 -6.92743e-12 3.82425e-13
392 2 0.0101503 0.0100872 0.00404578 0.001 1.0472e-05 -4.11624e-12 -3.49832e-13 7.24903e-13
393 2 0.0139469 0.00867778 0.0047584 0.001 1.0472e-05 -2.16833e-12 -8.72724e-13 -4.73617e-13
394 2 0.0148665 0.0115372 0.00671125 0.001 1.0472e-05 -1.43434e-13 2.06656e-12 -2.09191e-12
395 2 0.0108352 0.0145302 0.000991026 0.001 1.0472e-05 7.10287e-13 -2.58681e-13 1.65656e-12
396 2 0.0101744 0.0144328 0.00653684 0.001 1.0472e-05 -8.63842e-13 -1.86738e-12 5.1499e-13
397 2 0.0133082 0.01258 0.00691551 0.001 1.0472e-05 1.34835e-12 4.07252e-12 -4.11681e-12
398 2 0.0104063 0.00910804 0.00135654 0.001 1.0472e-05 -3.68253e-12 6.81307e-13 1.37825e-12
399 2 0.0116506 0.0078225 0.0020951 0.001 1.0472e-05 -1.19208e-13 1.67729e-12 2.56803e-12
400 2 0.00868971 0.00887219 0.00488879 0.001 1.0472e-05 2.32956e-12 1.98252e-12 3.434e-12
401 3 0.0116331 0.000536014 0.00499873 0.00125 2.04531e-05 -1.13786e-11 3.65724e-14 -2.72071e-12
402 3 0.01107 0.0110992 0.00169783 0.00125 2.04531e-05 5.53677e-13 8.48728e-13 6.45849e-12
403 3 0.0108182 0.0066544 0.00457727 0.00125 2.04531e-05 -4.94557e-12 -7.18026e-12 2.27351e-12
404 3 0.0148271 0.0106248 0.00479047 0.00125 2.04531e-05 3.78374e-12 -1.98587e-12 -4.5401e-12
405 3 0.00721792 0.00109848 0.00425242 0.00125 2.04531e-05 -2.80914e-12 1.215e-11 -1.16318e-12
406 3 0.00868181 0.00672036 0.00609242 0.00125 2.04531e-05 -1.25705e-11 -2.13398e-12 -6.51499e-12
407 3 0.0102641 0.00122605 0.00689336 0.00125 2.04531e-05 8.32154e-12 -1.19e-11 5.2507e-12
408 3 0.0104371 0.00134728 0.00109536 0.00125 2.04531e-05 2.03885e-13 2.41102e-12 5.84745e-13
409 3 0.0119542 0.00882991 0.00392122 0.00125 2.04531e-05 -2.12895e-12 -1.35129e-12 -7.64414e-13
410 3 0.0078885 0.00115519 0.00652779 0.00125 2.04531e-05 9.05175e-12 -1.12553e-12 2.17984e-11
411 3 0.0149448 0.0112878 0.00116843 0.00125 2.04531e-05 -4.10461e-12 1.15275e-12 -8.98166e-13
412 3 0.00975525 0.0150236 0.00373614 0.00125 2.04531e-05 -1.47917e-11 6.26672e-14 -1.3405e-12
413 3 0.0129972 0.0146506 0.00650595 0.00125 2.04531e-05 -7.09011e-12 6.53275e-12 -2.07446e-12
414 3 0.0111639 0.0118793 0.00631586 0.00125 2.04531e-05 7.24016e-12 4.93889e-13 1.76425e-12
415 3 0.0079663 0.0126963 0.00664107 0.00125 2.04531e-05 2.85157e-12 -1.1241e-11 5.25982e-12
416 3 0.00811194 0.00711213 0.00378661 0.00125 2.04531e-05 1.72456e-11 1.51621e-11 1.31566e-11
417 3 0.00627456 0.000523119 0.00108581 0.00125 2.04531e-05 1.15695e-11 -9.079e-12 4.23695e-12
418 3 0.0137793 0.00766218 0.00285174 0.00125 2.04531e-05 -6.18179e-12 -5.36828e-12 -1.74784e-12
419 3 0.00753351 0.0117752 0.00121546 0.00125 2.04531e-05 -2.23396e-11 1.14854e-11 -1.70877e-11
420 3 0.012523 0.0050378 0.00113546 0.00125 2.04531e-05 -3.18507e-12 -6.91075e-13 -5.44376e-13
421 3 0.0127776 0.00786595 0.00641356 0.00125 2.04531e-05 -1.1326e-13 3.68976e-13 -1.08398e-12
422 3 0.0119305 0.014158 0.00320543 0.00125 2.04531e-05 -4.83039e-13 3.68898e-12 -9.26721e-12
423 3 0.00769132 0.0148031 0.00268428 0.00125 2.04531e-05 1.31812e-11 5.04959e-12 3.61649e-12
424 3 0.0149507 0.00889781 0.00113505 0.00125 2.04531e-05 -1.88361e-12 1.18989e-12 1.23157e-12
425 3 0.00909159 0.0106684 0.00598173 0.00125 2.04531e-05 -3.35821e-12 -3.96206e-12 5.72583e-12
426 3 0.00957139 0.0130018 0.00498252 0.00125 2.04531e-05 -1.20699e-11 1.86498e-11 -1.25772e-11
427 3 0.0128412 0.00961052 0.00175484 0.00125 2.04531e-05 1.36308e-12 2.04539e-13 2.72976e-12
428 3 0.00929503 0.0129788 0.00260713 0.00125 2.04531e-05 -5.92732e-12 7.56877e-12 7.49173e-13
429 3 0.0128574 0.0124137 0.00106458 0.00125 2.04531e-05 4.50653e-13 2.26843e-12 -1.48851e-12
430 3 0.00731839 0.0125537 0.0037968 0.00125 2.04531e-05 -3.74071e-13 -4.61242e-12 -4.25594e-12
431 3 0.0114409 0.0118472 0.00393012 0.00125 2.04531e-05 -6.78909e-12 3.59765e-12 -6.14058e-13
432 3 0.0135289 0.0127815 0.00488477 0.00125 2.04531e-05 -1.78816e-13 1.42924e-11 -1.37964e-12
433 3 0.012889 0.00163571 0.00672226 0.00125 2.04531e-05 -1.99947e-12 -2.76633e-12 -4.55317e-12
434 3 0.0144647 0.00654281 0.00477441 0.00125 2.04531e-05 -7.47123e-12 -8.27045e-12 -5.78471e-13
435 3 0.000666986 0.0119486 0.00316235 0.00125 2.04531e-05 1.74544e-12 4.41292e-13 -6.35915e-12
436 3 0.000306725 0.0143036 0.00420613 0.00125 2.04531e-05 -7.30957e-13 3.70984e-12 -8.59516e-12
437 3 0.00826281 0.00911777 0.00107144 0.00125 2.04531e-05 1.10483e-11 -4.72875e-12 7.4433e-12
438 3 0.0141116 0.0133757 0.00272953 0.00125 2.04531e-05 1.05027e-12 2.66393e-12 -1.2101e-12
439 3 0.00110378 0.0126618 0.00579861 0.00125 2.04531e-05 6.35551e-12 -1.57154e-12 5.51916e-12
440 3 0.00753281 0.00674216 0.00119193 0.00125 2.04531e-05 4.16057e-12 -1.36974e-11 9.88969e-13
441 3 0.0105651 0.00867453 0.00580362 0.00125 2.04531e-05 -1.54522e-12 -2.1848e-12 2.62938e-12
442 3 0.00976583 0.00736625 0.00826983 0.00125 2.04531e-05 -2.04945e-12 -1.1247e-12 5.30885e-12
443 3 0.00819323 0.0132201 0.0143049 0.00125 2.04531e-05 2.7079e-14 -1.91391e-12 -6.75045e-13
444 3 0.0134194 0.0100432 0.0140288 0.00125 2.04531e-05 1.44577e-12 9.60502e-13 8.47637e-13
445 3 0.00875053 0.00160659 0.0127024 0.00125 2.04531e-05 6.57846e-13 7.92389e-13 1.34084e-12
446 3 0.0134521 0.00841451 0.0122717 0.00125 2.04531e-05 -1.0738e-12 1.37884e-12 5.60754e-12
447 3 0.00898189 0.00938943 0.0120256 0.00125 2.04531e-05 1.5814e-12 -1.13152e-12 1.71192e-12
448 3 0.00649177 0.0103061 0.014246 0.00125 2.04531e-05 -8.10156e-13 -2.40333e-12 -5.9038e-13
449 3 0.00821784 0.00881385 0.00715772 0.00125 2.04531e-05 2.74452e-12 -3.89635e-12 2.41521e-12
450 3 0.00864394 0.0145659 0.00822989 0.00125 2.04531e-05 1.2371e-12 -7.68088e-13 5.70866e-12
451 3 0.010886 0.0101649 0.0100633 0.00125 2.04531e-05 7.21736e-12 3.60141e-12 2.68722e-12
452 3 9.23684e-05 0.0112713 0.0142854 0.00125 2.04531e-05 8.71471e-13 1.06601e-12 -8.69896e-13
453 3 0.00962136 0.011859 0.00813095 0.00125 2.04531e-05 1.08827e-11 -3.97423e-12 8.81005e-12
454 3 0.006704 0.00834729 0.0113491 0.00125 2.04531e-05 -3.03929e-12 7.9156e-13 5.39805e-12
455 3 0.0109854 0.0139244 0.0121297 0.00125 2.04531e-05 2.71737e-13 -7.23674e-13 5.3215e-12
456 3 0.012368 0.00877975 0.00862619 0.00125 2.04531e-05 3.81976e-12 1.91249e-11 -4.50664e-12
457 3 0.0111692 0.0012831 0.0138857 0.00125 2.04531e-05 3.25137e-13 -1.59774e-12 1.42245e-12
458 3 0.0125308 9.84514e-05 0.0111088 0.00125 2.04531e-05 1.43056e-13 -2.15219e-12 4.64541e-12
459 3 0.0106251 0.00789361 0.0106994 0.00125 2.04531e-05 -2.56967e-12 -4.76147e-12 6.97162e-12
460 3 0.0151364 0.0127678 0.00995075 0.00125 2.04531e-05 2.34428e-12 2.29309e-12 5.46787e-12
461 3 0.0095858 0.0149816 0.0137191 0.00125 2.04531e-05 3.12083e-14 -4.26198e-12 -1.0709e-13
462 3 0.00750121 0.011365 0.00876615 0.00125 2.04531e-05 1.00909e-11 -5.83998e-12 1.61898e-12
463 3 0.00914214 0.0117354 0.0105408 0.00125 2.04531e-05 4.03196e-12 4.88479e-13 3.98634e-12
464 3 0.00890636 0.0141742 0.0110331 0.00125 2.04531e-05 -3.36468e-13 -1.97009e-12 -2.55845e-13
465 3 0.0110796 0.0104953 0.0143495 0.00125 2.04531e-05 1.45169e-12 8.11345e-13 -5.54094e-13
466 3 0.0134253 0.00174752 0.00964013 0.00125 2.04531e-05 2.36632e-12 -1.65541e-12 -2.13166e-12
467 3 0.00839458 0.00837744 0.0141708 0.00125 2.04531e-05 8.02792e-13 -4.0014e-13 4.49831e-13
468 3 0.000528769 0.0134774 0.013563 0.00125 2.04531e-05 3.11509e-12 -9.91734e-14 -3.20698e-12
469 3 0.00879381 0.0108573 0.0139498 0.00125 2.04531e-05 1.22339e-12 5.47299e-13 -6.56682e-13
470 3 0.000508171 0.0147401 0.0110272 0.00125 2.04531e-05 5.5729e-12 -9.57421e-12 3.91874e-12
471 3 0.00670507 0.000658951 0.00854846 0.00125 2.04531e-05 2.23433e-12 -2.23767e-12 8.16086e-12
472 3 0.0131131 0.0129386 0.00895162 0.00125 2.04531e-05 1.11462e-12 1.05786e-11 1.65968e-13
473 3 0.0124687 0.0152476 0.00873081 0.00125 2.04531e-05 -1.03596e-12 1.98896e-12 1.8826e-12
474 3 0.000102384 0.00965062 0.012644 0.00125 2.04531e-05 -1.80575e-12 -1.09179e-13 -7.21987e-13
475 3 0.0133789 0.0124557 0.0142141 0.00125 2.04531e-05 2.05279e-12 2.37842e-12 -1.37075e-13
476 3 0.00135744 0.0153596 0.00840772 0.00125 2.04531e-05 -1.37636e-12 1.07429e-12 1.07323e-11
477 3 0.0103414 0.00967531 0.00783284 0.00125 2.04531e-05 5.81966e-12 -5.23794e-12 7.3016e-12
478 3 0.012726 0.0075413 0.014314 0.00125 2.04531e-05 -2.42156e-12 1.63925e-12 -1.44257e-13
479 3 0.0145454 0.0076373 0.00868762 0.00125 2.04531e-05 -3.16247e-12 1.34177e-12 -9.93315e-13
480 3 0.00177615 0.00528751 0.0140528 0.00125 2.04531e-05 7.15037e-13 -5.38172e-13 -1.30982e-12
481 3 0.0108792 0.0136831 0.00846012 0.00125 2.04531e-05 -5.87883e-13 3.99661e-12 6.79985e-12
482 3 0.0131797 0.0100118 0.0104969 0.00125 2.04531e-05 -2.53384e-12 -5.34442e-12 1.39999e-12
483 3 0.0138824 0.0139419 0.0123004 0.00125 2.04531e-05 2.04984e-12 -2.53835e-13 5.75853e-12
484 3 0.00765098 0.012218 0.0123166 0.00125 2.04531e-05 -1.23742e-12 -3.91253e-12 2.67995e-12
485 3 0.0145701 0.00054902 0.0079303 0.00125 2.04531e-05 -4.78932e-13 -3.09546e-12 -1.91498e-12
486 3 0.00127338 0.0085069 0.00670354 0.00125 2.04531e-05 7.29711e-13 2.18371e-12 -1.58401e-12
487 3 0.0121959 0.0145292 0.0141663 0.00125 2.04531e-05 4.34118e-13 1.71659e-12 2.91295e-12
488 3 0.0105769 0.0128057 0.0141895 0.00125 2.04531e-05 1.5661e-12 2.98931e-13 1.22343e-12
489 3 0.00732694 0.0149755 0.0127582 0.00125 2.04531e-05 -9.66851e-13 1.9061e-12 -1.00471e-12
490 3 0.0141477 0.0115687 0.0120817 0.00125 2.04531e-05 -1.298e-12 3.31592e-12 -1.44941e-12
491 3 0.012638 0.0108701 0.00780219 0.00125 2.04531e-05 2.88773e-13 -2.27811e-11 3.13277e-12
492 3 0.0153456 0.00737856 0.0134381 0.00125 2.04531e-05 -3.17775e-12 1.16847e-12 2.55948e-12
493 3 0.0114781 0.0124298 0.0104178 0.00125 2.04531e-05 -4.61024e-12 -1.85576e-12 5.73801e-12
494 3 0.0144772 0.00946496 0.00711557 0.00125 2.04531e-05 -7.36889e-12 1.08609e-11 4.49693e-12
495 3 0.00530814 0.00998231 0.0102567 0.00125 2.04531e-05 1.59976e-12 6.02812e-13 3.12532e-12
496 3 0.00887213 0.00909691 0.00963201 0.00125 2.04531e-05 3.84325e-14 -2.53974e-12 8.4837e-12
497 3 0.0117675 0.0108743 0.0121862 0.00125 2.04531e-05 1.9796e-12 3.30209e-12 -9.32341e-13
498 3 0.0150618 0.0137019 0.00737186 0.00125 2.04531e-05 2.93582e-12 8.95479e-12 -1.0196e-12
499 3 0.0111174 0.00860364 0.01293 0.00125 2.04531e-05 -3.51599e-13 1.6946e-12 3.64307e-12
500 3 7.11348e-05 0.0102409 0.0103326 0.00125 2.04531e-05 -6.37149e-12 -4.08528e-12 -1.22887e-12
