ITEM: TIMESTEP
175000
ITEM: NUMBER OF ATOMS
500
ITEM: BOX BOUNDS pp pp ff
0.0000000000000000e+00 1.5370634520482899e-02
0.0000000000000000e+00 1.5370634520482899e-02
0.0000000000000000e+00 1.5370634520482899e-02
ITEM: ATOMS id type x y z vx vy vz omegax omegay omegaz radius mass fx fy fz
1 1 4.930112525358e-04 7.301513764871e-03 1.255970887323e-02 -7.055707498514e-12 -1.549511210914e-11 1.123534297606e-11 -3.916518252201e-09 -4.644912223552e-10 2.263124216685e-09 7.500000000000e-04 4.417864669111e-06 -1.866998932259e-14 -5.221471434675e-14 4.696217668326e-14
2 1 1.354781701459e-02 3.426784077897e-03 7.407988593533e-04 -4.560595586282e-12 -1.417318871702e-11 -3.594286826591e-12 2.088662673954e-08 -1.262279594284e-10 2.148627692562e-08 7.500000000000e-04 4.417864669111e-06 -6.776099586467e-15 1.068727874374e-13 5.054373639312e-14
3 1 3.768688224399e-03 9.096560277947e-03 3.004107992536e-03 -1.700911990931e-11 -1.295056784717e-11 2.637646671841e-12 -1.022752010312e-08 3.446600101102e-09 9.916252619069e-10 7.500000000000e-04 4.417864669111e-06 -3.719859894790e-14 1.126200436681e-14 2.294685883738e-14
4 1 3.866398889151e-03 8.272319796361e-03 7.005554437745e-03 -9.837611350807e-12 -2.168360027749e-11 6.505591234494e-12 -4.726230183341e-09 -4.686274938894e-09 2.105570075579e-09 7.500000000000e-04 4.417864669111e-06 2.113458935252e-14 1.791606135802e-15 -1.688203410164e-14
5 1 2.300182165594e-03 2.694626535666e-03 1.184899118060e-02 -1.234991870033e-11 -1.626269495362e-11 -1.108697467824e-12 -3.241230480964e-09 1.091120800254e-09 -3.832158999749e-09 7.500000000000e-04 4.417864669111e-06 4.966365099970e-14 2.963608142419e-15 1.653822457197e-14
6 1 2.508523579451e-03 4.636897219584e-03 1.471515774520e-02 -4.143208706913e-12 -6.494754932463e-12 -3.542361135612e-12 -5.260394927619e-09 2.695280545849e-09 -3.799165949200e-09 7.500000000000e-04 4.417864669111e-06 2.435464979068e-14 -2.102189737893e-14 5.916172606743e-14
7 1 3.520431103564e-03 1.266990278738e-02 1.321909868113e-02 -1.302640669569e-12 -1.059033628552e-11 3.951973822559e-12 -4.600913932128e-09 -2.278827107960e-09 2.547042824128e-09 7.500000000000e-04 4.417864669111e-06 -5.639997600281e-15 -2.244378871716e-14 5.323116579945e-14
8 1 7.701700959409e-03 3.983869659882e-03 6.963318574465e-04 -2.176680661922e-12 -2.159514225269e-12 6.836226805636e-13 4.354425141156e-09 -1.063015957860e-10 -3.591787505595e-09 7.500000000000e-04 4.417864669111e-06 1.273584611714e-14 -2.238324467984e-14 -2.895939018119e-14
9 1 1.577388317320e-03 6.516343823142e-03 1.295203710520e-02 -8.663998723943e-12 -1.547022967634e-11 4.337048139595e-12 2.615040049062e-09 8.695403914076e-09 -4.823333089183e-09 7.500000000000e-04 4.417864669111e-06 -4.925703999384e-14 -3.473488810117e-14 1.691749395761e-14
10 1 1.389356239497e-02 1.464572639628e-02 1.469444224240e-02 -4.336764919904e-12 -4.131345644178e-12 -4.273370829797e-12 -5.869513415552e-09 5.884524936838e-09 2.284870409547e-09 7.500000000000e-04 4.417864669111e-06 3.751116495204e-15 8.428778536420e-15 2.493768392253e-14
11 1 1.400133964568e-02 7.894441176276e-03 6.273802037148e-03 -3.715337144428e-12 -1.301140888012e-11 8.690109339685e-13 3.305147982283e-08 -2.003362087640e-09 -2.078920475287e-08 7.500000000000e-04 4.417864669111e-06 8.640197117004e-14 8.416248628549e-15 1.062830129374e-14
12 1 1.108736768260e-02 7.447277611366e-03 1.303193348299e-02 -9.818104453321e-12 -4.803979989597e-12 4.336470648524e-12 -1.621627886284e-09 9.933045301267e-09 3.938008381189e-09 7.500000000000e-04 4.417864669111e-06 -3.525446168358e-14 3.593563319312e-14 9.725166069806e-15
13 1 9.421091303942e-03 1.284547658655e-03 1.117344463991e-02 -1.254441703927e-11 -1.372805375980e-11 4.335795210221e-12 -2.094142670874e-09 -2.257567921002e-09 5.269320924264e-09 7.500000000000e-04 4.417864669111e-06 4.623513000234e-14 -3.214359760180e-14 1.467849491059e-14
14 1 1.269992672899e-02 1.255662854744e-02 4.782394746163e-03 -2.393967314011e-07 -1.124806618934e-07 3.308345580632e-07 -1.659129359635e+02 1.173984182709e+03 6.224030714670e+02 7.500000000000e-04 4.417864669111e-06 9.729378506905e-11 4.570047496582e-11 -1.344854685331e-10
15 1 2.665805462888e-03 4.178587339351e-03 2.629680932111e-03 -1.296165740480e-11 -8.166748809100e-12 2.045430066480e-12 3.712467287988e-09 1.398988323965e-09 -3.011586342847e-09 7.500000000000e-04 4.417864669111e-06 8.329685370641e-14 -2.620130875217e-15 9.623996441096e-14
16 1 1.151878835836e-03 2.585265973247e-03 8.863430838731e-03 -2.143786194210e-11 -2.277383086119e-11 -4.335372940111e-12 -1.508758022481e-10 8.641553953079e-09 -2.966374364550e-09 7.500000000000e-04 4.417864669111e-06 -7.968965652503e-15 6.780198189280e-16 8.674577714407e-15
17 1 1.120016169916e-02 9.903802213966e-03 1.163161129784e-02 -8.372093115894e-12 -2.167913848809e-11 4.361095309098e-12 1.047822259831e-09 -5.224774272311e-09 5.199576128623e-09 7.500000000000e-04 4.417864669111e-06 -1.332802157596e-14 -4.379986584068e-14 2.785065994911e-14
18 1 9.000480648513e-04 8.662027154682e-03 1.033495202201e-02 -7.831976449516e-12 -2.614310777000e-11 1.229741041383e-11 -1.265790755655e-08 4.535695323943e-09 1.484254905301e-09 7.500000000000e-04 4.417864669111e-06 1.070087298390e-13 1.025036366765e-14 -6.882559150052e-14
19 1 6.984117417362e-03 4.994045675346e-03 1.464746474747e-02 -2.338719200783e-12 -3.109007946133e-12 -3.801621494040e-12 -3.450432788638e-09 1.503857160488e-09 5.147654136609e-10 7.500000000000e-04 4.417864669111e-06 -3.450197866741e-14 9.511700185203e-14 -4.070451309917e-14
20 1 9.565007914967e-03 1.111548354255e-02 1.084311903692e-02 -4.338418970235e-12 -1.952503825431e-11 4.340098831704e-12 -3.750284578186e-10 -1.274337895571e-08 -4.173499387758e-10 7.500000000000e-04 4.417864669111e-06 -2.255940239610e-14 4.449197781990e-14 -5.976925016938e-15
21 1 1.229826679287e-02 5.792868033385e-03 7.035221447892e-04 1.192905178219e-11 -3.966290797111e-11 -7.753020784984e-12 4.732852013977e-08 1.774394644624e-08 -2.516157964479e-08 7.500000000000e-04 4.417864669111e-06 -1.340682813267e-14 -5.422185982622e-14 2.340099293241e-14
22 1 8.753668834766e-03 1.501363008401e-02 1.459286133466e-02 -7.413981770928e-12 -4.335117365628e-12 6.735134106344e-12 1.165148535206e-09 1.050135464794e-09 1.994185437623e-09 7.500000000000e-04 4.417864669111e-06 5.101043092339e-14 -2.860006802184e-14 1.265387778577e-14
23 1 4.298805495792e-03 1.067395828816e-02 7.298786154243e-04 -1.517831124861e-11 -6.100021708652e-12 6.686946557295e-12 -5.688819707330e-09 -7.703303366268e-09 -2.227293685348e-08 7.500000000000e-04 4.417864669111e-06 -1.065089963335e-14 -5.822019555578e-14 3.247425015818e-15
24 1 7.018941217405e-03 2.613864797665e-03 7.701869391493e-03 -1.877432304538e-11 -1.842685641141e-11 -3.415500105499e-12 -2.005192807615e-09 4.315656468307e-09 -1.061394325433e-08 7.500000000000e-04 4.417864669111e-06 8.432850580867e-14 2.836787488082e-14 -4.404688091885e-14
25 1 4.520383524389e-03 8.572919466709e-03 8.222796166037e-03 -8.413208783283e-12 -1.715494559256e-11 4.340805346805e-12 -2.049778903594e-09 4.590981803751e-09 -5.233863917645e-09 7.500000000000e-04 4.417864669111e-06 1.968938545506e-14 2.559877051016e-14 -1.684133185234e-14
26 1 1.258008756066e-02 1.395202427158e-02 1.468478714871e-02 -1.278472287984e-12 -4.359399918900e-12 4.338017376386e-12 -4.446594925680e-09 1.361790795072e-09 6.415767653692e-10 7.500000000000e-04 4.417864669111e-06 -1.047557745725e-14 4.524504798442e-15 -7.047960291401e-15
27 1 8.603741753859e-03 6.316919348513e-03 4.373702488793e-03 -1.301841873804e-11 -1.267151927583e-11 4.256355115967e-12 2.468593782251e-09 -8.707371879024e-09 -1.337544863435e-09 7.500000000000e-04 4.417864669111e-06 4.188906946274e-14 -3.476039474343e-14 1.691686127809e-14
28 1 7.219872792490e-04 2.556254754859e-03 6.329142957673e-03 -3.337249821557e-11 -4.276878659755e-11 -1.955956828048e-11 2.757457274224e-09 -2.996094820054e-08 2.615453321486e-08 7.500000000000e-04 4.417864669111e-06 -8.843246878327e-14 -1.582654518109e-13 -7.481042014331e-14
29 1 1.359871693047e-02 1.131704003184e-02 1.111060047985e-02 1.228031286358e-11 -3.372104860694e-11 2.906811229294e-11 8.799553516440e-09 -2.663757684968e-08 -2.442080077667e-08 7.500000000000e-04 4.417864669111e-06 -7.746045594012e-14 1.156105734895e-13 -4.096812413718e-13
30 1 5.314925729728e-04 2.098501198186e-03 1.014101926733e-02 -1.873098669399e-11 -2.379634668616e-11 -6.825799359086e-12 -5.396349856639e-10 1.365424604886e-10 1.127257096521e-09 7.500000000000e-04 4.417864669111e-06 3.870927453328e-14 5.297692440940e-14 1.040283897017e-13
31 1 5.947143894393e-03 1.087450881681e-02 1.143761256223e-02 2.152603867956e-09 -8.608685717891e-10 -4.263426399060e-09 1.606526323944e+03 -6.424968314184e+02 -3.182192922298e+03 7.500000000000e-04 4.417864669111e-06 -9.313788980509e-13 3.700129059499e-13 1.841303119163e-12
32 1 3.932980023636e-03 1.012070102320e-02 2.035327072153e-03 -2.752067517621e-11 -8.040316803298e-12 5.423616751860e-12 1.875406925225e-08 -3.020735365041e-09 1.279878169952e-08 7.500000000000e-04 4.417864669111e-06 2.995555746606e-15 -8.353090296432e-14 3.320457395295e-15
33 1 6.694746441213e-03 1.515167654869e-02 7.444507302911e-03 -1.548402481039e-11 -2.038310606731e-11 -2.165403632491e-12 -4.159068212223e-09 -8.722471863922e-09 -7.483007343246e-09 7.500000000000e-04 4.417864669111e-06 1.322028644607e-13 -5.589674292332e-15 -4.435141630571e-14
34 1 1.364721821191e-02 6.229771580871e-03 1.462063455841e-02 -8.354966180026e-11 -1.119823478201e-09 -2.245871918269e-09 -6.113450871352e+02 4.561225609902e+01 5.101010433953e+02 7.500000000000e-04 4.417864669111e-06 3.257541004665e-14 4.366110908451e-13 8.756492493883e-13
35 1 4.849742819341e-03 7.753343492195e-03 1.474114100427e-02 -4.772501115603e-12 -1.335016080299e-11 -3.677910016489e-12 -1.742913298618e-08 5.726559390368e-09 5.533836419718e-09 7.500000000000e-04 4.417864669111e-06 8.054156685867e-14 1.612369307844e-13 1.032255320042e-14
36 1 7.155041756796e-03 1.375318955712e-02 1.056452916329e-02 -1.951657462973e-11 -1.105279843662e-11 3.833281262889e-12 4.203085654589e-09 -5.946638091621e-09 2.760010166532e-08 7.500000000000e-04 4.417864669111e-06 -3.071527265015e-14 -6.334551910443e-14 1.327358335385e-14
37 1 1.043687181168e-02 1.051046538070e-03 1.840079264712e-03 -1.196541296294e-11 -9.813326424657e-12 -8.826791312179e-13 3.491606740136e-09 2.928491905538e-09 -6.186347708931e-09 7.500000000000e-04 4.417864669111e-06 9.040869568038e-14 -4.483696702524e-14 -1.092104090010e-13
38 1 8.048416688017e-03 5.469857450174e-03 1.273502198696e-02 -4.339172520258e-12 -1.245700108419e-11 -4.335914359159e-12 -3.730992061052e-10 2.044564844162e-09 -1.131730313431e-09 7.500000000000e-04 4.417864669111e-06 2.132274943978e-15 1.472091651418e-13 7.774318661247e-15
39 1 1.352186609494e-02 1.103568150884e-02 5.520269246009e-03 -5.298271667956e-11 -9.073815791803e-11 1.886313088321e-10 3.768750659040e-08 1.196111165572e-07 4.349774186328e-08 7.500000000000e-04 4.417864669111e-06 1.720172115079e-14 6.503050185195e-14 -5.585723637471e-14
40 1 1.009142279698e-02 6.875210236841e-03 1.464577937802e-02 -2.613977503584e-12 -6.052460371495e-12 2.010554317822e-12 -2.190075459494e-09 -1.302356165537e-09 2.818145080820e-09 7.500000000000e-04 4.417864669111e-06 -2.396665232909e-15 1.435538734880e-14 -1.699115883987e-14
41 1 1.527018426119e-02 8.169255375512e-03 5.734049926524e-03 1.786031368325e-11 -2.167731222499e-11 1.951946238422e-11 1.479258410475e-08 -1.240592748341e-08 8.662353246612e-09 7.500000000000e-04 4.417864669111e-06 -5.275958324493e-14 -3.567778133551e-15 -3.151214596903e-14
42 1 1.697880627404e-03 5.368531389008e-03 5.759440999326e-03 -2.732211259827e-11 -2.385383325090e-11 -6.503064006117e-12 -4.320274099517e-10 8.985142517122e-09 1.238480808700e-09 7.500000000000e-04 4.417864669111e-06 -1.137421007664e-13 -1.975349401039e-15 -8.853048310380e-15
43 1 1.128581584977e-02 8.110190349005e-03 1.093418201633e-02 -7.886221267766e-12 -2.503590408133e-11 6.361086694174e-12 2.434803017269e-09 -1.827623351489e-09 9.879451620478e-09 7.500000000000e-04 4.417864669111e-06 3.433800134881e-14 1.530465188368e-13 1.089327546931e-13
44 1 3.336921020080e-04 9.016907487692e-03 4.698543958605e-03 -9.074323537071e-12 -8.550397922888e-12 1.710155186067e-11 -1.501817775534e-08 3.130203599922e-08 1.290932272872e-08 7.500000000000e-04 4.417864669111e-06 -1.072211228683e-13 4.531794138723e-14 -2.018189201879e-13
45 1 1.288249225876e-02 5.004011771623e-03 9.321548467770e-03 -1.002711257110e-11 -2.818819666710e-11 9.686281042044e-13 1.085208451247e-09 -4.608069133505e-09 1.250166944285e-09 7.500000000000e-04 4.417864669111e-06 -2.112873071162e-14 -4.376742686935e-14 -1.156653477222e-13
46 1 1.283596306949e-03 1.071452329668e-02 1.467013127152e-02 -1.628483591084e-12 -4.343269508562e-12 3.423821669285e-12 -1.525521793469e-09 7.802223685660e-10 8.999097874119e-09 7.500000000000e-04 4.417864669111e-06 -9.312800728442e-15 4.639508662167e-15 -5.534826445188e-14
47 1 1.425163102453e-02 1.131931132446e-02 1.349605597384e-02 -4.336404404768e-12 -1.303492027365e-11 9.058372065156e-12 -5.363700752967e-09 5.523239601208e-09 6.689262823296e-09 7.500000000000e-04 4.417864669111e-06 3.320263974579e-14 2.665711052359e-14 2.950226557913e-14
48 1 3.384562467660e-03 4.494967007582e-03 6.618026872503e-04 -7.855061654664e-12 -2.167964334052e-12 3.616410255921e-12 3.643248020183e-09 -6.174741976289e-09 -2.987269992308e-09 7.500000000000e-04 4.417864669111e-06 1.014937856179e-14 -1.599108121704e-14 1.898640367598e-14
49 1 8.211166615202e-03 1.167001237862e-02 4.289379033335e-03 -3.563888456844e-11 -1.431140707507e-10 2.494194071665e-10 -4.977753822363e-08 -4.023511200913e-07 -2.135281071717e-07 7.500000000000e-04 4.417864669111e-06 6.534892568837e-14 -1.224626373084e-14 -3.433484821762e-13
50 1 3.014104186714e-03 1.498896044925e-02 1.472048866022e-02 -3.248124497703e-12 -5.606256978974e-12 4.311919434495e-12 -5.951829934141e-09 3.166808815555e-09 3.973363116676e-09 7.500000000000e-04 4.417864669111e-06 1.205521669250e-14 9.442085255493e-14 4.297055350189e-14
51 1 1.127341179580e-02 5.238219858441e-04 5.279694552434e-04 -4.906915182956e-12 -1.124652580567e-11 1.897206181075e-12 1.146945182224e-08 -6.624797455655e-09 -4.973249942125e-09 7.500000000000e-04 4.417864669111e-06 1.300245728418e-13 -3.655691767216e-14 -8.996674002729e-15
52 1 1.530705159730e-02 2.231406534453e-03 1.467040121883e-02 -8.840947683935e-12 -7.595757240411e-12 4.316604912960e-12 -6.742867038376e-09 1.041293600250e-08 -8.261424090325e-09 7.500000000000e-04 4.417864669111e-06 2.112459428908e-14 1.372833514498e-15 1.468239875565e-14
53 1 5.255260247354e-03 4.818740959089e-03 9.738479447076e-03 -1.045663726188e-11 -1.890584125664e-11 1.931795008834e-13 2.228400616963e-10 7.437136413714e-09 -3.503993556371e-09 7.500000000000e-04 4.417864669111e-06 3.826457799053e-14 -4.452436650435e-14 4.195029461120e-14
54 1 1.236799422347e-02 4.320176334016e-03 8.008565481873e-04 -1.301018696217e-11 -3.378367592948e-11 -8.265994908521e-12 -4.511709206158e-08 7.152087505588e-09 -4.448576600373e-10 7.500000000000e-04 4.417864669111e-06 2.375384401911e-15 9.892330582553e-14 -8.354923359129e-14
55 1 6.071200828460e-03 1.150403470632e-02 1.474452761827e-02 -2.168184448346e-12 -4.336374352207e-12 2.314742218536e-12 -2.727136358770e-09 7.840000235477e-11 8.717466718489e-10 7.500000000000e-04 4.417864669111e-06 -2.426590057451e-14 3.197561173940e-14 1.859008263123e-14
56 1 1.161912306125e-02 6.811434195917e-03 1.146633115650e-02 -4.336454181605e-12 -2.817950876205e-11 4.339441784550e-12 1.780258451427e-09 9.285902456176e-10 -6.108745302339e-09 7.500000000000e-04 4.417864669111e-06 1.779615539152e-14 1.906627719737e-14 6.384725172774e-15
57 1 1.696399565019e-03 6.179652750596e-03 3.957670861543e-03 -2.162147745722e-11 -3.925256982757e-12 7.592281293397e-12 1.136061145378e-08 2.647242481303e-08 -2.689242052770e-08 7.500000000000e-04 4.417864669111e-06 -4.635731520745e-14 -9.674653342665e-14 1.986032161196e-14
58 1 3.468046924156e-03 1.418268638569e-02 1.136751406596e-02 -9.753120570042e-12 -4.338086560219e-12 4.090594760011e-12 -3.444971449228e-09 5.624534453286e-09 -7.527063019140e-09 7.500000000000e-04 4.417864669111e-06 1.422418154694e-14 -1.721678519846e-14 -1.597955107376e-14
59 1 3.521835390167e-03 5.382690523054e-03 1.415156667105e-02 -4.775170528955e-12 -1.084216348761e-11 -1.798967658964e-12 2.733495669384e-09 7.990130273234e-10 1.152913519626e-09 7.500000000000e-04 4.417864669111e-06 1.019929349900e-13 -1.112442592163e-15 4.881706753920e-14
60 1 7.149963597827e-03 1.206844391046e-02 6.453208411523e-04 -1.720340940937e-11 -5.744551819619e-13 -9.407851940793e-13 1.423722817944e-10 -2.227390274657e-08 -1.756588528966e-08 7.500000000000e-04 4.417864669111e-06 -1.725966209929e-13 -1.567660376438e-13 -6.015660310507e-14
61 1 1.070512797567e-02 1.834936218058e-03 6.764528241744e-04 -4.340491554958e-12 -6.358023330326e-12 2.798080912428e-12 4.150107857328e-09 -6.710110762932e-09 -5.708807120702e-09 7.500000000000e-04 4.417864669111e-06 -3.631310545114e-14 1.066616719533e-13 1.565769738687e-14
62 1 5.898455849103e-03 8.954151777621e-03 7.417125951374e-03 -9.452835024445e-12 -1.638270238078e-11 2.169905708464e-12 4.289959051447e-09 1.230465113081e-10 -3.291882681020e-09 7.500000000000e-04 4.417864669111e-06 -1.236466540432e-15 -1.688847472051e-14 -4.170256555650e-15
63 1 8.258916812224e-03 1.288741964702e-02 1.460336859165e-02 -4.332519476489e-12 -4.335682584177e-12 3.039325350976e-12 -2.157096254735e-09 -4.127286510421e-09 3.961396750502e-10 7.500000000000e-04 4.417864669111e-06 5.075622638225e-14 8.364835206111e-15 -1.785894505488e-14
64 1 3.853365490392e-03 6.392907153625e-03 4.373893764213e-03 -1.369708174458e-11 -1.404977872146e-11 2.170980714354e-12 -3.169950937675e-09 2.031548705431e-09 -1.216938554709e-08 7.500000000000e-04 4.417864669111e-06 1.611216105002e-14 8.533790597668e-14 -1.106687021572e-15
65 1 7.309211309260e-04 1.047799892739e-02 1.334750221665e-02 -4.009334915272e-12 -1.301229795391e-11 4.335645221769e-12 3.856842243147e-09 1.509916755988e-09 4.267175078903e-10 7.500000000000e-04 4.417864669111e-06 1.868053734349e-15 6.277933689396e-14 -5.437991676565e-14
66 1 7.746370300431e-03 3.394332869018e-03 1.119261974602e-02 -1.084225233222e-11 -1.718790563408e-11 -4.324407109351e-12 -1.763031220161e-09 1.497065858307e-09 -1.749609557426e-09 7.500000000000e-04 4.417864669111e-06 5.169543678360e-15 -1.404957959416e-14 4.738015371243e-15
67 1 9.452163029088e-03 1.307604559140e-02 7.492561274180e-04 6.300750151208e-12 8.731747995293e-12 4.135413208379e-12 -1.084974405377e-08 8.582873726082e-09 2.212011543593e-08 7.500000000000e-04 4.417864669111e-06 3.433088071229e-15 -1.031332069413e-13 3.381893269758e-14
68 1 2.030518046408e-03 2.337682031420e-03 1.323931514688e-02 -1.015247932751e-11 -1.193644744782e-11 4.298467793524e-12 -7.092155442436e-10 3.745417095525e-09 3.204905057871e-09 7.500000000000e-04 4.417864669111e-06 -4.010984226634e-14 -1.008187922253e-14 3.241243253836e-14
69 1 4.188116142018e-04 6.703988585886e-03 5.255328886473e-03 4.028905919886e-09 -5.840710244329e-10 3.684227891559e-09 -6.991273417049e+03 -1.139019009450e+04 6.489754813959e+03 7.500000000000e-04 4.417864669111e-06 -1.683530594556e-12 2.440616724649e-13 -1.539502373622e-12
70 1 1.300470977574e-02 9.639979428159e-03 6.965266967949e-04 -5.873915423154e-11 -1.239925893853e-11 3.944475102930e-12 1.481664898846e-07 1.176846092149e-07 1.356735839045e-07 7.500000000000e-04 4.417864669111e-06 -1.643779713141e-14 9.220563060711e-14 4.090802333437e-14
71 1 1.369990978421e-02 6.508287551928e-03 2.599820537733e-03 -4.048368219215e-11 7.155453046309e-11 3.382277970557e-11 2.825464515578e-10 -5.626305274085e-08 8.498302032184e-08 7.500000000000e-04 4.417864669111e-06 1.607457918097e-14 -1.436651252503e-13 -2.151504165488e-14
72 1 6.400448651734e-03 6.268798131076e-03 9.269180628448e-03 -1.084249478558e-11 -1.803421462701e-11 -4.330458038575e-12 -2.970236578314e-10 2.166228916089e-09 1.148077966901e-09 7.500000000000e-04 4.417864669111e-06 1.452249862485e-15 5.066051221331e-14 -1.223683870523e-14
73 1 7.799269091153e-03 6.022071227566e-03 3.225637142150e-03 -1.159219980289e-11 -9.495811823368e-12 -3.669592586134e-13 -3.033159031486e-09 5.944310156660e-10 -7.472005128437e-09 7.500000000000e-04 4.417864669111e-06 -3.045292191126e-14 -5.362670644453e-14 5.703107686034e-14
74 1 4.344726695656e-03 6.586157423379e-03 1.411123382061e-02 -4.771388840634e-12 -1.392271840267e-11 3.408716279625e-12 8.504337154784e-09 3.992329852829e-10 -3.879642452045e-09 7.500000000000e-04 4.417864669111e-06 1.198255971232e-14 1.280732248492e-13 -1.203762556205e-13
75 1 1.176381705529e-02 1.160812174463e-02 7.790186064553e-03 -1.106707046684e-321 -1.106707046684e-321 -1.106707046684e-321 1.235841168057e+04 -4.164299364267e+03 -8.561941657679e+03 7.500000000000e-04 4.417864669111e-06 1.086944420851e-322 1.086944420851e-322 1.086944420851e-322
76 1 9.885247081255e-03 2.647872373254e-03 9.031615604218e-03 -1.168024991802e-11 -1.856939380272e-11 -9.204041596106e-12 1.071069272767e-08 -4.610224074491e-09 2.442928895048e-09 7.500000000000e-04 4.417864669111e-06 -4.910048549181e-14 -1.322937434279e-14 2.077849505034e-14
77 1 1.496725559671e-02 1.001630545326e-02 3.931411214143e-03 -3.860280503738e-11 3.790640180539e-11 6.288385965425e-11 4.507554524984e-08 7.700170717190e-08 -1.055453268516e-07 7.500000000000e-04 4.417864669111e-06 -8.084033517957e-14 -6.590785105190e-14 1.905621652588e-14
78 1 8.721530950254e-03 1.166259311698e-02 7.499999576307e-04 -1.313741440018e-09 1.689417051566e-10 2.649119001450e-09 -1.359186551405e+01 -1.056944284800e+02 6.918345977930e+02 7.500000000000e-04 4.417864669111e-06 5.408211417256e-13 -6.954735770405e-14 -1.090549113614e-12
79 1 2.793229883683e-04 3.771055520464e-03 9.829975189151e-03 -1.947413210896e-11 -2.710020938887e-11 -4.337469437725e-12 -1.856341774169e-09 5.617707861468e-09 6.190925939545e-09 7.500000000000e-04 4.417864669111e-06 -4.396573777452e-15 1.543357027656e-14 -2.143750976844e-14
80 1 1.380575353072e-02 8.509901767097e-03 7.572121088267e-04 -3.941857605965e-11 -4.355801176038e-12 -5.912907371398e-11 -7.568609727682e-08 -6.885464454366e-08 -9.694348458581e-08 7.500000000000e-04 4.417864669111e-06 -7.989103133156e-14 -2.022010993457e-13 3.034290840995e-13
81 1 3.620280012857e-03 5.844055491242e-03 6.437514480596e-03 -1.409944969809e-11 -2.812978350062e-11 -1.286608839558e-12 1.407451891838e-09 -7.992845171369e-09 -2.237468054388e-09 7.500000000000e-04 4.417864669111e-06 -4.823147844274e-15 -4.877352996110e-14 -5.800253414297e-15
82 1 1.531889587701e-02 1.387610730393e-02 1.464394424287e-02 -1.781595189451e-12 -4.339067035082e-12 2.416369300783e-12 -1.104989415717e-09 -1.725394080239e-09 1.543031913675e-10 7.500000000000e-04 4.417864669111e-06 2.764416200368e-15 -1.095033977677e-15 -3.488108972008e-15
83 1 1.332962473237e-02 3.002371376034e-03 4.680123868280e-03 -7.681806912079e-12 -5.797967635224e-11 -1.212184575365e-11 -6.276871398799e-08 -1.756699526844e-08 3.392118222570e-08 7.500000000000e-04 4.417864669111e-06 -5.184628629880e-13 2.103373751206e-13 -2.477018226921e-13
84 1 1.282914885516e-02 1.260874214330e-02 9.620268553771e-03 4.295755307861e-11 -2.711307398358e-11 7.674954820425e-11 -1.607269344195e-08 -1.324759991055e-07 -1.757333250618e-09 7.500000000000e-04 4.417864669111e-06 -1.248258689049e-13 4.176784995143e-15 -1.605203523743e-13
85 1 1.116515752841e-02 1.259050168747e-02 9.157259799546e-03 -1.300873782161e-11 -3.548169114120e-11 1.299372463111e-11 8.373281260807e-09 -2.335346699862e-08 5.386655867433e-08 7.500000000000e-04 4.417864669111e-06 -8.827729624243e-15 2.830948602252e-15 -2.307761657060e-14
86 1 2.196440742179e-04 6.982818954510e-03 7.089258571352e-03 -1.583375724184e-11 -2.818971105567e-11 1.086209588498e-11 2.219195621662e-08 4.595588621767e-09 -4.364464602870e-09 7.500000000000e-04 4.417864669111e-06 -2.388985019730e-15 7.514839274130e-15 7.098602951451e-15
87 1 1.159982937880e-03 1.119606386085e-02 1.222055605806e-02 -4.220347379105e-12 -1.260778502119e-11 7.555461392527e-12 -2.457507718504e-10 -2.769262223218e-09 1.629677005466e-09 7.500000000000e-04 4.417864669111e-06 -3.373961230053e-14 2.489294384102e-14 -7.870380428121e-15
88 1 1.385947684006e-02 4.456059127862e-04 6.148808928765e-03 -9.107317882539e-11 -8.867830122981e-11 -5.826963636533e-11 1.022307444832e-07 2.509901789704e-08 -5.885980579278e-08 7.500000000000e-04 4.417864669111e-06 -3.030253466757e-14 -2.698050611117e-13 8.993707701540e-14
89 1 8.658360668100e-03 6.828355287006e-03 1.469942523442e-02 -4.335768436437e-12 -5.631223091294e-12 4.333262524969e-12 -4.073386741432e-09 4.853923045364e-09 -4.151940156577e-09 7.500000000000e-04 4.417864669111e-06 1.607222193852e-14 5.436075558458e-14 -1.341510173095e-15
90 1 1.820873885809e-03 1.470727336626e-03 6.139267861465e-03 -5.076164036266e-11 -3.208625283329e-11 -6.279301518024e-12 1.809742440764e-08 -7.228949751453e-10 6.355985403152e-09 7.500000000000e-04 4.417864669111e-06 -4.150989381708e-14 -3.366644575146e-14 -1.270593082034e-13
91 1 6.821689131511e-03 1.501277024065e-02 4.533478881967e-03 -2.806203124545e-11 -5.680559445926e-12 -1.117653444478e-11 -1.482589459355e-09 1.519927734175e-08 1.111126366368e-08 7.500000000000e-04 4.417864669111e-06 6.309587283939e-14 8.649821052935e-14 -1.093015943178e-15
92 1 1.004388185419e-02 1.796838317223e-03 6.351421525301e-03 -4.334302488368e-12 -3.251517772924e-11 -1.083280122296e-11 1.541407895637e-08 -1.596929365635e-08 1.645566693038e-08 7.500000000000e-04 4.417864669111e-06 2.061271920630e-14 6.154223709522e-14 1.593436205294e-15
93 1 1.304723584564e-02 1.145167313185e-03 7.050278686930e-03 -3.737245009216e-11 -5.257573540727e-11 -2.934766077051e-12 -3.259768104946e-08 2.679684605158e-08 -3.632386942241e-08 7.500000000000e-04 4.417864669111e-06 -1.864832268826e-13 -1.936031811188e-14 1.957760386292e-13
94 1 1.160615240051e-02 4.165552414156e-03 5.849183414453e-03 -1.932925181754e-11 -1.949169830823e-11 4.284928745572e-12 2.096836368273e-08 -1.429659756203e-08 1.465781956602e-09 7.500000000000e-04 4.417864669111e-06 1.266569688156e-13 2.376382952204e-14 -4.401123989559e-14
95 1 3.683627667122e-03 1.878935663296e-03 6.828614025682e-04 -4.622120263241e-12 -3.761330693793e-12 7.271897497585e-13 5.733633929393e-09 -1.638299033855e-09 1.151202440259e-08 7.500000000000e-04 4.417864669111e-06 1.190791765850e-13 1.613814957930e-14 -3.950169779035e-14
96 1 7.629588645095e-03 6.153882383320e-03 1.399751373567e-02 -5.067564439040e-12 -6.499973927408e-12 7.191279124349e-13 2.525206303820e-09 -8.286610564527e-09 2.333210356549e-09 7.500000000000e-04 4.417864669111e-06 -6.587917870040e-14 1.102285486965e-15 1.293753242079e-14
97 1 1.023084751814e-02 7.565245816602e-03 1.183337990222e-02 -1.301085722531e-11 -1.443026937961e-11 1.300694623327e-11 -2.214010126219e-08 1.420503124034e-09 -1.614464713152e-08 7.500000000000e-04 4.417864669111e-06 -7.565158398035e-15 -3.977635501633e-14 -6.683423954961e-16
98 1 1.228817570761e-02 2.094286005124e-03 4.209436197242e-03 -2.173779272875e-11 -2.316930601835e-11 -1.791705025799e-11 6.138256220471e-08 -1.598200167990e-09 -8.602635625832e-08 7.500000000000e-04 4.417864669111e-06 -1.085298154918e-13 2.537669433685e-13 2.009326943369e-13
99 1 4.818859168082e-03 6.600891283814e-03 2.752533082329e-03 -1.518110051672e-11 -8.471749367547e-12 1.513960935266e-12 -1.381569195438e-08 2.708351761804e-09 -1.149893546455e-08 7.500000000000e-04 4.417864669111e-06 -3.895489390493e-14 -5.261338358913e-14 -1.876692170497e-14
100 1 1.304483925612e-02 4.513684352861e-03 5.412894498945e-03 -2.214089411285e-11 -1.305313122880e-11 -1.088365270585e-11 1.225008001761e-08 3.893700436205e-09 -1.537082744193e-08 7.500000000000e-04 4.417864669111e-06 -1.686088072242e-13 -4.392933231189e-14 -4.242566731183e-15
101 2 3.508279227869e-03 1.271951643049e-02 1.045884449909e-02 -8.748358216446e-12 -1.296253901581e-11 4.332320223894e-12 -1.646254748330e-09 -7.246353651193e-11 5.261425127448e-09 1.000000000000e-03 1.047197551197e-05 9.100118257887e-14 -7.176204813096e-14 4.889084945977e-14
102 2 1.099049299193e-02 1.370682989239e-02 1.289533924116e-02 -9.850439444232e-12 -7.369365360481e-12 4.335000318465e-12 -7.573802772393e-09 3.193604197728e-09 1.413887624788e-09 1.000000000000e-03 1.047197551197e-05 -4.767552870821e-14 -4.639787010287e-14 -1.957206706236e-14
103 2 9.080991522296e-03 5.912187134230e-04 9.087503018811e-04 -4.336369239689e-12 -5.522223908930e-12 1.250061056539e-12 3.230825089307e-09 -2.116115782799e-09 7.535081049521e-09 1.000000000000e-03 1.047197551197e-05 1.515282471813e-14 -3.614217709255e-15 2.200843931796e-14
104 2 1.116858898521e-02 1.181730792952e-02 3.611415412729e-03 -1.782163712824e-10 5.637575051193e-11 1.199112630572e-10 -1.138820135588e-07 -2.509893047648e-07 2.459607507685e-08 1.000000000000e-03 1.047197551197e-05 6.454379505943e-13 -8.143066270904e-14 -6.127303293715e-13
105 2 1.239541526468e-03 1.494979570003e-02 1.437553054728e-02 -3.945333054543e-12 -4.990361026323e-12 4.337084378441e-12 -2.049588740698e-09 -9.224072293557e-10 1.935942420503e-09 1.000000000000e-03 1.047197551197e-05 7.080643547174e-14 -1.891574671246e-14 -1.120468354937e-14
106 2 4.404817547072e-03 1.259743969158e-02 1.459611382543e-02 -2.168269992239e-12 -4.526529823353e-12 -7.810322285497e-13 -3.989069311251e-09 2.181828085185e-09 -1.882759023297e-09 1.000000000000e-03 1.047197551197e-05 1.783655471499e-14 -6.944019434456e-14 9.240231528156e-14
107 2 5.507661751244e-03 5.309176409385e-03 4.096052263730e-03 -1.512894913252e-11 -1.137199961644e-11 -1.516977153558e-12 1.628706345773e-09 -5.693830101234e-09 -3.726480649443e-09 1.000000000000e-03 1.047197551197e-05 2.360878159447e-14 -8.818188698295e-14 -9.469569038059e-14
108 2 1.361289230339e-02 3.297763448162e-03 1.447226133568e-02 -4.617260409767e-12 -9.611593635148e-12 -4.336164104695e-12 -8.868783876131e-09 4.927989777197e-09 -4.129850863708e-09 1.000000000000e-03 1.047197551197e-05 8.655331097714e-14 -3.163227169946e-14 -4.070974058908e-14
109 2 1.742343952400e-03 1.281902145628e-03 1.107809909496e-02 -1.669067388468e-11 -1.811545860919e-11 -4.335616312052e-12 2.059783557541e-09 1.576405860005e-09 2.170191155364e-09 1.000000000000e-03 1.047197551197e-05 9.645919689531e-14 8.056305297245e-14 -1.800060946048e-14
110 2 1.468347345377e-02 1.192312203428e-02 9.949901586796e-03 4.445007297497e-12 -3.863866461039e-11 3.203563959581e-11 -1.840062758529e-08 1.887612986999e-08 2.610818348400e-08 1.000000000000e-03 1.047197551197e-05 -9.505599238176e-13 1.362602353270e-14 -1.223678297059e-13
111 2 6.661981907871e-03 9.398620799409e-03 1.220919498999e-02 -6.925144798557e-12 -1.588280629173e-11 4.331329935604e-12 -6.598862303042e-09 4.051167012157e-09 2.818294260421e-09 1.000000000000e-03 1.047197551197e-05 -1.427315778843e-13 7.135567041586e-15 3.491486370925e-14
112 2 4.626150635343e-03 4.376762505581e-03 6.863138373885e-03 -1.951606796193e-11 -2.318614183057e-11 -2.129301697806e-12 5.173351432584e-10 2.799980354844e-09 -5.362769475878e-09 1.000000000000e-03 1.047197551197e-05 -1.576509135996e-14 -1.120832997399e-13 5.788729153198e-14
113 2 7.548323725185e-03 9.214494672469e-03 3.996787502614e-03 -1.378222183338e-11 -7.305402752530e-12 1.666548362766e-14 -3.428168966815e-09 8.357299778780e-10 8.819206034853e-10 1.000000000000e-03 1.047197551197e-05 -2.818859308635e-13 -1.039471010738e-13 -4.075756386050e-14
114 2 1.002208587614e-02 1.840603016442e-03 1.266586297070e-02 -5.407434315808e-12 -1.191614313923e-11 4.330768061523e-12 -2.370745720966e-09 8.659013985365e-09 -5.732686749897e-09 1.000000000000e-03 1.047197551197e-05 -3.802438619481e-14 4.196293242133e-14 -1.342532308316e-14
115 2 1.411510990612e-05 1.234346111720e-02 1.279244409900e-02 -6.633358200521e-12 -1.300939840990e-11 4.337990892421e-12 -2.052661269077e-09 -3.799070566345e-09 -2.568197964961e-09 1.000000000000e-03 1.047197551197e-05 5.523267661211e-14 -7.418526483844e-16 2.119054172602e-14
116 2 1.295543904782e-02 1.227049720017e-02 6.559391384151e-03 -8.530989378656e-11 -1.150342994566e-10 1.211681509869e-10 -4.476850887884e-08 -7.300748171235e-08 3.470910130383e-08 1.000000000000e-03 1.047197551197e-05 4.273453117990e-13 4.378805040299e-13 2.537646219959e-13
117 2 7.971484224275e-03 1.112374299100e-02 2.554802290824e-03 -2.571484954980e-11 -2.249666422450e-12 -6.126354544192e-12 -1.543887514958e-08 7.137066981823e-09 6.246380652397e-09 1.000000000000e-03 1.047197551197e-05 -2.893364750997e-13 -2.899680897531e-14 2.126030750236e-13
118 2 3.114708534574e-03 9.752022972605e-03 7.744369893398e-03 -5.422144274869e-12 -2.645786596943e-11 1.713288954986e-11 -1.282093741302e-09 8.050986631865e-09 -9.389762200983e-10 1.000000000000e-03 1.047197551197e-05 -6.125027610207e-14 -1.075581923331e-13 1.340281007943e-13
119 2 1.176416147331e-03 7.937079046947e-03 1.406741431098e-02 -3.962841280106e-12 -1.300938125105e-11 4.170629236870e-12 9.015424636410e-09 -6.193863475246e-10 1.461090275967e-09 1.000000000000e-03 1.047197551197e-05 5.046353044920e-15 -1.688161763179e-15 4.786091610743e-14
120 2 1.479197494570e-02 1.307301051772e-03 1.115418167038e-02 -1.443699085293e-11 -2.382671288299e-11 -4.339767495706e-12 -5.642441196632e-11 3.907070952858e-09 1.438768966538e-09 1.000000000000e-03 1.047197551197e-05 -4.227766084525e-14 1.912181263982e-13 3.238449532754e-14
121 2 1.111999329174e-02 7.481756149413e-03 5.761064462483e-03 -1.320394860141e-11 -1.951710207384e-11 6.508091189612e-12 2.910621743039e-09 4.525254709052e-09 -4.835253932509e-09 1.000000000000e-03 1.047197551197e-05 -7.222685120901e-14 1.138429845035e-14 3.306432716327e-14
122 2 7.384447020501e-03 7.326613671781e-03 7.056608591471e-03 -1.433534045418e-11 -1.554823952723e-11 2.166233154963e-12 6.679506761597e-10 1.230658891523e-09 -3.175685162150e-09 1.000000000000e-03 1.047197551197e-05 -4.463869970428e-14 2.611778129010e-13 -4.280326394620e-14
123 2 1.561990731344e-03 1.328620291145e-02 6.154048215323e-03 -3.784242744367e-11 -3.992666646176e-11 1.159262360108e-11 -2.398039706635e-09 -9.577199498270e-09 3.892027674194e-09 1.000000000000e-03 1.047197551197e-05 5.446324438235e-13 -3.271905196643e-13 2.347132082052e-13
124 2 1.365918889318e-02 8.886393255653e-03 3.717369855142e-03 -3.035538791506e-11 7.372960013004e-11 6.729065563333e-11 1.715235979038e-07 8.771514933134e-08 1.588408220886e-07 1.000000000000e-03 1.047197551197e-05 -9.965966455156e-14 -3.197386236701e-14 -2.332623731074e-13
125 2 6.919383437141e-03 1.138302818430e-03 8.515432133516e-03 -1.512370432510e-11 -1.747025772794e-11 -4.336460123852e-12 1.868399397845e-09 7.639081788269e-11 1.000550136980e-08 1.000000000000e-03 1.047197551197e-05 -6.531925008096e-15 -2.727544456563e-14 2.360768191556e-14
126 2 8.077324357628e-03 1.219765477317e-03 1.447048562766e-02 -5.194240130965e-12 -6.846212793856e-12 4.338085548453e-12 -5.472134414034e-09 3.930192453573e-09 -2.663697292619e-09 1.000000000000e-03 1.047197551197e-05 1.783360679354e-14 2.728428107422e-14 -1.104617538848e-14
127 2 1.245509262074e-03 9.435204076615e-03 8.125771242445e-03 -3.719801408896e-12 -3.903082610704e-11 3.035852405459e-11 3.594776176811e-09 3.148486904391e-09 7.465773187037e-09 1.000000000000e-03 1.047197551197e-05 2.243682010103e-13 1.056751087128e-14 -4.531541901615e-15
128 2 1.380934550604e-02 1.113952481421e-02 8.425846996897e-04 -2.168821961570e-11 1.304984395898e-11 1.331837904657e-11 -3.367510795875e-08 -4.656690856225e-09 -9.656851882376e-08 1.000000000000e-03 1.047197551197e-05 -1.260183466844e-13 1.142673025657e-13 -1.364800806174e-13
129 2 5.250330488471e-03 8.515899666094e-03 2.452283427971e-03 -1.515465659406e-11 -7.226697251777e-12 2.448307976553e-12 3.515361146482e-09 -3.143112501777e-09 1.175561377070e-09 1.000000000000e-03 1.047197551197e-05 -1.273974946264e-13 -4.109193336788e-14 5.431515232861e-14
130 2 9.310691918951e-03 6.581547583707e-03 1.315284736081e-02 -4.340324739638e-12 -1.378664101821e-11 -4.127402582160e-12 -3.143253563855e-09 1.926358993006e-10 4.227250353590e-10 1.000000000000e-03 1.047197551197e-05 1.079106721733e-14 1.026301285068e-13 2.111363580521e-14
131 2 9.730348771004e-03 1.098570928430e-02 4.673464518760e-03 -4.088366753860e-11 -1.548513802472e-10 1.536154477266e-10 2.064549275564e-07 3.232590835298e-07 1.877703581854e-07 1.000000000000e-03 1.047197551197e-05 7.417387651735e-13 5.754076080441e-14 -1.076411710517e-13
132 2 9.203253692453e-03 1.261265722265e-02 2.417392430967e-03 -1.313568865923e-11 -4.337452351638e-12 2.957257259152e-12 1.794309340509e-08 -2.919157565622e-08 -6.509107785136e-09 1.000000000000e-03 1.047197551197e-05 1.001390092737e-13 2.784653326572e-14 5.007728446034e-13
133 2 7.502582821970e-03 7.710366185036e-03 8.934975042893e-03 -1.079769372886e-11 -1.842605180665e-11 4.330611229929e-12 4.343896141950e-09 1.111433612568e-09 3.815090411661e-09 1.000000000000e-03 1.047197551197e-05 -1.043102593504e-14 1.346278618419e-13 -2.102307965267e-15
134 2 1.291675235296e-02 1.102239494281e-02 3.969001186564e-03 -1.344403128941e-10 2.296945867718e-10 3.316335980381e-10 3.942442906192e-07 3.328303939153e-09 1.733880794737e-07 1.000000000000e-03 1.047197551197e-05 -3.403057283057e-14 -3.149712674650e-13 -7.067649438299e-13
135 2 1.038917978237e-02 1.114513875622e-02 8.727277062090e-04 -5.647509316692e-12 -2.579178665899e-11 1.526920362976e-11 2.658264450538e-08 4.635257552944e-09 4.472433545266e-08 1.000000000000e-03 1.047197551197e-05 -1.072584671254e-13 5.078625748933e-13 5.875626889744e-14
136 2 8.389317094042e-03 4.631352230868e-03 4.589903683643e-03 -1.554450313868e-11 -1.517986815841e-11 -7.976256002205e-13 1.719797749973e-09 -1.877126088427e-09 -1.799963690477e-09 1.000000000000e-03 1.047197551197e-05 3.219939044286e-13 7.202201527040e-15 3.049060658908e-15
137 2 1.008479908881e-02 5.997156604558e-03 8.585660116643e-03 -1.283745725569e-11 -2.815985300638e-11 4.229382504169e-12 3.999633152424e-09 -2.381187966710e-09 -5.134793813953e-09 1.000000000000e-03 1.047197551197e-05 1.710861429777e-14 4.680070169403e-14 -7.020416880955e-14
138 2 7.169768707065e-03 3.235855553171e-03 4.199597466471e-03 -1.518580087210e-11 -1.378509471428e-11 -4.050861155937e-12 1.286617906240e-10 -1.569334009740e-09 1.738880984086e-09 1.000000000000e-03 1.047197551197e-05 -3.781523185366e-14 3.152679820636e-14 6.786516717348e-14
139 2 8.034174510105e-03 6.882408677267e-03 1.171791199582e-02 -8.685717297653e-12 -1.509339993887e-11 -1.423455856692e-12 2.705625399702e-09 3.796337112508e-09 -1.474317918284e-10 1.000000000000e-03 1.047197551197e-05 -1.450894196049e-13 -8.621608952705e-14 3.132544122400e-14
140 2 6.731044192499e-03 4.753918164014e-03 2.691616555505e-03 -1.084035418150e-11 -9.213256361940e-12 -3.265770781107e-13 1.537997846114e-09 6.899482842747e-10 5.523357633928e-10 1.000000000000e-03 1.047197551197e-05 3.304138434002e-14 -2.431210854326e-13 -9.227498743027e-14
141 2 2.719205461378e-04 6.313124410655e-03 1.415244676140e-02 7.400386862836e-12 -1.632089732713e-11 -4.336947258995e-12 5.375640032006e-09 1.461505597628e-08 9.306885730053e-09 1.000000000000e-03 1.047197551197e-05 4.036639527029e-15 6.340514637260e-14 -2.646247645997e-14
142 2 1.161500107340e-02 1.258894069490e-02 1.439361615980e-02 -4.479991924777e-12 -4.332773963255e-12 4.337145848223e-12 2.118734346903e-09 2.983989524330e-09 -2.261276422808e-09 1.000000000000e-03 1.047197551197e-05 -1.279679351964e-13 -3.512454476385e-14 -1.014643448343e-14
143 2 1.142875969707e-04 3.152603403372e-03 1.324675216143e-02 -9.567806073332e-12 -1.713623604562e-11 3.458722222387e-12 -4.797529922245e-09 -3.214588221303e-09 7.747383013844e-10 1.000000000000e-03 1.047197551197e-05 5.084553978957e-14 1.012323533734e-13 -3.993288975274e-14
144 2 3.431736536781e-03 7.307299887851e-03 5.720374643560e-03 -6.811584272094e-12 -1.959374537620e-11 2.175969996432e-12 8.509026735149e-09 1.333181203757e-09 1.456928253515e-09 1.000000000000e-03 1.047197551197e-05 -8.917170440519e-14 3.300257157567e-14 1.139738288466e-14
145 2 1.204317267535e-02 1.056011757470e-02 1.702021694266e-03 -3.028556797376e-11 -3.426510636286e-12 2.645423366063e-11 -1.730756369012e-07 3.454301277519e-09 -7.837049123802e-08 1.000000000000e-03 1.047197551197e-05 -2.171933304387e-13 2.193482142544e-13 -5.780739803850e-13
146 2 2.288915079631e-03 1.265386389610e-02 1.207170320011e-02 -1.828500205868e-12 -1.214545383414e-11 6.667922045941e-12 -4.011451304453e-09 4.646999951785e-09 -5.380983316358e-09 1.000000000000e-03 1.047197551197e-05 -8.223874761039e-14 -2.893203222165e-14 -5.655661554722e-14
147 2 3.707614194511e-03 7.418533987812e-03 2.002188127471e-03 -1.409806352497e-11 -1.965963248786e-12 3.252392717541e-12 3.030254643533e-09 7.300859654774e-09 -3.276032369013e-09 1.000000000000e-03 1.047197551197e-05 1.171368333026e-14 6.276336270533e-14 -7.167219389372e-15
148 2 1.388976524184e-02 1.025806919558e-02 2.475859472071e-03 -1.146046835356e-10 1.604641382347e-10 1.137597102191e-10 -1.199998537130e-07 8.895260562884e-08 -2.710593355507e-07 1.000000000000e-03 1.047197551197e-05 1.568268758197e-13 1.908668080963e-14 -2.114371269515e-13
149 2 1.984436992809e-03 1.505230492410e-02 4.237670959685e-03 -3.505550897595e-11 -3.286410295512e-11 6.483905638408e-12 -8.643159404058e-09 -2.708881889736e-08 -1.376005177848e-08 1.000000000000e-03 1.047197551197e-05 2.801625796176e-13 -6.272061877604e-14 1.898262333143e-14
150 2 1.078212261672e-02 2.280884796221e-03 2.860127237724e-03 -1.044239834695e-11 -7.875287506406e-12 9.083845742690e-13 1.285446503840e-09 -1.402218546533e-10 1.659134938010e-09 1.000000000000e-03 1.047197551197e-05 7.614255685664e-14 9.493520627679e-15 -6.417111701190e-14
151 2 5.260614796073e-03 5.528146627085e-03 8.217187297833e-03 -1.288820219114e-11 -1.951666155454e-11 -2.293775585613e-12 -1.536598545019e-09 -1.031179600214e-09 -9.268971748686e-10 1.000000000000e-03 1.047197551197e-05 -3.238304261202e-14 -5.238767085665e-15 4.606821795211e-14
152 2 1.964818388195e-03 6.638335928569e-03 6.793143945591e-03 -1.215594625999e-11 -2.759994187264e-11 -2.167918935128e-12 5.305450359690e-09 -2.210302892676e-09 -1.167682383721e-08 1.000000000000e-03 1.047197551197e-05 -1.012265454369e-13 -2.469476256376e-13 2.396904288532e-14
153 2 1.113106341794e-02 1.071178999045e-02 1.440095488871e-02 -4.335294243780e-12 -4.336497442749e-12 3.148400464101e-12 -1.407804606949e-09 3.126714681854e-09 2.011866514391e-09 1.000000000000e-03 1.047197551197e-05 4.136876740426e-14 3.770736318704e-14 -4.190397557948e-14
154 2 6.942713618003e-04 1.218361625590e-02 1.111141627147e-02 2.237023209779e-12 -1.197628588009e-11 1.162397654614e-11 3.392475236248e-09 -4.705700433235e-09 4.246069257908e-09 1.000000000000e-03 1.047197551197e-05 -2.674784866832e-13 -2.158914835197e-13 8.979762297133e-14
155 2 1.341179972409e-02 1.083705786673e-02 9.238423616547e-03 1.952424747837e-11 -3.902997123409e-11 5.563888953720e-11 2.216259725509e-11 -1.735591476953e-08 -2.486097782336e-08 1.000000000000e-03 1.047197551197e-05 -1.975728586925e-13 -5.922336101673e-14 -7.635149791279e-14
156 2 1.979949200158e-03 7.372357908105e-03 1.066696701935e-02 -5.367536648683e-12 -2.546692825623e-11 8.343006416997e-12 5.279668742140e-10 8.879486352083e-09 -3.690318996128e-10 1.000000000000e-03 1.047197551197e-05 3.896687124740e-14 -5.715365762213e-15 3.625985752225e-14
157 2 1.182481771402e-02 3.961967832698e-03 4.200980975876e-03 -7.912302586324e-12 -6.333137461661e-12 2.167426368859e-12 -6.654717201517e-10 -1.429330128987e-09 -7.614369271787e-09 1.000000000000e-03 1.047197551197e-05 -2.516795006108e-13 -1.576764397588e-13 -6.139191610616e-15
158 2 7.373677384444e-03 1.193276354634e-02 6.517841703799e-03 -2.808567450791e-11 -1.301184376438e-11 -8.163897197897e-13 -1.736761520452e-09 2.536448681095e-09 1.778744471150e-08 1.000000000000e-03 1.047197551197e-05 4.976626903505e-14 -9.001880531446e-15 1.773481683876e-14
159 2 7.817164526168e-03 1.351500034738e-02 3.333915578546e-03 -2.422879752278e-11 -6.046733737827e-12 -5.242283513922e-12 4.938541540220e-09 2.670494761744e-09 3.595684934399e-11 1.000000000000e-03 1.047197551197e-05 -1.133386889239e-13 1.047289322551e-13 1.425032226261e-13
160 2 1.434225544320e-02 2.622870364945e-03 9.760034884610e-03 -2.167730480907e-11 -2.780922966506e-11 -4.336343506629e-12 -2.755302349073e-09 8.024791199752e-09 -1.966955859382e-09 1.000000000000e-03 1.047197551197e-05 2.270395019098e-15 3.378468189877e-14 -2.449481569900e-14
161 2 6.319869290602e-03 1.237750437917e-02 8.115467646048e-03 -2.381267064715e-11 -1.793743640081e-11 -2.935917756481e-12 -2.256083785522e-09 4.374714556478e-09 -9.955922507023e-10 1.000000000000e-03 1.047197551197e-05 -5.856808948034e-15 -5.527456845477e-14 6.216482026896e-15
162 2 1.131121978249e-02 5.642280773579e-03 7.115870886423e-03 -1.300968912651e-11 -2.471121227963e-11 7.868592182874e-13 4.518103981014e-09 1.088908723917e-09 -4.367932417249e-09 1.000000000000e-03 1.047197551197e-05 8.156395245228e-14 4.654961609290e-14 -1.269908684441e-13
163 2 3.961059537858e-03 1.390452673419e-02 9.023634898955e-03 -1.832114558438e-11 -1.301342434500e-11 -3.033752070734e-12 -3.517655568560e-09 7.489019318886e-10 3.684824208320e-09 1.000000000000e-03 1.047197551197e-05 2.351445060992e-13 2.597077965437e-14 -8.183931095432e-14
164 2 1.506934442212e-02 9.784693191179e-03 9.256565417466e-03 -4.339451189355e-12 -4.761577163969e-11 3.891866464644e-11 1.360551556580e-08 3.843633299927e-09 -8.140310296747e-09 1.000000000000e-03 1.047197551197e-05 -4.310336427564e-14 -3.420056909113e-15 1.351525291325e-13
165 2 1.883713034085e-03 2.989237089501e-03 7.402345064378e-03 -3.663233135328e-11 -2.641131517736e-11 -8.102711421445e-12 2.761624224811e-09 9.350312165331e-09 -1.883833257300e-09 1.000000000000e-03 1.047197551197e-05 -2.361511460405e-13 -3.404338272851e-13 3.042403130635e-14
166 2 6.313206219263e-03 6.676479282751e-03 3.015188162060e-03 -1.425488462084e-11 -9.464178096903e-12 -1.085230598778e-12 -1.571585405134e-09 7.516982104706e-10 6.402714398678e-09 1.000000000000e-03 1.047197551197e-05 -1.409487772249e-13 -3.190415002121e-13 1.194506343072e-14
167 2 6.724930015631e-03 4.235064627569e-03 8.091382322128e-03 -1.191520382038e-11 -1.951412078622e-11 -2.898065372735e-12 1.301262771423e-09 1.440918575442e-09 2.523848203338e-09 1.000000000000e-03 1.047197551197e-05 -1.720533021543e-13 -1.320956659787e-14 -4.194039703795e-14
168 2 1.229791267956e-02 1.626153999311e-03 9.340217667007e-04 -4.340696904877e-12 9.280379491045e-13 8.264593929386e-13 -3.632161406716e-09 5.943741044246e-09 1.431080984453e-08 1.000000000000e-03 1.047197551197e-05 1.741962386131e-14 -7.490308185443e-15 8.985750402607e-14
169 2 9.391001135092e-03 8.913112961328e-03 2.655860720924e-03 7.919737548262e-12 -3.291746267790e-12 1.593848264681e-11 1.331255069384e-08 -5.746469204480e-09 -3.436614906826e-09 1.000000000000e-03 1.047197551197e-05 -3.607830263960e-15 -7.965780291091e-14 1.151863986693e-13
170 2 7.796861244022e-03 1.020463848738e-02 9.778717245330e-03 -1.517666110562e-11 -1.902423724335e-11 4.335173334145e-12 5.698176962999e-09 -7.925357700301e-09 -1.668751437597e-09 1.000000000000e-03 1.047197551197e-05 3.027372259614e-14 -8.740144262786e-14 -4.475997281630e-14
171 2 3.204319323354e-03 1.262676805488e-02 5.418452706998e-03 -2.802796228111e-11 -3.035124925824e-11 1.053742788175e-11 -8.293141062267e-09 1.656498818186e-08 9.895234226253e-09 1.000000000000e-03 1.047197551197e-05 2.803041199733e-13 5.308882219642e-14 -1.276611372873e-13
172 2 1.939999651853e-03 4.635853604457e-03 1.314480061193e-02 -5.219243628470e-12 -1.498356939166e-11 -4.333776738598e-12 -5.375148486675e-09 -3.448521221729e-09 -4.165758032683e-10 1.000000000000e-03 1.047197551197e-05 1.725909669281e-13 4.363868740720e-14 -3.094714738738e-14
173 2 1.273266350902e-04 6.523407085612e-04 8.102499810221e-04 -8.950284042301e-12 -1.033024178409e-11 -3.765074669980e-14 1.240125612372e-08 -4.769710384316e-09 7.958012508115e-09 1.000000000000e-03 1.047197551197e-05 -1.749773489344e-13 3.188168429951e-13 1.611265194491e-13
174 2 2.368772972487e-03 9.277468638788e-03 1.455235038471e-02 -2.488566170987e-12 -1.259226432477e-11 4.332744430735e-12 -1.034485459308e-08 1.158670665137e-09 -3.649526826874e-09 1.000000000000e-03 1.047197551197e-05 -3.611661099435e-14 3.323888718302e-14 3.794043902787e-14
175 2 8.379523121210e-03 1.359131545446e-02 9.455756157058e-03 -2.168357413205e-11 -2.165913527239e-11 4.341103274191e-12 -1.268982260786e-08 7.208521788536e-09 -2.640578971745e-08 1.000000000000e-03 1.047197551197e-05 5.001637761531e-14 1.054402815869e-13 -2.215547547699e-14
176 2 1.356823817972e-02 4.796455085421e-03 2.722947296645e-03 -1.090169540001e-11 1.882907929356e-11 -1.282024248268e-12 6.125099172906e-09 -1.167885407992e-08 -1.046015805185e-08 1.000000000000e-03 1.047197551197e-05 -2.494417161999e-13 4.147616213716e-13 8.254005615990e-14
177 2 1.676000200352e-03 3.719303589207e-03 5.535335752416e-03 -2.787465837841e-11 -2.664528841295e-11 -8.591391120131e-12 4.238592355807e-10 2.142254034740e-10 3.668046199426e-09 1.000000000000e-03 1.047197551197e-05 -3.638194280978e-13 -7.924098903189e-14 -1.379868095851e-13
178 2 8.563876719439e-03 2.344579422943e-03 1.017143785011e-02 -1.301044112114e-11 -1.703171292685e-11 -5.043926885255e-13 -1.278839441443e-09 -1.166555073900e-09 -9.342839773973e-10 1.000000000000e-03 1.047197551197e-05 2.914493531525e-14 9.221472022268e-14 8.513176649395e-14
179 2 1.372933570706e-02 4.764708916969e-03 1.229485697788e-02 -8.398538764641e-12 -2.300166069418e-11 4.334413883558e-12 5.841739101632e-09 2.959432331812e-09 -9.373997145092e-11 1.000000000000e-03 1.047197551197e-05 -6.881836358560e-14 -2.770649261302e-13 -4.857344994628e-14
180 2 1.144141437125e-02 5.196975467331e-03 1.023557385813e-02 -1.052357374561e-11 -2.387097924420e-11 4.315279756160e-13 3.294183806685e-09 1.196636651992e-09 -2.297563583962e-09 1.000000000000e-03 1.047197551197e-05 2.931485098937e-14 1.556983258722e-13 1.971211683636e-13
181 2 3.054989721155e-03 8.144602989027e-03 1.324357994249e-02 -9.595163823979e-12 -1.732192838718e-11 4.333003664558e-12 9.736407470861e-09 1.245646308810e-09 -5.500758322892e-09 1.000000000000e-03 1.047197551197e-05 4.569511412783e-14 1.566451688702e-13 -1.585148008485e-14
182 2 1.465261884255e-02 1.281679189255e-02 8.121119674649e-04 -1.536358743897e-11 -1.319749057411e-11 2.247264637581e-11 2.408851652093e-08 -2.295721998507e-08 5.534108243288e-08 1.000000000000e-03 1.047197551197e-05 1.331987306584e-13 3.094085014494e-13 -8.619161420000e-15
183 2 6.627785191837e-03 9.758155946937e-04 3.011578063641e-03 -1.932512342735e-11 -5.828220807161e-12 -4.509998873146e-12 -3.475873243123e-09 -6.310416364750e-09 -3.695995554929e-09 1.000000000000e-03 1.047197551197e-05 -1.747329155566e-13 -3.688412222072e-14 -3.492632015054e-13
184 2 3.981951443555e-03 3.560917479573e-04 8.548283803700e-03 -2.013495694439e-11 -1.593645442561e-11 -4.336808558979e-12 1.130562961047e-09 -1.625684985013e-09 -1.516049385275e-09 1.000000000000e-03 1.047197551197e-05 1.072063578102e-13 4.254222991496e-15 -2.647635971914e-14
185 2 2.365530787051e-03 6.471021027023e-03 1.444154972132e-02 -2.836730707052e-12 -9.906689900875e-12 -8.804383725222e-13 -8.443294728369e-09 3.753210886373e-09 2.265408762602e-11 1.000000000000e-03 1.047197551197e-05 -1.536239453026e-13 7.200043698732e-14 1.663624025781e-13
186 2 5.829470551928e-03 1.346853584409e-02 9.535450925018e-04 -1.077220781265e-11 -1.047845918438e-12 -4.695188838947e-13 -3.249556381824e-09 -3.479456572099e-09 4.138313679972e-09 1.000000000000e-03 1.047197551197e-05 -8.898921569385e-16 -1.280543147685e-13 -8.874660082972e-14
187 2 9.155552170219e-03 7.911940550845e-03 7.883886617564e-03 -1.290893992827e-11 -2.168531799964e-11 7.811346863984e-12 1.173443437475e-09 -1.110114510624e-09 -1.422171401827e-08 1.000000000000e-03 1.047197551197e-05 1.422395577119e-14 1.446487967680e-14 -1.230912041605e-13
188 2 1.082680336349e-04 1.347982307130e-02 9.006480237613e-03 -2.772310617119e-11 -2.824584872680e-11 4.336172409482e-12 -7.429483394491e-09 -2.294143793291e-09 2.560299988254e-08 1.000000000000e-03 1.047197551197e-05 -2.279517178788e-13 -2.525561466965e-13 -7.520825956840e-15
189 2 5.436864755187e-03 7.775831794442e-03 6.385843833925e-03 -1.329320317974e-11 -1.518087790594e-11 2.168581439328e-12 -3.026310505123e-09 1.387942868377e-09 -2.544417394730e-09 1.000000000000e-03 1.047197551197e-05 -1.058550477816e-13 8.081171751557e-15 5.747060543063e-15
190 2 2.100865453657e-03 1.310592244559e-02 3.957513005867e-03 -2.712353633121e-11 -3.035669141686e-11 6.510107253995e-12 4.956892906722e-08 -3.914312413952e-08 3.364081526717e-08 1.000000000000e-03 1.047197551197e-05 1.903862824369e-13 2.115627682856e-14 2.483349951068e-14
191 2 1.021451868631e-02 1.517450777557e-02 1.110193657974e-02 -1.300993483324e-11 -1.446204023630e-11 7.178226762937e-12 -2.840087742825e-09 6.235213035140e-10 -5.326252840229e-09 1.000000000000e-03 1.047197551197e-05 5.293130471290e-14 5.031314913565e-14 -1.213046602780e-13
192 2 1.498017678728e-02 9.672558251611e-03 9.219500643221e-04 -5.678737256032e-11 -2.715822666407e-11 2.211605356348e-11 5.252407345167e-08 -5.334925220865e-08 5.929530544416e-08 1.000000000000e-03 1.047197551197e-05 4.024437805512e-14 2.726000642899e-13 7.163670180532e-14
193 2 2.741454715046e-04 1.017649862220e-02 6.442950201292e-03 8.136215142701e-12 -4.137368272050e-11 4.951444616750e-11 7.760675794658e-09 2.170827133263e-08 1.983448516671e-08 1.000000000000e-03 1.047197551197e-05 1.132452968283e-13 2.012540357198e-14 -1.815447539181e-13
194 2 1.409487337192e-02 1.349374267429e-02 3.569823858464e-03 -7.985019371434e-11 -8.239241925474e-11 -1.338540592602e-11 1.918818659093e-07 -2.422258922720e-08 1.286759748469e-07 1.000000000000e-03 1.047197551197e-05 -1.570683214436e-14 -8.189472308095e-15 1.743329156223e-13
195 2 5.073580524591e-03 1.390148756543e-02 1.362508031702e-02 -6.484821709502e-12 -1.088519685105e-11 -3.943603138082e-12 -2.166859533563e-09 -5.206661158939e-11 5.239262965998e-09 1.000000000000e-03 1.047197551197e-05 7.668764267037e-15 -3.150338565451e-14 -5.399930907725e-14
196 2 8.972674422721e-03 5.035225514779e-03 1.005209625896e-03 -4.335607422987e-12 2.515205688970e-12 4.959045548038e-12 1.818949626270e-09 -2.587319344963e-09 8.772370058974e-09 1.000000000000e-03 1.047197551197e-05 3.769120416608e-14 6.878895116575e-14 -2.445893386130e-13
197 2 7.888458940464e-03 8.877332061017e-03 6.062725484325e-03 -1.314180031380e-11 -1.301070211095e-11 1.583590379546e-12 3.083171173994e-10 4.468851762695e-09 -2.548488727975e-10 1.000000000000e-03 1.047197551197e-05 2.564999481741e-15 -6.678833340366e-14 1.662798928647e-14
198 2 9.378833460615e-03 1.156741797214e-02 1.444380874077e-02 -4.337658567239e-12 -4.336538722272e-12 3.654423689456e-12 -3.513613142964e-09 2.906861271280e-09 -2.363198257612e-10 1.000000000000e-03 1.047197551197e-05 1.672655020238e-14 -4.569396832674e-15 -1.107519451112e-13
199 2 1.388892835322e-02 5.568105881472e-03 4.393141020137e-03 -1.300895477203e-11 -1.010872409439e-12 -4.077249391773e-12 2.768941784022e-09 1.057932449423e-09 -1.826803363392e-08 1.000000000000e-03 1.047197551197e-05 -3.681270424112e-14 2.787323556026e-13 -2.955227278573e-13
200 2 2.333643869141e-03 1.156737624113e-03 1.443142026445e-02 -5.243712700805e-12 -7.208418713075e-12 2.202209839024e-12 -3.455657519359e-09 3.933635350247e-09 -2.493590650133e-09 1.000000000000e-03 1.047197551197e-05 8.931003803029e-15 8.086411452303e-15 6.027891424093e-14
201 2 3.825403303486e-03 1.122080682507e-02 1.147892204970e-02 -5.532147459401e-12 -1.205553859405e-11 3.850256242943e-12 -1.337799014017e-09 2.003012069464e-09 -2.919147082168e-09 1.000000000000e-03 1.047197551197e-05 8.822657109407e-14 -1.431707666188e-13 -7.112498647767e-15
202 2 7.422832520333e-04 1.238932744687e-03 1.280898799638e-02 -1.367574913430e-11 -1.425057884297e-11 6.319032002268e-12 -2.777669100966e-09 3.173781831437e-09 -4.213800959588e-09 1.000000000000e-03 1.047197551197e-05 -8.940930384770e-14 1.935317111612e-14 5.768603614386e-14
203 2 4.202441075817e-03 1.239233996486e-02 9.454245295863e-04 -9.950598583795e-12 -1.105071571328e-11 7.957868842689e-13 6.967035708937e-09 -7.836904483591e-09 6.409284241170e-09 1.000000000000e-03 1.047197551197e-05 8.232698179712e-14 1.059607658484e-14 1.279331397225e-13
204 2 7.504624422299e-03 1.312082339258e-03 4.611035749723e-03 -1.976907266350e-11 -9.528771570651e-12 -6.508971693400e-12 3.679910480417e-09 4.002228450764e-09 -9.720284225137e-10 1.000000000000e-03 1.047197551197e-05 -1.195299914811e-13 2.931061245258e-14 -3.758802214720e-14
205 2 1.072993488692e-02 9.351134848224e-03 1.303328590705e-02 -9.279005389126e-12 -1.301010925134e-11 4.339256377978e-12 -7.006859485182e-09 2.540854139849e-09 -2.670648875319e-09 1.000000000000e-03 1.047197551197e-05 2.049254594168e-14 1.325855262173e-14 -3.837941542511e-14
206 2 3.595136501285e-03 3.548248673084e-03 1.307334782238e-02 -5.423034884637e-12 -1.455946363139e-11 6.489970779549e-13 -1.083139326079e-09 3.277585786467e-10 5.704972703200e-10 1.000000000000e-03 1.047197551197e-05 -2.035616243782e-14 1.531348544533e-13 -7.101824070404e-14
207 2 1.454281112249e-02 8.705475477091e-04 1.398687008884e-02 -1.301199944352e-11 -1.272426258713e-11 5.028603543483e-12 1.637743083644e-09 -5.475944261727e-09 5.070135163770e-09 1.000000000000e-03 1.047197551197e-05 3.936356569617e-16 -6.112098240286e-14 -5.171510142478e-14
208 2 6.481230084302e-03 7.481773688043e-03 1.436314466113e-02 -5.973927417777e-12 -1.084261498643e-11 -1.307267176070e-12 7.645566199973e-09 -4.535649590013e-09 -7.656602915184e-10 1.000000000000e-03 1.047197551197e-05 -5.235977213224e-14 1.446440460356e-14 8.701150915630e-14
209 2 5.465230091552e-03 9.010135266577e-04 9.681791928574e-03 -1.684181316359e-11 -1.961931976206e-11 -4.337169132530e-12 -2.775545253203e-09 7.376707757941e-10 -5.483682979088e-09 1.000000000000e-03 1.047197551197e-05 8.537515471283e-14 1.219648029999e-13 7.537247215902e-15
210 2 1.918401437086e-03 1.474918077394e-02 1.175067534376e-02 -1.223363761520e-11 -6.170272533083e-12 3.933442896075e-12 -6.045881098610e-09 -1.497316328075e-09 1.250593634667e-08 1.000000000000e-03 1.047197551197e-05 -7.416920257903e-14 -2.556301082141e-13 1.145396289971e-14
211 2 8.163774805490e-03 1.191290996701e-02 1.022947651487e-02 -2.344751824971e-11 -1.934174126257e-11 1.301722002092e-11 4.282418587859e-09 2.204637994172e-08 1.001981925224e-08 1.000000000000e-03 1.047197551197e-05 2.001308301387e-13 8.370656711945e-14 9.947444608388e-14
212 2 1.117368158108e-02 6.981598685195e-03 9.830025371407e-03 -7.232590001744e-12 -2.725868133424e-11 4.337576951703e-12 -2.781971811313e-09 4.020325759228e-09 -2.555451406685e-09 1.000000000000e-03 1.047197551197e-05 -5.539330370385e-14 3.538744807136e-14 -5.833597499472e-14
213 2 6.381088317363e-03 3.367495075499e-03 6.283927617723e-03 -1.516125170980e-11 -1.683843072548e-11 -2.263259245552e-12 -2.111091883314e-10 -8.551096341115e-10 -3.417372643802e-09 1.000000000000e-03 1.047197551197e-05 3.025586881652e-13 -9.259524990849e-14 7.704674639071e-14
214 2 3.765931796781e-03 4.319267246690e-03 8.598333365048e-03 -1.237738106067e-11 -2.246489077805e-11 2.325468191050e-12 -2.961883390081e-09 4.849376200165e-09 2.421457012457e-09 1.000000000000e-03 1.047197551197e-05 6.064041817837e-14 -2.197203664116e-13 2.527509797606e-13
215 2 8.022206048492e-04 1.444174812005e-02 7.498685788299e-03 -3.744948159800e-11 -3.612013156630e-11 -6.448005939123e-12 -1.701138445956e-08 2.055748514020e-09 1.766797196548e-09 1.000000000000e-03 1.047197551197e-05 2.325355873171e-13 -3.720999407502e-13 -6.591610939813e-14
216 2 1.432957988232e-02 6.624417760626e-03 1.276834112858e-02 -4.373666707311e-12 -1.995189885337e-11 4.965245575333e-12 7.352800223715e-09 -3.625411357634e-09 2.493646315886e-09 1.000000000000e-03 1.047197551197e-05 -3.751153778104e-14 -1.554050030571e-13 1.134848310756e-13
217 2 1.022505402816e-02 9.658333173007e-03 1.025331119352e-02 -4.339198703446e-12 -2.168562947082e-11 9.616598182975e-12 -2.149548917865e-09 7.300593553074e-09 -4.704543808032e-09 1.000000000000e-03 1.047197551197e-05 -1.010960452760e-14 -4.173666149334e-14 9.883632984031e-14
218 2 6.774050671833e-04 1.297210064775e-02 2.652662082868e-03 3.400224489871e-12 -6.008871764457e-12 3.934656607195e-12 9.971645298012e-09 4.871314402797e-08 2.529562051151e-08 1.000000000000e-03 1.047197551197e-05 1.484231264641e-13 5.240050195637e-13 -1.458308954460e-13
219 2 1.541205102586e-03 3.279241935890e-03 1.447435285944e-02 -5.980422164884e-12 -7.508957420458e-12 4.332475111455e-12 -5.970337241738e-09 4.701616737454e-09 9.989356016987e-10 1.000000000000e-03 1.047197551197e-05 3.396165505063e-14 2.800075831572e-14 5.740154234833e-15
220 2 1.489661900205e-02 1.361513828990e-02 1.079965120071e-02 -1.163483430889e-11 -2.164847480660e-11 6.357183182699e-12 -1.044031909286e-08 1.288452861260e-08 6.033364507686e-09 1.000000000000e-03 1.047197551197e-05 -2.406789263454e-13 5.169834387067e-14 5.883788082184e-14
221 2 3.666806490434e-04 1.368590394088e-02 4.580937664213e-03 -7.494467450248e-11 -7.538678182342e-11 -2.015663430054e-13 -2.542755240733e-08 -5.628019697950e-09 -2.447328234665e-08 1.000000000000e-03 1.047197551197e-05 1.047078812934e-13 1.689292602608e-13 1.314154515778e-13
222 2 1.457579047960e-02 1.924747605317e-03 5.998665411079e-03 -4.769537659938e-11 -6.244081299524e-11 -2.670215551216e-11 -1.276349014186e-08 1.853548423870e-08 -1.313086593975e-08 1.000000000000e-03 1.047197551197e-05 3.167911325655e-13 -2.947754270769e-13 2.263034219288e-13
223 2 1.192666452511e-03 8.996204390142e-03 1.575268988679e-03 -3.773159638993e-11 -4.337931707559e-12 1.318915963163e-11 -8.584921788599e-10 2.830114118300e-08 -1.242733602568e-08 1.000000000000e-03 1.047197551197e-05 -1.318426837075e-13 2.918401767281e-15 -6.109161445723e-14
224 2 1.263223771412e-02 1.531753986290e-03 1.439216628703e-02 -6.150836914232e-12 -9.179623727038e-12 3.315698778437e-12 -6.610376701019e-09 5.832923584079e-09 3.913657683258e-09 1.000000000000e-03 1.047197551197e-05 1.221107318125e-14 -3.637233339565e-15 -2.351932559963e-14
225 2 3.279695554617e-03 6.140541101248e-03 8.051446934137e-03 -1.682935230305e-11 -2.818820639049e-11 -4.335662335022e-12 -4.233381038842e-09 3.191777070711e-09 2.552256405740e-09 1.000000000000e-03 1.047197551197e-05 -6.614553144345e-14 3.274723005336e-14 -6.547214842408e-14
226 2 4.278492675175e-04 5.374163323759e-03 6.780875730399e-03 -2.291289220065e-11 -2.506782916115e-11 -3.438777965272e-12 -7.160331608222e-09 2.104141804529e-09 -7.758224530391e-10 1.000000000000e-03 1.047197551197e-05 1.595705301303e-13 -4.929553225677e-13 -4.131892725971e-13
227 2 1.298384779256e-02 1.428759060053e-02 9.933872750378e-04 -1.888279978506e-11 6.587951845735e-12 2.053161662090e-12 -3.243010037682e-09 5.833137281461e-09 2.768429003317e-08 1.000000000000e-03 1.047197551197e-05 5.687648969293e-13 1.541598018385e-13 3.192221028849e-13
228 2 2.097164495392e-03 1.353575583183e-02 8.546773639403e-03 -2.584789576495e-11 -2.176483888508e-11 4.346706230783e-12 -1.013372598622e-08 4.866045513495e-09 3.613632127849e-09 1.000000000000e-03 1.047197551197e-05 1.588263799538e-13 8.490478821463e-14 1.854012008420e-14
229 2 2.774661238508e-03 7.961923710153e-03 8.313611869305e-03 -1.073985086519e-11 -3.035793811273e-11 1.105155945770e-11 1.459976774696e-08 9.399050953568e-09 -5.977190888168e-09 1.000000000000e-03 1.047197551197e-05 1.662173005983e-13 -2.225349385162e-14 -7.946902507170e-14
230 2 1.453731830750e-02 6.058153856863e-03 8.192989783106e-03 -1.301095662199e-11 -2.857441372049e-11 6.623327977127e-12 9.545481625505e-09 -1.199549004019e-08 -5.579733103847e-09 1.000000000000e-03 1.047197551197e-05 -9.309463649423e-15 1.258300232039e-13 7.448232681143e-14
231 2 7.381979339879e-03 8.625958866211e-03 1.066446867803e-02 -1.083791733190e-11 -2.168064820018e-11 4.336766936655e-12 -4.984245009336e-09 5.034749687766e-09 6.145572696452e-09 1.000000000000e-03 1.047197551197e-05 -5.814451144871e-15 1.121750643234e-14 -1.468272275699e-15
232 2 4.894618804479e-03 4.290230196214e-03 2.538323720319e-03 -1.134972428056e-11 -6.226501099643e-12 -1.083467954838e-12 3.649118884659e-10 -7.349083778138e-10 -3.172970014208e-09 1.000000000000e-03 1.047197551197e-05 9.678427760384e-14 -1.348172672907e-13 -4.340663111070e-14
233 2 6.693636290847e-03 1.093044298148e-02 4.011765364926e-03 -2.423472129298e-11 -4.980412458157e-12 -4.695820198540e-12 2.001805727311e-09 -5.565646964603e-09 6.005179383504e-09 1.000000000000e-03 1.047197551197e-05 -1.415835712695e-13 -1.692950679264e-13 -2.339329612994e-13
234 2 1.247661928770e-02 6.113367828146e-03 1.273552812988e-02 -4.488670335639e-12 -1.983402887003e-11 4.337226844252e-12 -1.438879843171e-08 3.597931430071e-09 -2.962696362133e-09 1.000000000000e-03 1.047197551197e-05 -9.423303369894e-14 -7.968963535145e-14 2.237830379682e-14
235 2 5.514516586188e-03 6.309934887556e-03 1.070407485811e-02 -1.084245078398e-11 -1.951620465643e-11 -2.431894254417e-13 1.100956128096e-09 1.060165505180e-09 1.602832686735e-09 1.000000000000e-03 1.047197551197e-05 5.835515935113e-15 2.785260585187e-14 5.269382635753e-14
236 2 9.125982492843e-03 7.410059315252e-03 1.000341979280e-03 -2.856932824658e-143 5.889670401181e-141 4.670810806665e-141 -9.147774167606e+01 -1.055428684335e+02 1.604937722515e+02 1.000000000000e-03 1.047197551197e-05 2.859663602245e-144 -5.895299997996e-142 -4.675275365774e-142
237 2 1.312113171779e-02 5.027581271141e-03 7.374492594108e-03 -1.300956661459e-11 -2.748146134687e-11 -5.625390744532e-12 1.217907957156e-10 5.620059207572e-09 4.324800636382e-09 1.000000000000e-03 1.047197551197e-05 -2.161715949281e-14 3.548884124095e-14 -9.330325308522e-14
238 2 1.122913335325e-02 7.676407048100e-03 9.756804327649e-04 -1.893945362950e-13 2.373287167796e-11 1.058093170056e-11 -2.140450725385e-08 -8.793147638817e-09 5.703122655307e-08 1.000000000000e-03 1.047197551197e-05 1.158789048146e-13 -2.600909705306e-14 3.014847277674e-14
239 2 1.528283378824e-02 4.502687168461e-03 1.450522154590e-02 2.181383010793e-13 -1.033269582274e-11 -4.310255452894e-12 -5.839336593474e-09 9.395752433254e-11 -1.848092771240e-08 1.000000000000e-03 1.047197551197e-05 3.167365463998e-14 2.687807712456e-14 2.115140269956e-14
240 2 8.187362797904e-03 5.590687144248e-03 8.048800259434e-03 -1.301017530287e-11 -1.966481421615e-11 -2.717467752176e-12 -1.559741285595e-09 2.891190108684e-09 -5.002600573475e-09 1.000000000000e-03 1.047197551197e-05 -3.422487262461e-14 1.630698415732e-14 9.364540453943e-14
241 2 1.485158774887e-02 1.523963006026e-02 3.842950051882e-03 -3.035729239033e-11 -6.505335152109e-11 -3.684623623253e-11 2.635648679153e-08 -4.118734798587e-08 3.522182815792e-08 1.000000000000e-03 1.047197551197e-05 9.797986229347e-15 -6.906638789475e-15 -1.056676657030e-13
242 2 4.677507617628e-03 1.503398307657e-02 1.228861954456e-02 -1.106972698698e-11 -1.300872956889e-11 -4.259171046736e-12 2.116226195728e-09 -1.694944729550e-09 3.641011150597e-09 1.000000000000e-03 1.047197551197e-05 -4.031331682641e-15 -2.164537985918e-14 -5.019446046461e-14
243 2 1.006978233349e-02 9.281492704396e-03 8.990902402081e-04 4.174242110128e-12 -1.029271149014e-11 2.333646724177e-13 -2.915158566211e-11 1.153281699519e-08 -3.467802946674e-08 1.000000000000e-03 1.047197551197e-05 7.842076694976e-14 5.977045819174e-14 1.128846724990e-13
244 2 4.839491067610e-04 1.522468646075e-02 1.061867216192e-02 -1.509457413196e-11 -2.167923399969e-11 -4.336718187356e-12 -6.760624074761e-10 -2.434333664647e-09 6.858318455746e-10 1.000000000000e-03 1.047197551197e-05 5.011710563640e-14 3.921922415308e-14 -3.270859716775e-14
245 2 4.939583112734e-03 7.901365919094e-03 1.311538289790e-02 -1.006556853393e-11 -1.759854230448e-11 1.288740932778e-12 9.329953790304e-09 -3.646025568000e-10 4.844745131482e-09 1.000000000000e-03 1.047197551197e-05 6.091317102333e-14 3.234512430410e-13 -1.650028854247e-13
246 2 9.814320055503e-03 1.083353912240e-02 2.633374146385e-03 -3.903252504602e-11 -6.973932141778e-12 4.011760761640e-11 -5.935451614022e-08 -4.091410199375e-08 -1.994542058182e-08 1.000000000000e-03 1.047197551197e-05 2.387850309630e-14 1.557253293206e-13 2.267258269133e-14
247 2 2.012999528902e-03 1.468720000657e-03 3.315997596865e-03 -1.572120357939e-11 -1.621566015478e-11 -6.341466505976e-12 -1.061434521122e-09 5.438145924516e-09 -4.090006193740e-09 1.000000000000e-03 1.047197551197e-05 8.318964027010e-13 -8.487230930532e-14 2.960991681966e-14
248 2 6.306868121943e-04 8.464581700799e-03 3.254536113267e-03 -2.500177634494e-11 -6.290933172025e-12 1.384681797424e-11 1.271160647227e-08 -6.453104425046e-10 -5.291246632502e-09 1.000000000000e-03 1.047197551197e-05 -1.193540079322e-14 4.541691695732e-15 -1.620368919356e-13
249 2 7.190351084991e-03 5.229112765435e-03 1.125102334260e-02 -1.031240872089e-11 -1.561874682176e-11 -4.334029666019e-12 -1.258313316709e-09 2.444805174369e-09 -3.489496359330e-10 1.000000000000e-03 1.047197551197e-05 1.725579376127e-13 3.017821742191e-13 8.056463648461e-15
250 2 6.003023421764e-04 1.226215460720e-02 1.450945660083e-02 -3.803946960018e-12 -7.292472944841e-12 4.326229805968e-12 -5.559143721242e-09 4.424857377429e-09 -3.706722365874e-09 1.000000000000e-03 1.047197551197e-05 7.364100734082e-14 -2.079066231541e-14 -1.413707823949e-15
251 2 2.731931791215e-03 1.413600664887e-02 1.335215019238e-02 -5.791314980699e-12 -4.338408454378e-12 4.336867806733e-12 6.700108682834e-09 2.011203378365e-09 -1.561265705401e-09 1.000000000000e-03 1.047197551197e-05 -8.843985485687e-14 -3.465435421285e-15 9.578909092679e-15
252 2 3.122468174803e-03 1.447763167370e-02 5.536983237074e-03 -3.412503144322e-11 -2.852032288443e-11 6.512977054853e-12 -2.697235597259e-09 2.750786515946e-08 5.254675135326e-09 1.000000000000e-03 1.047197551197e-05 4.055182566273e-13 -4.858277882917e-14 -1.148714581001e-14
253 2 8.185380955922e-03 1.468156646101e-02 7.947791552750e-03 -1.974587591668e-11 -2.168334829868e-11 4.131445964142e-12 1.122649834115e-08 1.629701882338e-09 8.438402083596e-09 1.000000000000e-03 1.047197551197e-05 -8.341452080175e-14 1.479988967901e-14 9.155762042597e-14
254 2 1.251623975504e-02 9.407040882674e-03 1.447873266392e-02 -4.514940789247e-12 -6.873710055472e-12 4.339523147793e-12 -6.008556286574e-09 5.620048491118e-10 -3.982433123596e-09 1.000000000000e-03 1.047197551197e-05 5.953117701614e-14 -6.691308025709e-15 -1.630198015968e-14
255 2 6.036317954283e-03 4.277644773852e-03 9.329166964745e-04 -6.505584606300e-12 -3.212951981367e-12 -7.756654937657e-13 3.058140751943e-09 -5.246822324881e-09 2.499489639827e-09 1.000000000000e-03 1.047197551197e-05 -4.178876728389e-14 -4.203767411807e-14 -5.549115912716e-14
256 2 4.492976156262e-03 3.739660598076e-04 1.438473964429e-02 -6.504587379676e-12 -7.119888181842e-12 -3.165769547552e-12 -7.442109833456e-09 3.124183842705e-09 -3.167980918907e-10 1.000000000000e-03 1.047197551197e-05 -6.205943421101e-15 7.357675624294e-14 5.169240922479e-14
257 2 1.673814840664e-04 5.066480707904e-03 1.268295981797e-02 -4.838832083673e-12 -1.958693177904e-11 -4.337030800953e-12 -3.935934574015e-09 7.298693829416e-09 1.340295976887e-09 1.000000000000e-03 1.047197551197e-05 2.669457213661e-14 1.281752247629e-14 3.530550640810e-14
258 2 7.522861286868e-03 1.141449806756e-02 1.414447858152e-02 -2.170633698148e-12 -5.541259533451e-12 4.337121829187e-12 -5.237380990861e-10 -1.299149288611e-09 3.742657763282e-10 1.000000000000e-03 1.047197551197e-05 4.629977050023e-14 -3.875839986088e-15 -4.698310227269e-14
259 2 1.494058691888e-02 7.699320165967e-03 1.121917749160e-02 -1.290228348080e-11 -2.390792279718e-11 1.300982734305e-11 5.133972866338e-09 3.124174267493e-09 1.154612775619e-08 1.000000000000e-03 1.047197551197e-05 -2.894686962294e-13 -2.977214444868e-14 -2.975265127355e-15
260 2 2.713723067198e-03 5.034360655613e-03 4.535511912993e-03 -2.500017029171e-11 -1.951662618299e-11 -2.485033352290e-12 9.840634973733e-10 -1.248471101892e-08 5.082660329931e-09 1.000000000000e-03 1.047197551197e-05 -1.221688619073e-13 -4.860303670754e-15 7.326908646442e-14
261 2 4.557075731325e-03 1.297671583095e-02 1.200552613338e-02 -6.459068457658e-12 -1.120197475663e-11 -2.219885193650e-13 1.412039616440e-09 5.926065989165e-09 1.557726754054e-09 1.000000000000e-03 1.047197551197e-05 3.998530207627e-14 -1.115349447317e-13 -3.389991837679e-16
262 2 7.791038770290e-03 1.337082304584e-02 1.340642307429e-03 -1.504654501431e-11 -4.333390723531e-12 -2.086618484894e-12 -1.885879451160e-09 1.062346513574e-08 6.579829355704e-09 1.000000000000e-03 1.047197551197e-05 -1.986172838789e-13 4.135881711909e-14 1.282376259652e-13
263 2 1.932467167824e-03 1.069925188277e-02 1.087745810833e-02 3.416402814126e-12 -1.632083449406e-11 1.441832167023e-11 2.406659525334e-09 -1.068838783938e-08 -8.172133048270e-09 1.000000000000e-03 1.047197551197e-05 -1.496660464418e-13 1.287423693655e-13 -2.303547305112e-13
264 2 1.093836533771e-02 8.333529210966e-03 1.452113179373e-02 -4.337330868976e-12 -4.335942213472e-12 4.338210891708e-12 -3.940892015906e-10 2.149282277528e-09 2.268537183129e-09 1.000000000000e-03 1.047197551197e-05 3.409923819421e-14 3.255029805245e-14 4.939514003023e-14
265 2 4.964589054183e-03 3.762773130273e-03 5.103279179206e-03 -1.951347017568e-11 -1.831871733037e-11 -2.136065489013e-12 1.763906709892e-09 4.262967027155e-10 7.194503127674e-09 1.000000000000e-03 1.047197551197e-05 2.902356589348e-14 7.851597633017e-14 4.500664964532e-14
266 2 4.738916244176e-04 1.462602286536e-03 7.537458468674e-03 -2.981344644496e-11 -3.955240525333e-11 -1.416796023447e-11 -1.546722086977e-08 1.969215766249e-08 -1.181524038797e-08 1.000000000000e-03 1.047197551197e-05 -8.917330664226e-14 -4.277177936305e-13 -2.203272010397e-13
267 2 6.241674446282e-03 3.077215888940e-04 1.140298411932e-02 -1.165633846613e-11 -1.489500540013e-11 -4.337140804979e-12 -9.791570048818e-09 2.491865783891e-09 -2.045757059969e-09 1.000000000000e-03 1.047197551197e-05 -2.529175858492e-13 2.018345692638e-13 -7.273450516817e-15
268 2 1.270135811797e-03 9.243531031837e-04 9.185182124930e-03 -1.658845496921e-11 -2.097465481577e-11 -4.338545314180e-12 -4.240124384406e-09 -3.755345168663e-09 6.509891184323e-09 1.000000000000e-03 1.047197551197e-05 -2.851256118199e-14 -1.157636418459e-13 -1.274485067339e-14
269 2 4.740068425515e-03 1.216359078820e-02 9.142249956449e-03 -1.514149663588e-11 -1.302070866719e-11 3.398789839558e-12 -3.363072850065e-09 4.466004519270e-09 -2.142039004224e-09 1.000000000000e-03 1.047197551197e-05 1.144597428302e-14 7.946986878492e-15 -3.582310605740e-14
270 2 1.052700628825e-02 5.233874475173e-03 1.439458764985e-02 -1.948940929108e-12 -2.168690638871e-12 2.451800366140e-12 1.284184440373e-09 -6.401313457443e-10 -6.437275976776e-10 1.000000000000e-03 1.047197551197e-05 1.679219120587e-14 1.021079844745e-14 3.762970147596e-14
271 2 5.382990964316e-03 7.312627545112e-03 9.433180492426e-04 -9.975876836593e-12 -2.526735548775e-12 -1.354816400711e-12 1.482017951334e-09 -4.804771240460e-09 2.665707841870e-09 1.000000000000e-03 1.047197551197e-05 -1.199941321572e-13 -6.244244721580e-16 8.313531438064e-15
272 2 1.482208953492e-02 7.821817628837e-04 9.288723606777e-03 -2.114783598312e-11 -3.043257659226e-11 -5.146703106251e-12 -2.964078076487e-09 3.727180867620e-09 4.655293010610e-09 1.000000000000e-03 1.047197551197e-05 2.036458621665e-13 -9.293357461012e-14 1.576065556263e-13
273 2 1.498496661609e-02 5.009815671482e-03 1.081128787191e-02 -1.300591340993e-11 -2.747743107002e-11 -1.884017744693e-12 -2.724343701630e-09 3.529700035824e-09 -1.496053157676e-09 1.000000000000e-03 1.047197551197e-05 -3.799921301009e-14 3.446475396633e-13 9.728985796721e-14
274 2 1.494186921345e-02 1.056331547439e-02 1.209571670085e-02 -5.373784044914e-12 -2.168375374191e-11 1.300595070795e-11 -1.033249859323e-08 5.029608886071e-09 6.040580776193e-09 1.000000000000e-03 1.047197551197e-05 8.007073584193e-14 3.043867951517e-16 -7.119389459525e-16
275 2 4.623903457942e-03 5.558645277999e-03 1.039192142508e-03 -1.028711505269e-11 -3.269555452198e-12 1.045974380139e-12 -1.888920910794e-09 7.235544105340e-09 -1.092066738483e-09 1.000000000000e-03 1.047197551197e-05 -1.463976623958e-14 -4.753337754877e-14 9.875986697539e-15
276 2 6.734358725768e-03 2.056389111076e-03 1.076649314897e-02 -1.084365098775e-11 -1.844995354854e-11 -7.530329544811e-12 4.595029090687e-09 -4.518669543435e-09 1.237458545871e-09 1.000000000000e-03 1.047197551197e-05 -6.425990398010e-16 2.435369134248e-13 1.045266012589e-13
277 2 1.026976995737e-02 6.355473552875e-03 4.448913819316e-03 -2.166574121280e-11 -1.517905749288e-11 6.504671293288e-12 -6.090784785136e-10 5.011697894995e-09 -1.645717405372e-09 1.000000000000e-03 1.047197551197e-05 1.536515025313e-14 1.528899652549e-14 -6.199710685108e-14
278 2 6.134208149908e-03 1.091463035128e-02 9.374578341140e-03 -1.398596788776e-11 -1.481920301241e-11 2.888193291879e-13 7.868484636703e-11 1.650801765231e-09 2.798542870335e-09 1.000000000000e-03 1.047197551197e-05 6.119730570768e-14 -1.025560943760e-13 4.496307922106e-14
279 2 5.066210385958e-03 9.752792755028e-04 9.097252525010e-04 -4.842521251008e-12 3.182247292963e-12 3.428743482854e-14 -2.009649104942e-09 -1.477447187759e-09 -2.779014191190e-09 1.000000000000e-03 1.047197551197e-05 4.475425365687e-13 2.370149273622e-14 -3.754844646401e-14
280 2 1.328766839500e-03 3.271883251572e-03 3.036181879027e-03 -1.124793997417e-11 -1.676979700809e-11 3.681607770526e-13 5.085620739718e-09 1.389020494701e-09 7.691731445455e-09 1.000000000000e-03 1.047197551197e-05 2.512606577156e-13 -4.049033869925e-13 4.089348160656e-14
281 2 1.533318793841e-02 3.157872395924e-03 1.135931102673e-02 -1.300812393455e-11 -2.485451271347e-11 -4.335933677101e-12 9.479868703913e-11 3.988744431377e-09 -1.771604858054e-09 1.000000000000e-03 1.047197551197e-05 3.252085359083e-16 -1.525739463323e-14 2.838907328999e-14
282 2 1.432577317098e-02 9.514947879220e-03 5.369176100779e-03 4.339441237337e-12 -3.919658752524e-11 7.193450651456e-11 4.568753000521e-08 2.339032218500e-08 2.388721674669e-08 1.000000000000e-03 1.047197551197e-05 -5.007682166049e-14 2.497497267155e-13 -2.301295539382e-13
283 2 1.067054027004e-02 5.781998251212e-03 8.614294766813e-04 7.452418210655e-12 -2.168554586410e-12 6.797021746052e-12 7.551470586587e-09 3.888125758274e-09 -2.622218898509e-08 1.000000000000e-03 1.047197551197e-05 -3.745768585752e-13 -3.749436800450e-15 -9.359379309199e-14
284 2 8.595198448309e-03 2.710048477680e-03 1.347309737780e-02 -4.338125842659e-12 -9.778023311785e-12 3.261576274420e-12 -3.443097698565e-10 -8.123408743400e-09 4.830262716762e-09 1.000000000000e-03 1.047197551197e-05 2.527464671359e-14 9.598833367424e-14 -3.086777944984e-14
285 2 6.548939924327e-03 1.305225562398e-02 1.449720967538e-02 -1.901286089506e-12 -4.336771439160e-12 -1.186640293309e-12 -4.029841271719e-09 2.413289128402e-10 -6.413291344181e-10 1.000000000000e-03 1.047197551197e-05 -6.953569147648e-14 -5.087853958519e-15 3.898724624060e-14
286 2 9.559453676791e-03 3.104055576224e-03 4.107633221927e-03 -1.300539723092e-11 -1.388797121579e-11 -2.031201942688e-12 1.483947295251e-09 -1.783139901162e-09 2.381755314309e-09 1.000000000000e-03 1.047197551197e-05 -7.976750967398e-15 -9.813502061601e-14 -5.554983043269e-13
287 2 2.759057315656e-03 1.472703159970e-02 7.296980486031e-03 -2.254182158934e-11 -3.035584933818e-11 6.556694138711e-12 2.549337754245e-09 -1.596496357581e-08 -2.533442402033e-09 1.000000000000e-03 1.047197551197e-05 3.150343929019e-13 3.457409177977e-14 7.026149441374e-14
288 2 1.228207685593e-02 5.978834924495e-03 5.489470581390e-03 -1.364579085567e-11 -1.080539136026e-11 -1.208646932970e-12 9.445584426085e-09 -3.573370385415e-10 7.934836013486e-09 1.000000000000e-03 1.047197551197e-05 -5.561580556470e-14 2.072615094757e-14 9.386488585957e-14
289 2 1.428019886220e-02 7.377404349629e-03 4.679843342499e-03 5.819237608236e-11 -2.154019750607e-12 -2.348693723211e-11 -2.519119086082e-08 -7.599976622814e-08 -5.744639980270e-08 1.000000000000e-03 1.047197551197e-05 -1.151326736188e-13 3.691336236551e-14 4.239810830867e-15
290 2 1.240091299717e-02 6.400739869644e-03 8.539391012291e-03 -1.147184061099e-11 -2.818991550914e-11 4.335350188093e-12 2.768604114999e-09 -1.612372409093e-09 1.411841469446e-09 1.000000000000e-03 1.047197551197e-05 4.877597816328e-14 2.691737047920e-14 -3.833222662287e-14
291 2 1.020023890966e-02 1.412385087517e-02 9.276053710706e-03 -1.567986119016e-11 -3.257632496273e-11 5.747012350207e-12 -6.833136115002e-09 -1.237322600064e-08 1.948116780491e-08 1.000000000000e-03 1.047197551197e-05 3.206236569818e-13 3.082307920230e-13 1.194132088872e-13
292 2 8.770166813167e-04 1.035197639947e-02 2.954452274963e-03 -3.030430999707e-11 -3.232272072696e-12 2.926782630082e-11 5.301064970592e-09 -1.437748918909e-08 5.770321052647e-09 1.000000000000e-03 1.047197551197e-05 1.625470812215e-13 9.266686424077e-14 -3.902199477727e-15
293 2 1.256809638667e-02 1.719930295257e-03 9.618783762764e-03 -1.966497612440e-11 -2.269980051130e-11 3.715555679682e-12 -1.696879356640e-09 1.384156840823e-09 -1.465770598887e-09 1.000000000000e-03 1.047197551197e-05 -2.814901503743e-14 9.023655322640e-14 5.353316171079e-14
294 2 1.193613148453e-02 8.008025277829e-04 2.850555192063e-03 -2.164104396669e-11 -1.194909067541e-11 6.763431572625e-12 -4.302753005250e-10 -1.567278796044e-08 -1.333018704590e-08 1.000000000000e-03 1.047197551197e-05 5.653875282786e-14 -2.031667527221e-13 -2.583688679811e-13
295 2 1.447788043927e-02 7.937175846157e-03 2.234976220144e-03 -3.970315275666e-11 9.270822368072e-11 -2.738935801249e-11 -9.287483568136e-08 2.953682978051e-08 -5.870472423165e-08 1.000000000000e-03 1.047197551197e-05 7.338277343322e-13 -6.371708477511e-13 -1.326423205398e-14
296 2 1.187617739168e-02 8.919468119638e-03 9.556276283969e-03 -4.336645239045e-12 -2.875813251326e-11 1.300905215251e-11 -2.680102243886e-09 -8.323875628007e-09 -2.897670940899e-09 1.000000000000e-03 1.047197551197e-05 3.712831443700e-14 1.531653010971e-13 -1.055858758858e-14
297 2 2.817382752517e-03 4.275565166366e-03 1.150914935594e-02 -7.999596670645e-12 -1.951618955148e-11 -2.826930512141e-13 2.063676813414e-10 2.564585862370e-09 1.069612002419e-10 1.000000000000e-03 1.047197551197e-05 1.363985940063e-13 2.329482859956e-14 8.397166568917e-14
298 2 5.928475348428e-03 9.124679625911e-03 8.574793334131e-04 -2.168178042594e-12 -7.449996879501e-12 3.526122610996e-12 4.338240071536e-09 -3.682723000551e-10 -1.563305056761e-08 1.000000000000e-03 1.047197551197e-05 -8.896706285808e-14 -6.880398091091e-14 -1.116717890272e-15
299 2 8.906698649291e-03 1.457719602572e-02 2.213693122346e-03 -1.453786860805e-11 -4.705201938885e-12 1.081695142350e-12 -1.550181182605e-09 -1.377078767630e-08 -8.404613408019e-09 1.000000000000e-03 1.047197551197e-05 -1.199022413542e-13 1.225267689630e-13 7.800729835425e-15
300 2 2.587734796195e-03 4.685796023846e-03 7.030648689313e-03 -2.336053440193e-11 -2.395905238060e-11 -5.535226857242e-12 3.223399087994e-09 2.902081031455e-12 -7.992812668730e-09 1.000000000000e-03 1.047197551197e-05 -1.395189150731e-13 -8.693439999527e-14 -9.075527670866e-14
301 2 1.414601948350e-02 6.198460785189e-03 6.237031500184e-03 -2.167206251027e-11 -1.128131451914e-11 -1.084326023358e-11 4.887593742897e-09 -5.029968890010e-10 2.418153853892e-09 1.000000000000e-03 1.047197551197e-05 -7.174519488548e-14 -1.078996264740e-13 -2.115040554387e-15
302 2 5.708060093434e-03 2.148263775383e-03 4.560989078997e-03 -1.951169418055e-11 -1.454793833447e-11 -2.269413397085e-12 -7.111457251148e-10 2.403535464618e-09 -4.665245845201e-09 1.000000000000e-03 1.047197551197e-05 6.231162687804e-15 2.946145531320e-13 -7.305517294533e-14
303 2 1.222465430730e-02 1.339034417451e-02 3.304607968057e-03 -7.373440567843e-11 -8.078137861812e-11 2.485341339841e-11 -1.282572887299e-07 2.917612048234e-08 -8.937766345415e-08 1.000000000000e-03 1.047197551197e-05 1.891804560022e-14 1.648476047561e-13 -1.704670729559e-13
304 2 1.258240750903e-02 8.538505729956e-03 2.108679588948e-03 -2.166566442965e-11 1.180488159001e-10 2.041697474458e-11 -3.259519355769e-08 -1.900338231755e-08 -1.713155360987e-08 1.000000000000e-03 1.047197551197e-05 4.302844174828e-14 -2.680329376157e-13 -3.170745005184e-13
305 2 1.524427898848e-02 4.329429325109e-03 2.381090769221e-03 -1.300514962988e-11 -3.194608071775e-12 4.282276438232e-12 6.800474107188e-09 1.797284055219e-09 -9.768052462591e-09 1.000000000000e-03 1.047197551197e-05 2.600376248193e-14 -8.740837789759e-14 6.319682867698e-15
306 2 1.102295707714e-02 2.463472453443e-03 5.206026023715e-03 -6.957344477424e-12 -8.065418926304e-12 -2.170533170523e-12 3.871249987069e-09 4.309925837765e-09 7.965448172481e-09 1.000000000000e-03 1.047197551197e-05 4.025759117094e-13 2.176098467097e-13 -5.178112454105e-14
307 2 3.426445301570e-03 8.340795097841e-03 1.136432840023e-02 -4.005323400501e-12 -1.693130533617e-11 4.340451467449e-12 -8.059996508854e-09 -8.261508311131e-09 4.663617611059e-09 1.000000000000e-03 1.047197551197e-05 -1.178322893928e-13 3.165649584065e-14 -2.672984413086e-14
308 2 1.104176566983e-02 1.257143861835e-02 1.828688708303e-03 -1.357391253389e-11 -3.035119192943e-11 2.457100230771e-11 4.660907260776e-09 3.624778409995e-08 -1.483917744843e-08 1.000000000000e-03 1.047197551197e-05 -4.598844325380e-14 1.374362234555e-14 -7.741109964146e-14
309 2 5.133306212853e-03 5.952398461058e-03 5.848491463861e-03 -1.676217276639e-11 -1.951481134100e-11 1.964220705196e-12 7.022622859435e-09 3.226887730973e-09 3.668130835722e-09 1.000000000000e-03 1.047197551197e-05 1.438166259958e-13 7.154383006597e-15 -8.412007360507e-14
310 2 7.665383140113e-03 7.888405283681e-03 2.538333555981e-03 -6.440207197703e-12 -1.300906404406e-11 6.158698775122e-12 -2.475869052079e-09 -1.689930536682e-08 -1.274395488928e-08 1.000000000000e-03 1.047197551197e-05 -1.112383897356e-13 8.517793120486e-15 8.215027465217e-14
311 2 8.620625654911e-03 4.716380246262e-03 1.418815606594e-02 -4.336465513601e-12 -3.929756888026e-12 4.608617919065e-13 -7.775425733400e-09 -2.516179420093e-09 1.197610992512e-09 1.000000000000e-03 1.047197551197e-05 1.028670178372e-14 3.204857942468e-13 -5.528443410178e-14
312 2 1.186545793362e-02 1.507836331696e-02 9.041793118117e-03 -2.125254570045e-11 -2.633788094719e-11 4.336875575383e-12 -1.475747689668e-08 2.196293193332e-09 -9.018944640894e-09 1.000000000000e-03 1.047197551197e-05 1.383094763922e-13 -3.641062564812e-13 1.274529152033e-14
313 2 2.444404005216e-03 1.186670365538e-03 7.722033473005e-03 -2.710850839655e-11 -2.480320693097e-11 -5.856216126177e-12 -1.308764309841e-08 8.451880509404e-09 8.795075200857e-09 1.000000000000e-03 1.047197551197e-05 -6.967900694141e-15 -1.348968250233e-13 -9.657776089244e-14
314 2 2.914181201694e-03 1.360449287969e-02 1.994711645404e-03 -8.745739082012e-12 -1.300563441349e-11 -1.287433222057e-11 -1.834403761552e-08 1.943891165088e-08 -1.021990130425e-08 1.000000000000e-03 1.047197551197e-05 1.104018040062e-13 5.583470435444e-14 -3.509796096007e-14
315 2 7.951365260914e-03 6.091288364778e-03 9.828870492565e-03 -1.128162109596e-11 -1.779460752190e-11 -3.102291203803e-12 1.818995519113e-09 -2.806869280499e-09 -5.970617812806e-10 1.000000000000e-03 1.047197551197e-05 1.578669155707e-13 1.470181865053e-13 -9.309277921942e-14
316 2 1.755316839502e-03 1.343826725576e-02 1.033444425590e-02 -9.392090469808e-12 -1.300912433560e-11 9.785309986155e-12 -1.525509861442e-09 1.111224911507e-08 -1.882207665017e-10 1.000000000000e-03 1.047197551197e-05 7.969497325834e-14 1.706682550148e-14 -2.835801396811e-13
317 2 1.217662126058e-02 1.497792756254e-02 4.294369230361e-03 4.851297215876e-12 -4.770742286269e-11 -2.970086636976e-11 5.344670252062e-08 5.735819451456e-08 1.618618693588e-08 1.000000000000e-03 1.047197551197e-05 2.996990397124e-13 -2.511209348725e-14 -1.424486186692e-13
318 2 3.384435368835e-03 3.163051283518e-03 6.128880827659e-03 -2.784178256420e-11 -2.310282853446e-11 -3.584261250453e-12 -2.171026055964e-09 -7.903954401775e-09 -2.444006755313e-09 1.000000000000e-03 1.047197551197e-05 -3.337760874192e-14 6.641901270959e-14 9.856152315093e-14
319 2 1.038235333310e-02 3.971397151561e-04 5.486998128333e-03 -3.901819987022e-11 -5.400769445486e-11 -2.258278791704e-11 -6.833856248477e-09 1.031397397159e-08 -7.031393388833e-08 1.000000000000e-03 1.047197551197e-05 6.006158719969e-14 1.033279320913e-13 -1.680798440130e-13
320 2 2.759631262021e-03 6.017130103114e-03 1.267279226295e-03 -1.282834436439e-11 2.167823478059e-12 7.146104102849e-12 -4.155985937250e-10 -1.731713394739e-09 -1.195817068513e-09 1.000000000000e-03 1.047197551197e-05 -1.478290971797e-13 1.850088022341e-15 4.838105273964e-14
321 2 1.180492800143e-02 6.674718970168e-03 1.440551883719e-02 -1.798981316981e-12 -2.163891726599e-12 4.336542935544e-12 -1.354437054409e-09 1.340183230920e-10 3.007584924473e-10 1.000000000000e-03 1.047197551197e-05 9.272314604477e-14 -5.091304802945e-15 -4.278562384502e-14
322 2 5.064782152305e-04 5.085358347069e-03 3.984785472729e-03 -2.525676769710e-11 -5.192330187728e-12 9.905408797593e-12 5.130910298791e-10 -1.178874416640e-08 1.909151682369e-08 1.000000000000e-03 1.047197551197e-05 -2.308944214578e-13 -4.589786913796e-13 2.511503372824e-13
323 2 1.025967285927e-02 7.163049065593e-03 2.644065274345e-03 -1.496730003844e-11 -3.896851553214e-12 2.547813691464e-12 1.351405594695e-08 -1.159768693018e-08 -1.796685547278e-08 1.000000000000e-03 1.047197551197e-05 1.349178989790e-13 6.072855347054e-14 2.673898131929e-13
324 2 1.383130426462e-02 1.248100027711e-02 8.268211018521e-03 -2.166771632434e-11 -4.151142851856e-11 3.216141347924e-11 -1.335015283067e-08 1.778959678152e-07 1.357122292018e-08 1.000000000000e-03 1.047197551197e-05 -2.465335337720e-13 3.750600423171e-13 3.012403125954e-14
325 2 4.751895377425e-03 1.437858510251e-02 7.305439536898e-03 -2.780849739764e-11 -1.619223947374e-11 -2.170794243798e-12 -1.720022996011e-10 6.576855796225e-09 -2.838660697585e-09 1.000000000000e-03 1.047197551197e-05 -2.077279662707e-14 1.004393524118e-13 -4.126030187912e-14
326 2 9.769962389820e-03 1.363827369032e-02 1.440802836484e-02 -4.339235280627e-12 -3.245726306446e-12 4.337176941140e-12 3.856572164415e-11 1.545925063121e-09 1.449329977849e-09 1.000000000000e-03 1.047197551197e-05 -3.288032435611e-14 1.846561658210e-13 1.388197457290e-14
327 2 8.431315647668e-03 1.500339988385e-02 4.373792777951e-03 -3.035901427749e-11 -4.337180870192e-12 9.452331609339e-13 -6.779118073465e-09 -2.472874943015e-08 -4.966225736156e-09 1.000000000000e-03 1.047197551197e-05 -4.337444839161e-15 2.631912547085e-14 3.622352785409e-13
328 2 4.230207441115e-03 9.368556100630e-03 1.429867836534e-02 -2.167950457749e-12 -1.208140612630e-11 4.317319876144e-12 -1.033160004857e-08 -1.844437806910e-09 7.305025458839e-09 1.000000000000e-03 1.047197551197e-05 -1.347808015086e-14 1.961514697227e-13 -1.027461206456e-13
329 2 8.322708870109e-04 2.199347129401e-03 4.711533689182e-03 -1.082643853122e-11 -3.303601771095e-11 -9.196869915326e-12 3.198636566501e-09 5.892590645546e-09 1.993583649708e-08 1.000000000000e-03 1.047197551197e-05 6.070488868461e-13 -3.651458354589e-13 -4.965435736546e-13
330 2 2.471012511896e-03 1.251938888521e-02 1.448105369163e-02 -1.863855513871e-12 -8.077555819023e-12 7.316366016693e-13 -7.552810649952e-09 -3.004258281746e-10 3.735112225122e-09 1.000000000000e-03 1.047197551197e-05 -1.960729884766e-14 7.941409031591e-14 1.059054236327e-13
331 2 1.294261357250e-02 1.224282713444e-02 2.042174420979e-03 -3.904384394264e-11 -4.653479664495e-11 4.614854357359e-11 1.685550377573e-07 -9.880388288604e-08 4.039373472990e-08 1.000000000000e-03 1.047197551197e-05 9.530020176472e-14 4.474939940818e-13 -9.393588552463e-13
332 2 3.951598340690e-03 4.871801181600e-04 1.074498240209e-02 -1.517209327982e-11 -1.341861434485e-11 -4.336786519677e-12 3.098767302601e-12 -7.597231141898e-11 3.057467193880e-09 1.000000000000e-03 1.047197551197e-05 4.090273643716e-15 1.323443175187e-13 -3.397973426041e-14
333 2 1.464032378348e-02 1.414090115933e-02 1.940867405143e-03 -3.902596047508e-11 2.060165228697e-11 1.097718387449e-11 -7.204188221033e-08 -1.810112439032e-08 -5.574555246401e-08 1.000000000000e-03 1.047197551197e-05 1.294203947098e-14 3.174584844546e-13 2.758909504636e-13
334 2 5.749016102424e-03 7.348786893516e-03 8.172027651528e-03 -1.084603086247e-11 -1.807730713157e-11 3.576843284581e-12 4.991088284499e-09 4.026367540936e-10 7.066587997981e-11 1.000000000000e-03 1.047197551197e-05 -4.182751421253e-16 2.000968072710e-13 1.142834674679e-13
335 2 1.365379127138e-02 3.745933282268e-04 2.194463775603e-03 -1.301079767511e-11 9.677442627438e-12 -1.588334881960e-11 3.319543153991e-08 2.167528068839e-08 2.635945560737e-08 1.000000000000e-03 1.047197551197e-05 -1.532630833348e-14 -1.932151430309e-13 -6.748842809144e-14
336 2 9.529981808793e-03 9.617023254583e-03 1.446899966395e-02 -4.337963023180e-12 -3.724738956119e-12 4.335216513671e-12 -4.053649447155e-10 8.962434189838e-10 -1.929014901517e-09 1.000000000000e-03 1.047197551197e-05 -5.350392009450e-14 -2.992726251847e-14 1.546730998436e-14
337 2 5.002005365916e-03 1.421543102445e-02 1.065210388802e-02 -1.470809268604e-11 -1.301094220487e-11 -4.335558871887e-12 -2.439951914383e-09 5.673340309668e-09 -3.647530819663e-09 1.000000000000e-03 1.047197551197e-05 6.788525803118e-14 -1.303370888587e-14 -5.046627656527e-14
338 2 1.220396285980e-02 7.576259632017e-04 5.751728991619e-03 -3.035647132984e-11 -7.999563206059e-11 -8.050325219770e-12 -7.379034076411e-11 -2.827003303598e-08 5.037661584937e-08 1.000000000000e-03 1.047197551197e-05 1.034248437949e-13 8.747582087032e-14 1.223899912407e-13
339 2 1.003835969989e-02 3.368473961552e-03 1.446196602440e-02 -4.348617422835e-12 -3.066573240857e-12 4.334935298335e-12 -2.856271792203e-09 5.344022849555e-09 -1.215664782824e-09 1.000000000000e-03 1.047197551197e-05 -1.384811709650e-14 2.083642592927e-14 -4.295809172622e-14
340 2 5.596169700770e-03 8.151971908014e-03 1.113013486717e-02 -9.860109141000e-12 -2.168285838464e-11 6.174938424882e-12 2.016800986092e-09 -3.105912734781e-09 -2.922183182227e-09 1.000000000000e-03 1.047197551197e-05 -2.734096162300e-13 -6.398968049126e-14 -2.565845007552e-14
341 2 1.401134782335e-02 1.880547140395e-03 8.039141033080e-03 -2.140593279114e-11 -3.638204901823e-11 -1.300797626860e-11 -2.415209795723e-09 -1.322302551969e-08 8.291900743793e-09 1.000000000000e-03 1.047197551197e-05 -1.545796144737e-13 -3.389011480024e-14 2.673121022556e-14
342 2 2.977072359224e-03 1.655704090841e-03 9.555578819232e-03 -1.823589975861e-11 -1.434343923616e-11 -4.336746699108e-12 5.812871654889e-10 1.390375587145e-09 -1.788186040472e-09 1.000000000000e-03 1.047197551197e-05 1.131774383139e-13 5.797738687339e-15 4.286158388918e-14
343 2 1.526970675789e-02 3.207673245354e-03 8.673967965719e-04 -4.360780142181e-12 -1.640951189952e-12 -3.558404610116e-12 1.810639373383e-09 -6.657076308543e-09 5.676985363753e-09 1.000000000000e-03 1.047197551197e-05 -4.018229870205e-15 1.816157840536e-13 4.635454707790e-14
344 2 1.101357180224e-02 1.147648557148e-02 6.084538534926e-03 1.546537306859e-11 -3.903888585019e-11 5.247270542837e-11 -7.219827394991e-08 -1.008343796136e-07 1.380802448478e-07 1.000000000000e-03 1.047197551197e-05 1.583916983748e-14 -7.966770438987e-14 -4.043781395279e-13
345 2 1.213389632523e-02 7.836838976362e-03 4.047829508834e-03 8.116347794010e-12 7.247215549550e-12 -2.231409456008e-12 7.505669208390e-10 -7.038249001671e-08 -9.701456846435e-08 1.000000000000e-03 1.047197551197e-05 7.069921547073e-14 2.142876643141e-13 -1.312704944824e-14
346 2 1.069994472104e-02 1.483518010308e-02 7.519891201272e-03 -1.373389007123e-11 -3.902926882995e-11 7.209559178301e-12 -1.029764698796e-08 -6.667038778388e-09 4.646141398456e-10 1.000000000000e-03 1.047197551197e-05 6.427539496636e-14 6.355446896723e-15 1.656598496855e-13
347 2 3.901237615830e-03 9.652418125377e-03 6.023181382985e-03 -1.193953882500e-11 -1.857506249593e-11 8.810408823652e-12 6.081727624459e-09 3.052756885725e-10 4.512136816802e-09 1.000000000000e-03 1.047197551197e-05 1.668932431782e-14 -1.599911553895e-13 3.437082315665e-14
348 2 8.741181628647e-03 1.521745280138e-02 6.231546882488e-03 -4.459730116813e-11 -6.968565725316e-13 2.153928750289e-12 4.861034721979e-09 1.727133925687e-08 7.239968482509e-09 1.000000000000e-03 1.047197551197e-05 -1.278334929324e-13 9.625639447638e-14 2.126394089530e-16
349 2 2.560714122743e-03 1.505640869728e-02 9.728775281760e-03 -1.577658244026e-11 -1.301177632978e-11 -1.839557815225e-12 -8.585923248607e-10 5.632159295727e-09 -1.475902705292e-09 1.000000000000e-03 1.047197551197e-05 8.848958011814e-14 2.377772690065e-14 -4.412616511932e-14
350 2 1.516358389924e-02 8.585600690648e-03 7.292365972950e-03 4.336141528321e-12 -3.616989129432e-11 2.806792868057e-11 3.529624479841e-09 -1.101487679624e-08 -1.571084411375e-08 1.000000000000e-03 1.047197551197e-05 9.346003193365e-15 -1.411951291891e-13 -1.246686014593e-13
351 2 3.339947982161e-04 1.140637852253e-02 1.493093775947e-03 -2.704665536114e-11 -4.265807571476e-12 2.320805348307e-11 -2.396061666603e-08 3.202540269797e-08 -3.615703425820e-08 1.000000000000e-03 1.047197551197e-05 1.712880188640e-13 8.251817414128e-14 1.830632906312e-14
352 2 8.123258305025e-03 1.202291822240e-02 8.339760814909e-03 -3.035536412108e-11 -1.300776303228e-11 1.552887961552e-11 7.240114663219e-09 -2.218993103649e-08 9.284189480664e-09 1.000000000000e-03 1.047197551197e-05 -2.609503066846e-14 -5.937298790390e-14 -1.817140056279e-13
353 2 2.154990103183e-03 7.642959313965e-03 8.486507575975e-04 -2.293175866549e-11 -1.939010968079e-12 2.876107010155e-12 2.679553746726e-09 -1.772552558918e-08 2.044680692983e-08 1.000000000000e-03 1.047197551197e-05 -7.418189398614e-14 -1.297417868481e-13 -6.207265743323e-14
354 2 1.216846662507e-02 8.565815086887e-03 1.216541719788e-02 -1.301075847184e-11 -2.168619240822e-11 1.444467996491e-11 -2.137392840578e-09 -6.759319220900e-09 -4.331894027549e-09 1.000000000000e-03 1.047197551197e-05 5.323600414508e-14 3.383839452666e-14 -2.807226871618e-14
355 2 1.020200861763e-02 4.605682783635e-03 5.171863881776e-03 -1.520250225619e-11 -1.541667248638e-11 2.093399223200e-12 6.269232747109e-09 7.039990868831e-10 4.629481280276e-09 1.000000000000e-03 1.047197551197e-05 3.146542044788e-13 1.642941034651e-13 -1.455300470597e-13
356 2 1.100419701406e-02 7.623802310931e-03 8.027903356148e-03 -1.301022825338e-11 -3.571249138408e-11 4.337126492415e-12 -5.548531896248e-09 3.495989514779e-09 5.835113481944e-09 1.000000000000e-03 1.047197551197e-05 5.830525733258e-14 1.663123050715e-13 6.785202795988e-14
357 2 1.169414095338e-02 2.999341249239e-03 1.346470727868e-02 -8.881296210081e-12 -9.645257193439e-12 -1.603013023442e-13 -2.727016562011e-10 -4.425363216833e-11 -5.575481965354e-09 1.000000000000e-03 1.047197551197e-05 7.651863762115e-14 1.199687261160e-13 -1.432386164072e-14
358 2 5.717042781658e-03 1.043022996123e-02 6.180312401893e-03 -1.513366178003e-11 -1.377347965673e-11 3.572260877594e-12 2.468434429285e-09 2.680817260269e-09 9.430452735698e-10 1.000000000000e-03 1.047197551197e-05 4.619505283595e-14 -1.657844286310e-13 -1.952877005798e-14
359 2 3.720899198118e-03 1.437397576236e-02 3.562143917270e-03 -2.380526158469e-11 -2.266870766167e-11 1.427240605282e-12 8.823731058136e-09 9.646612546717e-09 1.516445103507e-08 1.000000000000e-03 1.047197551197e-05 1.588509608251e-13 9.902588984690e-14 4.700937276722e-14
360 2 4.546268864475e-03 7.635204537043e-03 9.619459173366e-03 -8.966876841921e-12 -1.900526211562e-11 4.335933150884e-12 1.953622057122e-09 -1.519181364713e-11 -3.924315030803e-09 1.000000000000e-03 1.047197551197e-05 -1.320322740819e-13 -5.676631351309e-15 1.561783460845e-14
361 2 3.596614284270e-03 3.153424532829e-03 1.702584610067e-03 -1.206283127497e-11 -7.102572695500e-12 1.449862245649e-12 -1.705793146554e-09 2.554634300546e-09 3.433271874420e-09 1.000000000000e-03 1.047197551197e-05 2.154135548884e-13 1.587390332246e-13 -2.107770716881e-14
362 2 1.567816836048e-03 1.277560413266e-02 9.116013029239e-04 -1.648495925664e-11 -1.027510396521e-11 -2.320772542146e-12 2.577282296546e-09 -1.682331215368e-08 1.064673431572e-09 1.000000000000e-03 1.047197551197e-05 1.601798158999e-13 3.103806697151e-13 -1.976567823366e-13
363 2 1.481371885734e-02 1.167472179101e-02 3.452972059075e-03 3.209649441475e-11 3.902942639529e-11 -2.082110697122e-11 -8.370167856075e-08 -1.472924345007e-07 -5.723600167480e-10 1.000000000000e-03 1.047197551197e-05 8.716473851019e-14 3.613540303329e-14 -4.202199943240e-14
364 2 1.247997882777e-02 4.860397615801e-03 1.429236680596e-02 -4.076984166844e-12 -2.178025846398e-12 -1.149023742310e-12 5.859035555868e-09 3.787430180684e-09 -1.607786934344e-09 1.000000000000e-03 1.047197551197e-05 -2.003413474189e-14 5.315175512400e-14 3.623170149049e-14
365 2 1.469392704092e-02 5.481284999537e-03 9.482776048244e-04 -1.848968821556e-12 1.808396431939e-11 1.063191687163e-11 -3.812559548601e-09 6.153284646995e-09 -3.419604129453e-08 1.000000000000e-03 1.047197551197e-05 1.499848151013e-13 -1.240289867847e-13 6.591255958764e-14
366 2 6.524505396232e-03 1.229587060785e-02 2.322327068622e-03 -1.951832837014e-11 -4.340106822109e-12 -4.212754410831e-12 1.006220820986e-08 -4.629913414752e-09 -7.178891753618e-09 1.000000000000e-03 1.047197551197e-05 1.616615712060e-15 2.719542455449e-14 -1.996408949965e-13
367 2 1.442295268462e-03 5.555850095885e-03 1.101955636855e-02 -8.141958951064e-12 -2.737571029553e-11 2.758678403232e-12 1.081076869643e-09 -3.863200667712e-09 1.335605753091e-09 1.000000000000e-03 1.047197551197e-05 7.126072252858e-15 4.457335871712e-14 9.942697661771e-14
368 2 5.345565575888e-03 3.466598283276e-04 4.615984502827e-03 -2.811404601690e-11 -1.626184390038e-11 -6.202010072298e-13 1.762655102873e-09 9.703067122349e-10 4.865940749611e-10 1.000000000000e-03 1.047197551197e-05 -8.769350133684e-14 1.365064673676e-13 -2.273129205268e-13
369 2 6.174579417561e-03 9.009850767986e-03 9.100260477059e-03 -1.030402648646e-11 -1.978084252105e-11 4.337856415880e-12 -2.605566634233e-09 -1.371911877594e-09 -1.756446288124e-09 1.000000000000e-03 1.047197551197e-05 -7.745184639062e-14 -1.300759292648e-13 1.275824214009e-14
370 2 5.318409527144e-03 1.229428178971e-02 3.739134319106e-03 -2.008633673206e-11 -1.300769546612e-11 -3.749193436416e-12 -5.489439303887e-11 6.567944987242e-10 3.067057715504e-09 1.000000000000e-03 1.047197551197e-05 -2.014576351807e-13 4.315010963653e-14 -3.611971185878e-14
371 2 1.404956680162e-02 1.275112155597e-02 1.442621840904e-02 -2.929724186938e-12 -6.177193649463e-12 4.335627361885e-12 -5.737365872588e-09 1.351780567263e-09 -5.720051251711e-10 1.000000000000e-03 1.047197551197e-05 -3.805610031535e-14 -2.120995361056e-14 -4.969506956897e-14
372 2 9.981147940723e-03 1.126686630164e-02 9.160690997670e-03 -7.754191407608e-12 -3.035639217659e-11 7.700456800981e-12 -8.129531162298e-09 1.917271631059e-08 8.801645301208e-10 1.000000000000e-03 1.047197551197e-05 -1.951918431880e-14 2.651605268011e-14 1.396934413875e-13
373 2 6.635568778677e-03 1.368495527733e-02 6.683406899706e-03 -2.951764495152e-11 -2.115591046427e-11 -1.795636101364e-12 1.115289645465e-09 5.241922118630e-09 -1.054004741046e-08 1.000000000000e-03 1.047197551197e-05 2.724180986139e-13 -3.611062410593e-13 1.957377374618e-13
374 2 6.012377314149e-03 1.245034595955e-02 1.061694460161e-02 -1.044343276736e-11 -1.562333725428e-11 6.092087230381e-13 -1.217243358442e-09 -1.810042437301e-09 -8.691384260756e-09 1.000000000000e-03 1.047197551197e-05 -1.364363386732e-13 -1.184905505417e-13 -4.512246630253e-14
375 2 8.114957740501e-03 8.422737014474e-03 1.441683055892e-02 -4.337031896206e-12 -5.599810581452e-12 4.336868778949e-12 -2.511841086940e-09 1.799822495913e-09 2.404285825947e-09 1.000000000000e-03 1.047197551197e-05 4.244561717017e-14 1.190307306084e-14 3.141554675788e-14
376 2 2.391790846060e-03 9.362205977215e-03 9.615640860698e-03 9.791184788674e-13 -2.721362133204e-11 2.168675868801e-11 -9.325693803154e-09 6.225878564026e-09 -1.044462317108e-09 1.000000000000e-03 1.047197551197e-05 -1.626578686142e-13 2.090993480703e-13 3.902600496804e-14
377 2 1.346294738118e-02 6.927639096251e-03 9.451809458328e-04 -3.116773925168e-11 3.139539131936e-12 8.251302474082e-12 -1.404201198663e-08 -2.091445265882e-08 8.207240981886e-08 1.000000000000e-03 1.047197551197e-05 4.460032296316e-13 -1.253356857709e-13 4.888399835655e-14
378 2 9.342279407129e-03 5.412214468721e-03 3.032544158358e-03 -1.301109637651e-11 -1.084082279778e-11 4.270396640114e-12 4.504329340967e-09 -5.636907654797e-09 4.150887458217e-09 1.000000000000e-03 1.047197551197e-05 1.913256468800e-14 -1.050707842484e-15 -3.702591703126e-14
379 2 4.053693397922e-03 8.900550794738e-03 9.050693242125e-04 -8.320943890096e-12 2.008217540395e-12 -8.213083153324e-13 -2.192465577687e-09 -8.284782508660e-09 2.721261505430e-09 1.000000000000e-03 1.047197551197e-05 1.165069941003e-14 -1.046792569194e-13 5.753882591795e-14
380 2 3.540899054790e-03 5.593179324567e-03 2.925773571147e-03 -1.576752158188e-11 -6.505419046071e-12 5.429680230430e-12 8.067620235384e-09 7.491478010968e-11 5.200881874223e-09 1.000000000000e-03 1.047197551197e-05 1.123087021645e-13 2.034823461156e-15 -9.297239095349e-14
381 2 4.951862811728e-03 1.020108763290e-02 7.986407978376e-03 -1.084160225463e-11 -2.018838227832e-11 4.339348455443e-12 2.143667543334e-10 1.084453389321e-09 6.938234228518e-09 1.000000000000e-03 1.047197551197e-05 1.936381362508e-14 4.162628229759e-14 4.514174119333e-14
382 2 1.788027277237e-04 9.442926117638e-03 1.449780561726e-02 -2.304229797147e-12 -1.075632645044e-11 4.337016102988e-12 -8.427734359176e-09 1.901950166706e-09 -1.867359265488e-09 1.000000000000e-03 1.047197551197e-05 1.494296011072e-14 -9.104889895084e-14 -2.360776876083e-14
383 2 6.890419092749e-03 1.268152684492e-02 4.788477629513e-03 -2.620294170200e-11 -1.300950118781e-11 -4.333009173185e-12 2.284375059105e-09 8.552509303235e-10 -3.259827584069e-09 1.000000000000e-03 1.047197551197e-05 2.119232011767e-13 3.849676803368e-14 -3.652483419909e-14
384 2 5.955101596057e-03 1.100796977101e-02 1.000956752499e-03 -1.096300158470e-11 -4.346524056602e-12 -1.085081002217e-12 -7.943497635421e-09 1.074214748460e-08 2.226886849826e-08 1.000000000000e-03 1.047197551197e-05 1.520725452408e-14 -2.650403710893e-14 -3.350684091214e-13
385 2 3.778237503842e-03 9.286094232267e-04 3.781065385384e-03 -2.392718022436e-11 -2.267584119298e-11 -3.812844664310e-12 -9.032560583373e-09 -6.366813906275e-09 -6.201219243108e-09 1.000000000000e-03 1.047197551197e-05 5.200463429650e-13 -1.102172870246e-15 4.279339021818e-13
386 2 5.041640235446e-03 1.028984537978e-02 3.291702008344e-03 -2.385176091160e-11 -1.300998500185e-11 1.087362636140e-12 1.636067140164e-10 1.076388008708e-08 6.460867857745e-09 1.000000000000e-03 1.047197551197e-05 -3.508809803744e-14 -6.194268017196e-14 -2.877217008830e-14
387 2 1.257351089832e-02 7.552838111271e-03 6.982671321681e-03 -1.171100658582e-11 -2.810781648364e-11 5.315280759974e-12 -1.317593433974e-09 -5.920037286913e-10 9.257149864981e-09 1.000000000000e-03 1.047197551197e-05 1.816768541989e-13 2.925682067388e-14 2.405049205315e-14
388 2 1.828318690217e-03 3.219704886240e-03 1.026033759582e-02 -1.463764859602e-11 -2.200736151783e-11 -4.335230092079e-12 -1.078725901528e-09 -1.078081119200e-09 -1.402296237146e-09 1.000000000000e-03 1.047197551197e-05 2.066119102673e-14 1.080379700028e-14 -1.213730687150e-15
389 2 1.040912413773e-02 5.692996101940e-03 1.181732652203e-02 -9.279472210793e-12 -1.861987426450e-11 8.610850612943e-14 2.079798445204e-10 -2.173726008842e-09 -7.369833279069e-09 1.000000000000e-03 1.047197551197e-05 -8.004518935197e-14 6.704286145307e-14 1.394039772595e-13
390 2 6.633457339907e-03 3.849685102416e-03 1.000786696371e-02 -1.083859184931e-11 -1.843098538996e-11 -4.332879134337e-12 -7.988529278997e-10 -1.252715104006e-09 1.890255066727e-09 1.000000000000e-03 1.047197551197e-05 7.394001005020e-15 1.163023247702e-14 1.647040691822e-14
391 2 1.361447591990e-02 1.136535486486e-03 4.520176503957e-03 -4.771688589416e-11 -7.367503606964e-11 -4.692476550930e-11 -6.119131375932e-08 5.868378553607e-08 -1.455541993872e-09 1.000000000000e-03 1.047197551197e-05 -9.384805659049e-15 5.089762862298e-13 3.118064934518e-13
392 2 1.209452323208e-02 1.339956024571e-02 7.955065804769e-03 -4.770588036854e-11 -3.651435943886e-11 3.035950559845e-11 -5.692112020723e-08 8.286809270255e-09 3.394464770047e-08 1.000000000000e-03 1.047197551197e-05 4.774488310348e-14 1.310490796228e-13 5.360671231630e-14
393 2 8.315389232668e-03 3.779489651409e-03 2.817394503932e-03 -1.301050515190e-11 -1.096062944740e-11 -1.078406343989e-12 2.017100912810e-09 -1.358359936821e-09 -1.847605024902e-09 1.000000000000e-03 1.047197551197e-05 -1.668912968286e-14 -4.353634844359e-16 -4.524681707327e-14
394 2 1.409598413425e-02 1.803559476232e-03 1.003680660621e-03 -1.301055839819e-11 2.070483827959e-12 -4.757895739469e-12 -1.387304372083e-08 -4.823379756068e-09 -1.790626106574e-08 1.000000000000e-03 1.047197551197e-05 7.903363467626e-15 2.183477868374e-13 8.736433105798e-14
395 2 4.731770278757e-03 9.507765379893e-03 1.212154470327e-02 -6.503489592696e-12 -1.301189746323e-11 4.337707170638e-12 -4.136683743643e-09 -2.681777540857e-09 -7.315372037381e-09 1.000000000000e-03 1.047197551197e-05 -1.964454765006e-15 1.920580440542e-14 1.530135253677e-14
396 2 5.120126257700e-03 2.334957340143e-03 2.687590911461e-03 -1.435689934308e-11 -6.590263151978e-12 -5.170807612068e-12 6.378177468626e-09 -5.357637104126e-09 5.585703362519e-11 1.000000000000e-03 1.047197551197e-05 -5.639958501577e-14 1.231421087484e-13 -1.459866916063e-13
397 2 1.050675908595e-02 1.089870952069e-03 9.716679997206e-03 -1.636053259969e-11 -2.268447093614e-11 4.336522000397e-12 -4.580987037278e-09 6.245600763282e-09 2.082738200461e-09 1.000000000000e-03 1.047197551197e-05 6.492763684513e-14 -2.135277392172e-14 7.891032234485e-15
398 2 4.379371594819e-03 1.114125713230e-02 4.930944070770e-03 -1.870455158277e-11 -1.301343456212e-11 6.506137641246e-12 -3.096558672226e-09 2.901672200325e-09 1.968253095299e-09 1.000000000000e-03 1.047197551197e-05 1.305828203413e-13 1.305312325159e-14 -1.530325181189e-14
399 2 9.099361187826e-03 9.565693666284e-03 8.724812541664e-03 -4.341660708168e-12 -2.130145671224e-11 1.301073698933e-11 2.145936241578e-09 -1.243405541423e-08 -3.236284103459e-09 1.000000000000e-03 1.047197551197e-05 -8.217998953103e-14 8.069551515502e-14 2.580623651283e-14
400 2 9.514655213799e-03 4.120504042348e-03 1.251646560371e-02 -9.294117383703e-12 -1.136806771690e-11 2.286030549091e-12 -2.683862131525e-09 7.754914788949e-09 1.235920998794e-09 1.000000000000e-03 1.047197551197e-05 -1.614940822922e-14 7.210582757563e-14 -3.369394492003e-14
401 3 5.060090890625e-03 1.122926723921e-02 1.319467918993e-02 -2.400622799673e-12 -1.039080283556e-11 -8.457699355692e-13 -1.895007645683e-09 3.272714374155e-10 1.527578178790e-09 1.250000000000e-03 2.045307717181e-05 2.408016389614e-14 -1.604831363031e-13 -5.911476845775e-14
402 3 1.341894182945e-02 1.514592807352e-02 1.055546973882e-02 -1.374189882333e-11 -2.169357810921e-11 2.510182831065e-12 -4.548160972118e-09 1.378276070846e-09 -4.068340738227e-09 1.250000000000e-03 2.045307717181e-05 2.443243439016e-13 -7.021840581608e-14 1.324620022978e-13
403 3 1.490823826874e-03 5.081576920124e-03 8.871649363412e-03 -1.352639247253e-11 -2.818904059210e-11 4.336410825646e-12 4.353797746842e-09 7.294858363796e-09 7.246162540307e-10 1.250000000000e-03 2.045307717181e-05 -1.507597048521e-13 2.320729635355e-14 2.175528324078e-14
404 3 1.024643612658e-02 1.396636075998e-02 3.812898171309e-03 -2.168284128126e-11 -3.763882603139e-12 1.666657861707e-11 1.068331354152e-09 7.464814183447e-09 7.127901505540e-09 1.250000000000e-03 2.045307717181e-05 -1.614307671260e-14 2.240503048130e-13 2.745903283455e-13
405 3 9.270423423756e-03 7.764171452263e-03 1.011555622084e-02 -1.167159371102e-11 -1.951831834644e-11 5.681298190553e-12 1.810069809762e-09 -2.964326406620e-09 -2.061078152527e-09 1.250000000000e-03 2.045307717181e-05 2.343813137315e-13 3.052862151057e-14 -1.215604078354e-13
406 3 1.561257202108e-03 4.402395773176e-03 1.151708669771e-03 -1.028711831146e-11 -2.167973513056e-12 2.991875319883e-12 1.991881166592e-09 -2.567547498279e-09 1.887445323572e-09 1.250000000000e-03 2.045307717181e-05 2.230556504885e-14 -2.724298925785e-14 1.805170737768e-13
407 3 5.109954264016e-03 4.500160683562e-03 1.427460923250e-02 -2.172829300474e-12 -6.572002071780e-12 -1.251756494744e-12 -3.981819514681e-09 6.045053981002e-10 1.701515120887e-09 1.250000000000e-03 2.045307717181e-05 -2.017588381778e-14 -1.746310744313e-14 6.658843045499e-14
408 3 9.429138313071e-03 8.329619280983e-03 4.698597493929e-03 -1.301089161602e-11 -1.306756276748e-11 6.505352629969e-12 8.073887516892e-10 -6.727517473425e-09 -3.350446724410e-09 1.250000000000e-03 2.045307717181e-05 9.682473351240e-15 -3.202181372880e-14 -6.275910249948e-15
409 3 5.839734319826e-03 1.429391323534e-02 3.016599667692e-03 -2.413919987882e-11 -5.910305028002e-12 -3.740021103114e-12 2.299877440982e-09 -4.969137924766e-09 1.026400314981e-09 1.250000000000e-03 2.045307717181e-05 7.810444235728e-14 1.702837211116e-13 -5.063747712313e-13
410 3 8.043653118647e-03 2.341752073394e-04 1.015607957494e-02 -6.929606188422e-12 -1.452529131856e-11 -4.325162354033e-12 2.728270902970e-09 -2.742448790287e-09 6.788334919847e-09 1.250000000000e-03 2.045307717181e-05 -7.789653439876e-13 2.048357458011e-13 7.161774573126e-14
411 3 1.226593633828e-02 9.276107022688e-03 5.611462529482e-03 1.836475266845e-11 -3.538115720648e-11 5.368490243485e-11 3.957905311286e-08 -1.831899406565e-08 -2.577457169668e-08 1.250000000000e-03 2.045307717181e-05 -2.033255860749e-13 3.669430580686e-13 -3.966613872694e-13
412 3 8.867726999140e-03 1.311381612326e-02 5.518593824497e-03 -3.893445204865e-11 -5.901108702821e-12 1.517914254192e-11 -1.083196371269e-08 -2.835513556061e-08 3.095254540442e-09 1.250000000000e-03 2.045307717181e-05 2.084948796766e-13 -1.272664495479e-13 -8.321372465498e-14
413 3 2.358722490650e-03 1.070214116343e-02 1.138237195601e-03 -2.492074295334e-11 -1.032320849548e-11 3.264307758151e-12 6.085612370015e-09 -1.150954842372e-08 7.701064063262e-09 1.250000000000e-03 2.045307717181e-05 -2.016557145394e-14 -1.554717560665e-13 -1.950757469111e-13
414 3 6.108777462866e-03 6.120006099328e-03 1.282480992238e-02 -6.285852926618e-12 -1.084376641832e-11 -4.337259047689e-12 -3.671230364430e-09 2.524325240474e-09 7.759327279570e-10 1.250000000000e-03 2.045307717181e-05 -9.732610590565e-14 -1.230767941195e-14 -1.134474689551e-13
415 3 9.290296387400e-03 1.329140336009e-02 1.142595101018e-02 -1.901483959595e-11 -2.020022526634e-11 5.904274011492e-12 3.418251215989e-09 -1.418972371739e-09 2.847873993302e-09 1.250000000000e-03 2.045307717181e-05 3.422875629573e-13 1.623657240254e-13 -1.772890722634e-13
416 3 1.709724607899e-03 8.624761085661e-03 6.050302165815e-03 6.713192741740e-12 -2.168516122286e-11 1.503119458993e-11 7.762156500437e-09 8.030280590608e-09 -5.457570281559e-09 1.250000000000e-03 2.045307717181e-05 -1.544749604217e-13 8.914653373462e-15 -1.134532579377e-13
417 3 1.178715394911e-02 1.155705233481e-03 1.164753211179e-02 -1.300531433744e-11 -1.671943517292e-11 1.770367828874e-12 -1.324622514556e-09 -1.033877376865e-10 1.997875854384e-09 1.250000000000e-03 2.045307717181e-05 8.791242842287e-15 2.962444750550e-13 3.770407919913e-16
418 3 1.390212072780e-02 1.467169831776e-02 7.965174531776e-03 -4.884504348804e-11 -3.035628826186e-11 -7.114594173596e-12 1.818097077320e-09 1.535503980066e-08 -1.685977374220e-08 1.250000000000e-03 2.045307717181e-05 4.842611352842e-13 1.849577749354e-14 7.425478890392e-13
419 3 2.579123151216e-03 7.773356837486e-03 3.763942246601e-03 -1.313941406740e-11 -1.008212911358e-11 7.077574668266e-12 2.140880586865e-09 1.323230777428e-09 4.911713645513e-09 1.250000000000e-03 2.045307717181e-05 -2.059435824261e-13 1.520277336216e-13 3.116351468284e-13
420 3 1.363386481055e-02 2.343207171721e-03 1.257850121290e-02 -1.300515513295e-11 -1.839008891544e-11 1.712789239345e-12 -1.675977036082e-09 4.508510324797e-10 -2.677680422511e-09 1.250000000000e-03 2.045307717181e-05 1.460683665530e-14 -6.795720637297e-15 -3.829292791535e-14
421 3 4.145581679175e-04 1.926349887214e-04 5.742794960427e-03 -5.488358618818e-11 -5.925088259156e-11 -2.010425152901e-11 -1.697902377287e-09 2.175111444072e-09 1.506268037858e-08 1.250000000000e-03 2.045307717181e-05 -2.314986892226e-13 -4.130716377287e-13 -1.174301993859e-13
422 3 2.553233244590e-03 1.008874915947e-02 4.302985689331e-03 -2.192654368995e-11 -7.936288103222e-12 1.963181476351e-11 1.121757423209e-08 1.498937329554e-08 5.224342602782e-09 1.250000000000e-03 2.045307717181e-05 -8.852828257547e-15 -1.127013470710e-13 -1.485835504219e-14
423 3 1.046399405057e-02 1.152214112204e-02 1.253481392453e-02 -1.264731306811e-11 -1.413712441672e-11 3.881468665039e-12 -5.322605972331e-09 2.650140574556e-09 8.304279800125e-10 1.250000000000e-03 2.045307717181e-05 2.066163116661e-13 1.116350093806e-13 -5.582890017068e-14
424 3 3.360356015373e-03 3.073161641427e-03 3.946938096962e-03 -1.580877860120e-11 -1.838653374062e-11 -5.177603821624e-12 5.765376943586e-09 -1.624966072564e-09 -6.221767615384e-10 1.250000000000e-03 2.045307717181e-05 6.610551619292e-13 3.624560093520e-13 4.248203752672e-13
425 3 8.964538601467e-03 1.319336485284e-03 7.923359961625e-03 -1.706937340380e-11 -2.115717928026e-11 -4.385863681936e-12 -1.557362544139e-08 4.287430229166e-10 -8.284468662323e-09 1.250000000000e-03 2.045307717181e-05 -3.136415000483e-13 -6.272837260671e-13 -2.126452755593e-14
426 3 9.990346560714e-03 1.272698443053e-02 7.592932326520e-03 -4.770406156399e-11 -2.811196471824e-11 1.091146246320e-11 1.360525173117e-08 4.178154286543e-08 -2.622130038619e-08 1.250000000000e-03 2.045307717181e-05 2.341620207023e-14 -1.811862054708e-14 -1.770196458429e-13
427 3 1.301462649921e-03 9.041222073696e-03 1.216951519813e-02 -6.637767883918e-12 -1.301041803694e-11 4.344068619383e-12 -3.134652167770e-09 9.339143354791e-11 2.291330234491e-10 1.250000000000e-03 2.045307717181e-05 3.408963161869e-13 5.802949216286e-15 1.375709742646e-13
428 3 9.265064134939e-03 2.874766958621e-03 1.172682973328e-03 -4.725536157471e-12 -5.041235129756e-12 -9.034773552517e-13 4.060634801072e-09 -4.933791466418e-09 2.175248028096e-10 1.250000000000e-03 2.045307717181e-05 2.260280813769e-13 1.732542069191e-13 -1.836340677501e-13
429 3 7.964219573051e-03 9.498113460910e-03 1.173253734065e-03 -1.128500005525e-12 -4.336573625434e-12 7.172483862602e-12 3.934184077174e-09 -2.781699279295e-09 2.068660716963e-08 1.250000000000e-03 2.045307717181e-05 -1.862518785654e-13 2.694032924514e-14 -7.291059050428e-14
430 3 6.949985425388e-03 1.333322174008e-02 1.241933786941e-02 -7.538261297389e-12 -1.273709678103e-11 -4.304766043425e-12 -3.711842299325e-09 5.340502207570e-09 5.254186521045e-09 1.250000000000e-03 2.045307717181e-05 -2.808169827652e-13 1.075284751359e-13 -1.473555033124e-13
431 3 1.358721417044e-02 1.025746094494e-02 7.280743701370e-03 2.301064325526e-11 -7.626955583275e-11 9.323095483307e-11 -1.531494548751e-08 2.732882380347e-09 2.714004062942e-09 1.250000000000e-03 2.045307717181e-05 2.965584574299e-13 4.770836452730e-14 8.586458704200e-14
432 3 1.338934479655e-02 1.287892528098e-02 1.234589965019e-02 -9.484661911498e-12 -1.301538657637e-11 4.337301401147e-12 1.605158864517e-10 4.609869388702e-09 2.400903368496e-09 1.250000000000e-03 2.045307717181e-05 4.419209573152e-13 -1.274959249618e-14 5.671150217638e-15
433 3 4.836418093393e-03 8.441160032256e-03 4.493574788029e-03 -1.400182288607e-11 -1.255254703640e-11 2.170098831769e-12 1.724447284035e-09 2.680282023213e-09 -2.445903020367e-09 1.250000000000e-03 2.045307717181e-05 -2.274603651708e-13 -1.269795342065e-13 -4.182174121533e-15
434 3 1.362147465143e-02 9.379171179349e-03 1.081001828310e-02 -1.038620476528e-11 -3.418729500892e-11 2.513058218114e-11 -7.695432449403e-10 -1.622565395832e-09 -5.392952476728e-09 1.250000000000e-03 2.045307717181e-05 2.207993728203e-13 2.079343387771e-13 3.353223933631e-14
435 3 6.445289591855e-03 1.225163007911e-03 6.376915579417e-03 -1.575489468409e-11 -1.766769297499e-11 -6.504962059632e-12 2.178102320079e-09 -1.340402248458e-09 5.988313374991e-09 1.250000000000e-03 2.045307717181e-05 3.967931513994e-13 -1.199676711512e-13 -7.703280504458e-15
436 3 1.490245990979e-02 3.877293608144e-03 8.063782328771e-03 -2.168156856046e-11 -2.683022674539e-11 -4.337072926031e-12 4.677306436071e-09 -4.406556372255e-09 -1.878653064783e-09 1.250000000000e-03 2.045307717181e-05 3.282545078345e-14 -5.623925602889e-13 -2.105035030454e-14
437 3 1.138716551059e-02 1.363184096632e-02 5.870270715223e-03 -4.141565196002e-11 -7.261862112067e-11 1.963707704862e-11 1.074020525676e-08 -2.128196247734e-08 -7.679207419898e-08 1.250000000000e-03 2.045307717181e-05 7.055756186008e-13 7.015364350634e-13 -1.237400744898e-13
438 3 1.284475536220e-02 3.013684204223e-03 6.610245921738e-03 -2.166165954467e-11 -3.284890370164e-11 -1.079070510679e-11 5.225952532640e-09 1.032400816879e-08 -5.874847036970e-09 1.250000000000e-03 2.045307717181e-05 -2.210048697859e-13 2.314738919485e-13 9.690357927694e-14
439 3 6.989092343868e-03 7.286322656496e-03 4.893343487438e-03 -1.517968773593e-11 -1.172469339109e-11 1.036649012058e-12 3.438246699559e-09 -8.023943367842e-10 4.677943262141e-10 1.250000000000e-03 2.045307717181e-05 4.903722029669e-15 -3.281852919079e-13 1.420969287404e-13
440 3 6.349463519889e-03 9.626246238232e-03 1.430343758354e-02 -2.173899814763e-12 -5.740383082242e-12 3.893738718502e-12 -2.790468186599e-09 7.043845426661e-10 -1.403334003669e-09 1.250000000000e-03 2.045307717181e-05 9.394290906884e-15 -1.716384420379e-14 -2.078999240058e-14
441 3 4.432055399377e-03 9.773630143430e-03 1.003858484515e-02 -6.496242688661e-12 -2.028231783434e-11 4.341942262916e-12 -2.600774960101e-09 2.944471866647e-09 3.878341980611e-09 1.250000000000e-03 2.045307717181e-05 1.092905241762e-13 2.393631875324e-13 -1.120473217172e-14
442 3 4.365291942074e-04 1.150426989840e-02 8.125070127765e-03 -1.043098413623e-12 -3.904305095022e-11 3.975186212067e-11 -3.019792800176e-09 -4.294982721222e-09 3.089484484339e-09 1.250000000000e-03 2.045307717181e-05 -2.085024327261e-14 -4.008711084051e-14 -4.170142841265e-13
443 3 1.170845615174e-02 1.120833405426e-02 1.043343412084e-02 -4.337288434827e-12 -2.168005171805e-11 1.451417742804e-11 -1.135706582356e-09 -1.839593000731e-08 5.080754122766e-09 1.250000000000e-03 2.045307717181e-05 4.186834180221e-14 6.378902785558e-14 -4.346659708656e-13
444 3 1.096518178809e-02 4.224729653100e-03 2.195869193130e-03 -1.092871724178e-11 -8.047906738753e-12 1.852886918347e-12 -1.404086013381e-09 1.901655107068e-09 -1.022512010815e-09 1.250000000000e-03 2.045307717181e-05 -1.145675997335e-12 6.182424123750e-13 -4.646814652905e-13
445 3 6.217954954466e-03 1.432694768167e-02 8.980237346013e-03 -2.213436335287e-11 -1.773767906593e-11 -4.339343061350e-12 7.353465696091e-10 -2.965667177590e-10 8.245006954192e-10 1.250000000000e-03 2.045307717181e-05 3.833388337214e-14 7.705173049753e-14 5.134880193448e-14
446 3 8.094955909000e-04 6.496955647766e-03 2.233202112396e-03 -2.247794392874e-11 7.720661340846e-12 3.461489355947e-12 -4.758073654638e-09 -1.154892491201e-08 4.971589765568e-09 1.250000000000e-03 2.045307717181e-05 1.221031278781e-13 -3.054916144976e-13 1.679143804705e-13
447 3 3.291611604162e-03 3.023569272340e-04 1.796816505565e-03 -9.186653077957e-12 -1.249400753286e-11 -1.078518708823e-11 1.840151079961e-08 -3.434970697002e-09 9.053874021107e-09 1.250000000000e-03 2.045307717181e-05 5.653356806265e-13 -1.005477658881e-13 4.053786478584e-15
448 3 6.915153002124e-03 2.350163915728e-03 1.369086003188e-03 -1.021842407872e-11 -3.848289834580e-12 -4.367074151545e-12 2.781161858024e-09 2.189757770786e-09 -4.008437528992e-09 1.250000000000e-03 2.045307717181e-05 -2.268253059538e-13 -4.434941020119e-14 -5.065359239491e-13
449 3 8.895303771299e-03 1.243119857922e-03 2.989808649964e-03 -1.301073206935e-11 -8.229826428976e-12 -2.884637742575e-12 -1.709194065145e-09 -4.680189893035e-09 6.433761234011e-10 1.250000000000e-03 2.045307717181e-05 -4.909301606484e-14 -4.654089265865e-13 2.709436990390e-13
450 3 1.375365723370e-02 8.051435514913e-03 8.782337355753e-03 -1.279075684365e-11 -3.035557591819e-11 1.868720317784e-11 7.023415026680e-09 -2.600122427386e-09 -2.963376523982e-09 1.250000000000e-03 2.045307717181e-05 1.531068392445e-13 1.642512929263e-14 -2.183139971744e-13
451 3 1.410852774874e-02 8.756951753611e-03 1.312220043514e-02 -7.916322824234e-12 -2.143054593720e-11 1.518149125273e-11 -3.856735031409e-09 2.924670295166e-09 4.563989249830e-10 1.250000000000e-03 2.045307717181e-05 5.336006006086e-14 -5.308440365637e-13 2.109043071499e-13
452 3 1.131941466834e-02 1.518316631202e-03 7.760256245286e-03 -1.762172790331e-11 -2.865223421583e-11 -9.396079993530e-13 -3.651694145089e-09 -3.784875779043e-09 3.323871965980e-09 1.250000000000e-03 2.045307717181e-05 1.147689573860e-13 6.792482102343e-14 4.094643358637e-13
453 3 3.450803973103e-03 1.179558238057e-02 2.913909873638e-03 -2.120874834507e-11 -5.353444395293e-12 5.421038262186e-12 -1.108992295871e-08 5.861294982859e-09 -1.656838903267e-08 1.250000000000e-03 2.045307717181e-05 -2.090303826363e-13 -2.597577590522e-13 -2.208615993756e-14
454 3 3.466636236244e-03 5.818931328908e-03 1.012120448764e-02 -9.757495269702e-12 -2.199291854775e-11 5.781155770505e-13 -6.425390987263e-10 6.556249025446e-10 2.578601176835e-09 1.250000000000e-03 2.045307717181e-05 -2.135957440428e-15 1.571289235204e-14 3.824143107791e-14
455 3 1.509702908860e-02 1.802984136443e-03 2.926720675145e-03 -1.509403657228e-11 -1.689155972898e-11 -3.703254065876e-12 1.008609707367e-08 2.717583675697e-10 -1.952302114747e-08 1.250000000000e-03 2.045307717181e-05 1.091716410190e-12 -8.863197958352e-14 3.141907146154e-13
456 3 4.979603628278e-03 4.432260330553e-03 1.163003522344e-02 -6.505340906033e-12 -1.609035219730e-11 -3.057018495659e-13 -1.817744304207e-09 -7.580991604842e-10 1.241298834873e-09 1.250000000000e-03 2.045307717181e-05 5.592598216817e-14 8.732296974634e-14 1.272217898835e-13
457 3 5.051147069368e-03 1.373647197166e-02 5.236364244976e-03 -2.796631977314e-11 -1.605907937553e-11 -4.206663770662e-12 2.520377110291e-11 -5.578815821945e-09 4.573046426193e-09 1.250000000000e-03 2.045307717181e-05 -2.577731060350e-13 4.312358109239e-14 -1.863281396418e-13
458 3 8.705385401914e-03 9.460049742279e-05 1.260023619835e-02 -1.264476891234e-11 -8.411194609273e-12 8.182460477685e-12 3.720359593315e-10 -3.369360901704e-10 -1.233387363325e-09 1.250000000000e-03 2.045307717181e-05 -1.025323894869e-14 -2.731728390371e-14 -7.417847602725e-13
459 3 4.513726215921e-03 1.211090222587e-02 6.979398930902e-03 -1.951178410330e-11 -1.878741849949e-11 1.447641256377e-12 -1.040914678543e-09 -1.116795597870e-09 2.331380488580e-09 1.250000000000e-03 2.045307717181e-05 -9.053824269805e-14 1.317037803847e-13 -3.709869178537e-13
460 3 7.345247779698e-03 1.014265481798e-02 7.637268561567e-03 -8.220994641785e-12 -1.478208694396e-11 2.173622752176e-12 7.886529295114e-10 1.816513065445e-09 2.816743015571e-09 1.250000000000e-03 2.045307717181e-05 5.789187211478e-14 1.505660122285e-14 5.983415723470e-14
461 3 1.169951514070e-02 3.695033067939e-03 8.631812621288e-03 -1.301049036564e-11 -2.603860696831e-11 -4.238322845545e-12 -1.524765091639e-09 -1.819934026182e-09 -6.471899522856e-09 1.250000000000e-03 2.045307717181e-05 -1.339912570139e-14 3.717170025756e-13 -5.465875890301e-15
462 3 4.647916485598e-03 2.898126551834e-03 9.958020077768e-03 -1.083765357734e-11 -1.843305804181e-11 -4.336799126454e-12 2.426524749216e-09 2.534556707824e-09 -2.391943610728e-09 1.250000000000e-03 2.045307717181e-05 2.659232092394e-15 -2.176849802783e-14 -1.657914093101e-14
463 3 2.133737223410e-03 1.113148475273e-02 6.406421345497e-03 -7.094890161092e-12 -2.800935990274e-11 2.822147139840e-11 1.914393620179e-09 6.077196599799e-09 1.900437517042e-09 1.250000000000e-03 2.045307717181e-05 9.424949670149e-14 4.816154805163e-14 1.005641407061e-13
464 3 2.656405326258e-03 1.082053163352e-02 1.321617016130e-02 -2.241956130572e-12 -1.301099259364e-11 2.826769811761e-12 4.981715816221e-09 3.058314450453e-09 -4.034002079110e-10 1.250000000000e-03 2.045307717181e-05 -1.805967330687e-13 -2.207533454529e-14 -5.222021297859e-14
465 3 9.280218523225e-03 6.437063461590e-03 6.348631071555e-03 -1.600043459764e-11 -1.886709389113e-11 2.781649530705e-12 5.056091389780e-09 -2.212002669717e-09 -1.542900877170e-10 1.250000000000e-03 2.045307717181e-05 -1.620152045872e-13 -3.054968858742e-14 2.027717788809e-13
466 3 1.050954366062e-03 1.511708790646e-02 2.391087967993e-03 -1.001210086354e-11 -2.168416100585e-11 -9.174214934295e-12 4.483854269757e-10 4.177362743457e-09 -9.587362819094e-09 1.250000000000e-03 2.045307717181e-05 -1.030681264168e-13 -3.378329737476e-14 2.459400762604e-13
467 3 9.117984674060e-03 4.360039240184e-03 9.600404437916e-03 -1.300917387589e-11 -1.951354806804e-11 -3.583814474785e-12 -1.501541575242e-09 1.655261526398e-09 -8.189059689247e-10 1.250000000000e-03 2.045307717181e-05 5.283049340108e-14 -4.951333643303e-14 -2.414790953456e-13
468 3 8.418004429166e-03 2.699159045030e-03 5.957658328272e-03 -1.300966426189e-11 -2.334541288603e-11 -6.563054922157e-12 7.990846391471e-09 3.042050358312e-09 -4.344481479512e-09 1.250000000000e-03 2.045307717181e-05 -1.387748691120e-14 -2.986096340106e-13 9.568964974488e-14
469 3 8.758028613014e-03 8.854068066715e-03 1.234050653426e-02 -6.750373903730e-12 -1.301038061485e-11 4.336609173999e-12 1.027738071127e-09 -2.256692851916e-09 5.776183598156e-10 1.250000000000e-03 2.045307717181e-05 -1.752570892795e-13 -1.016805758002e-14 7.600940019287e-15
470 3 8.113906309013e-03 1.121963207482e-02 1.218291237656e-02 -4.336461083164e-12 -1.298067847701e-11 5.002444881315e-12 -4.479198231605e-09 -2.155743631059e-10 -2.938667960028e-09 1.250000000000e-03 2.045307717181e-05 -1.844572586881e-14 1.270667272966e-13 -2.681169201730e-13
471 3 1.278955497555e-02 3.661254324212e-03 1.077857360920e-02 -1.301051051953e-11 -2.301131684021e-11 -1.479685348421e-12 -2.962281657099e-09 2.334632053424e-11 -3.460358140759e-10 1.250000000000e-03 2.045307717181e-05 4.654954889321e-14 1.874697258825e-13 -4.700961240911e-14
472 3 1.266077191632e-02 1.062384762698e-02 1.266863098294e-02 -8.176083827407e-12 -2.071505911770e-11 1.120261735126e-11 -3.803980565563e-09 -1.052278562279e-09 -2.311737738505e-09 1.250000000000e-03 2.045307717181e-05 2.943376465163e-13 -3.083523912431e-13 1.472408593735e-13
473 3 1.124203023325e-02 9.635958861759e-03 3.522588710341e-03 -4.141725302234e-12 5.511632050992e-11 6.329028608673e-11 8.075874601780e-08 1.596439679511e-08 9.512515972198e-08 1.250000000000e-03 2.045307717181e-05 2.626444782446e-13 -6.592250324365e-13 -5.019354052792e-13
474 3 1.061308944719e-02 9.679009662396e-03 7.256596670311e-03 1.634234498691e-11 -3.371006937976e-11 4.512573942925e-11 3.438834373792e-08 -1.108701797230e-08 -4.469930486044e-08 1.250000000000e-03 2.045307717181e-05 8.287695172361e-14 1.411596199092e-13 -4.189423929069e-13
475 3 7.153223732109e-03 5.331055472192e-03 6.228254827043e-03 -1.517854105337e-11 -1.687106089636e-11 -2.152250767218e-12 9.507562921288e-10 -2.800584367897e-10 9.091784442867e-10 1.250000000000e-03 2.045307717181e-05 4.066674286759e-14 -3.986531627724e-14 3.583055435985e-14
476 3 2.664459845613e-03 1.146702309551e-02 8.965110906592e-03 -4.896873367255e-12 -2.168393041702e-11 1.934543735926e-11 -2.979964014262e-09 1.226185319338e-08 9.234295824321e-09 1.250000000000e-03 2.045307717181e-05 -5.979127154826e-14 -4.488625943234e-14 -1.434494328027e-13
477 3 3.594031155908e-03 1.446973049350e-03 1.266231477699e-02 -1.076789807178e-11 -1.355316567025e-11 -2.220635175499e-12 3.302927595386e-10 3.463118021304e-09 -2.353196008689e-09 1.250000000000e-03 2.045307717181e-05 1.276739940471e-13 3.233510914045e-14 -4.742467537575e-14
478 3 1.164186101485e-02 1.357714938555e-02 1.080810190930e-02 -1.861251710688e-11 -1.781968499986e-11 1.100359394038e-11 -2.728908825777e-09 3.062879996821e-09 -1.528752860217e-10 1.250000000000e-03 2.045307717181e-05 4.859785008744e-13 -3.620075213620e-13 -3.837870520353e-13
479 3 6.514074679244e-03 4.272065894722e-05 1.356645879089e-02 -1.084230767358e-11 -8.037220776716e-12 1.222309709879e-12 3.949480287392e-09 -3.264500795194e-09 -5.776279623796e-10 1.250000000000e-03 2.045307717181e-05 2.908902707700e-14 6.723299495915e-14 -3.265606485501e-13
480 3 4.758822496270e-03 2.191620015573e-03 7.732053910594e-03 -2.290414678658e-11 -2.045794640959e-11 -6.037728299409e-12 -4.030401956329e-09 5.927263353696e-09 -2.852087738876e-10 1.250000000000e-03 2.045307717181e-05 2.357569274739e-13 -5.366333589950e-14 3.265988003765e-13
481 3 1.291114512961e-02 2.821151361865e-03 2.555377164598e-03 -7.558854874694e-12 7.858939230537e-12 -3.413120044319e-12 1.446465646773e-09 4.350360389275e-09 9.394208779016e-09 1.250000000000e-03 2.045307717181e-05 -1.408272366073e-13 1.872161191286e-14 2.830526645734e-13
482 3 1.775829818543e-03 2.041821071828e-03 1.209392644935e-03 -1.188889359619e-11 -5.437282656223e-12 -1.528755488403e-12 4.019404622131e-09 -5.352308775288e-09 -6.085497037541e-09 1.250000000000e-03 2.045307717181e-05 7.114249581216e-13 -2.762509926484e-13 -1.495668187214e-13
483 3 1.375326384715e-02 1.406771075709e-02 5.561564902474e-03 -1.333249629091e-10 -1.926783974721e-10 7.039669145213e-12 -1.392284041829e-07 4.591986417072e-08 4.791755535611e-08 1.250000000000e-03 2.045307717181e-05 5.707200281872e-13 4.133393172203e-13 -1.856592980951e-14
484 3 1.199223054469e-02 5.960049385595e-03 3.308810642293e-03 -2.302916155958e-11 2.033499062404e-12 -2.725309151026e-12 -1.132231993531e-09 4.001791551872e-09 2.063168300833e-08 1.250000000000e-03 2.045307717181e-05 -3.162268144313e-13 6.300695075329e-13 1.889124628801e-13
485 3 1.487328166375e-02 3.937381906658e-03 5.456890939829e-03 -3.043969695504e-11 -3.256590315059e-11 -1.534233750692e-11 1.983176963823e-08 -5.990606472952e-09 -1.996159292360e-09 1.250000000000e-03 2.045307717181e-05 6.637540113590e-13 4.502221443629e-13 -6.843264361174e-13
486 3 6.930979374889e-03 1.533818201510e-02 1.118193735573e-03 -1.016488751781e-11 -4.335259057117e-12 2.187185170601e-12 2.643583889988e-09 -5.700413556357e-09 -6.160137712019e-09 1.250000000000e-03 2.045307717181e-05 2.356731024920e-13 -1.151193309332e-13 -2.192698125405e-13
487 3 1.051444228657e-02 2.979796630602e-03 1.089475722789e-02 -1.300963408668e-11 -1.860484461877e-11 -2.115535820159e-12 -2.611378334735e-09 4.533187344895e-10 -1.518341938714e-09 1.250000000000e-03 2.045307717181e-05 -1.047689424347e-13 1.945372716989e-13 4.806898814550e-14
488 3 1.520575658961e-02 1.452406231798e-02 1.274691531298e-02 -4.338284429542e-12 -9.725685321693e-12 4.337217719165e-12 6.257777737380e-10 -9.353904782323e-10 1.038960556662e-09 1.250000000000e-03 2.045307717181e-05 -3.335583648872e-14 -7.507461964925e-14 -1.845917850836e-15
489 3 1.065710293532e-02 2.941092925622e-04 1.413978090015e-02 -4.336823564142e-12 -6.040047427569e-12 4.333492908263e-12 -4.011028154734e-09 2.313901334693e-09 -2.108074679610e-09 1.250000000000e-03 2.045307717181e-05 2.059925710379e-14 1.194785640193e-13 -9.942846105842e-15
490 3 3.419243551766e-03 6.162933174803e-03 1.245754414757e-02 -9.621051756370e-12 -1.523125293524e-11 -3.983178343509e-12 -3.876317722502e-09 8.439211045233e-10 3.917431498464e-09 1.250000000000e-03 2.045307717181e-05 5.505212524707e-14 3.100251509459e-13 -1.755867845170e-13
491 3 3.712727234978e-03 1.087937661657e-03 5.919584257908e-03 -3.300328265935e-11 -2.313134727823e-11 -2.353753166219e-12 3.408892017900e-09 -1.976288211884e-09 8.224342060924e-10 1.250000000000e-03 2.045307717181e-05 3.027631052882e-13 5.330182173762e-14 5.234010279212e-13
492 3 1.095835341617e-02 1.463056961455e-02 1.683799266806e-03 -1.556444956592e-11 -1.576791104928e-11 1.008299072380e-11 -1.303021345895e-08 -2.602841047339e-09 2.017216099929e-09 1.250000000000e-03 2.045307717181e-05 1.061138169697e-12 4.107581582263e-13 -1.698924013940e-14
493 3 1.285070891960e-02 1.506407759031e-02 1.314251484243e-02 -7.028926956500e-12 -1.301124281235e-11 4.190164569547e-12 -2.156370560726e-09 2.420350060232e-09 3.635926576094e-10 1.250000000000e-03 2.045307717181e-05 -9.351079541392e-14 2.605975648087e-14 -1.782615447889e-13
494 3 9.702919755209e-03 4.213797876258e-03 7.276174012810e-03 -1.301165464654e-11 -2.385043395563e-11 -2.264346013005e-12 -8.869969612299e-10 -6.840506500171e-10 4.114040747940e-09 1.250000000000e-03 2.045307717181e-05 -9.197104079586e-15 -1.201638906905e-14 7.846722620084e-14
495 3 1.332099610820e-02 6.396776013899e-03 1.056788407086e-02 -1.222840223687e-11 -3.183964866557e-11 4.375425663204e-12 3.560704708205e-09 1.350506505118e-09 4.510029574565e-10 1.250000000000e-03 2.045307717181e-05 -8.137855126621e-14 1.751240475651e-13 1.406470839103e-13
496 3 7.314342276733e-04 7.412235370468e-03 8.896090639026e-03 -1.018308662204e-11 -3.449648842520e-11 1.956751674531e-11 -1.062515343250e-09 1.435601111127e-09 1.027695672573e-09 1.250000000000e-03 2.045307717181e-05 5.746648671033e-14 -1.690947584260e-13 -1.032848333518e-13
497 3 7.224398975351e-03 6.208275675143e-03 1.160650117341e-03 -6.564757421060e-12 -5.260169239794e-12 1.621800181900e-12 3.881767188356e-09 -4.383644357396e-09 -1.853032058443e-09 1.250000000000e-03 2.045307717181e-05 -4.767876697961e-14 -1.910203358309e-13 9.020782684180e-15
498 3 6.929198123470e-03 3.842710141594e-03 1.288632169161e-02 -6.503108208898e-12 -1.192640571400e-11 -1.828570694380e-12 -1.598034954208e-09 2.877520704405e-09 -1.358035446890e-09 1.250000000000e-03 2.045307717181e-05 -1.208189830709e-14 -8.187594039984e-15 1.947645718977e-14
499 3 5.821253845292e-03 2.192209324861e-03 1.422559113407e-02 -5.641775553272e-12 -6.115063054710e-12 4.337270331094e-12 -2.889473830906e-09 4.513554893133e-09 -3.989151765229e-09 1.250000000000e-03 2.045307717181e-05 4.051904313140e-14 -1.104008049540e-13 -3.339693899404e-14
500 3 1.506257962226e-02 1.214262075922e-02 5.952121946385e-03 -5.454386894086e-11 -6.665412760797e-11 7.603267454022e-11 -9.302406851135e-09 6.561177630457e-08 1.805313843327e-08 1.250000000000e-03 2.045307717181e-05 4.400577135329e-13 2.937644063321e-13 -8.510078367978e-14
