ITEM: TIMESTEP
200000
ITEM: NUMBER OF ATOMS
500
ITEM: BOX BOUNDS pp pp ff
0.0000000000000000e+00 1.5370634520482899e-02
0.0000000000000000e+00 1.5370634520482899e-02
0.0000000000000000e+00 1.5370634520482899e-02
ITEM: ATOMS id type x y z radius mass fx fy fz
1 1 0.000493011 0.00730151 0.0125597 0.00075 4.41786e-06 3.02747e-14 7.58513e-14 -2.82495e-14
2 1 0.0135478 0.00342678 0.000740799 0.00075 4.41786e-06 1.00203e-13 -5.78635e-14 8.00336e-16
3 1 0.00376869 0.00909656 0.00300411 0.00075 4.41786e-06 -1.97163e-13 2.44755e-13 -4.13919e-15
4 1 0.0038664 0.00827232 0.00700555 0.00075 4.41786e-06 3.70606e-14 8.62926e-14 3.36401e-14
5 1 0.00230018 0.00269463 0.011849 0.00075 4.41786e-06 7.00998e-14 1.39357e-13 -1.88415e-13
6 1 0.00250852 0.0046369 0.0147152 0.00075 4.41786e-06 5.0842e-14 1.839e-14 1.67266e-15
7 1 0.00352043 0.0126699 0.0132191 0.00075 4.41786e-06 -5.64166e-14 3.04758e-14 -4.65586e-15
8 1 0.0077017 0.00398387 0.000696332 0.00075 4.41786e-06 -3.29424e-14 -1.62603e-14 2.53197e-14
9 1 0.00157739 0.00651634 0.012952 0.00075 4.41786e-06 1.97285e-14 3.01562e-15 6.3149e-15
10 1 0.0138936 0.0146457 0.0146944 0.00075 4.41786e-06 1.39257e-14 1.84938e-14 -1.42493e-14
11 1 0.0140013 0.00789444 0.0062738 0.00075 4.41786e-06 1.61283e-14 5.19886e-14 -1.04868e-14
12 1 0.0110874 0.00744728 0.0130319 0.00075 4.41786e-06 4.04932e-14 5.4312e-14 3.26672e-14
13 1 0.00942109 0.00128455 0.0111734 0.00075 4.41786e-06 -4.10182e-14 6.17936e-14 3.10535e-15
14 1 0.0126999 0.0125566 0.0047824 0.00075 4.41786e-06 5.50184e-11 2.58475e-11 -7.60282e-11
15 1 0.00266581 0.00417859 0.00262968 0.00075 4.41786e-06 -9.98151e-14 7.66134e-14 -1.10174e-13
16 1 0.00115188 0.00258527 0.00886343 0.00075 4.41786e-06 -7.1547e-13 -3.46865e-13 1.3628e-12
17 1 0.0112002 0.0099038 0.0116316 0.00075 4.41786e-06 -3.40085e-14 -7.89247e-14 7.75824e-15
18 1 0.000900048 0.00866203 0.010335 0.00075 4.41786e-06 -1.53787e-14 -3.00278e-14 -1.42407e-14
19 1 0.00698412 0.00499405 0.0146475 0.00075 4.41786e-06 -9.09631e-15 -6.35581e-15 -7.0568e-15
20 1 0.00956501 0.0111155 0.0108431 0.00075 4.41786e-06 -1.53956e-14 -2.96877e-15 -8.96563e-15
21 1 0.0122983 0.00579287 0.000703522 0.00075 4.41786e-06 6.88409e-15 -2.04649e-13 -2.94649e-14
22 1 0.00875367 0.0150136 0.0145929 0.00075 4.41786e-06 -1.11524e-14 2.27819e-14 -1.18058e-14
23 1 0.00429881 0.010674 0.000729879 0.00075 4.41786e-06 1.17546e-14 -6.27713e-16 -6.47889e-14
24 1 0.00701894 0.00261386 0.00770187 0.00075 4.41786e-06 -5.72593e-14 5.0696e-15 -8.59058e-14
25 1 0.00452038 0.00857292 0.0082228 0.00075 4.41786e-06 5.12551e-14 9.18366e-14 -8.1209e-15
26 1 0.0125801 0.013952 0.0146848 0.00075 4.41786e-06 -6.67736e-15 3.57266e-15 -5.6055e-14
27 1 0.00860374 0.00631692 0.0043737 0.00075 4.41786e-06 -4.86845e-14 -2.04326e-14 -5.48665e-14
28 1 0.000721987 0.00255625 0.00632914 0.00075 4.41786e-06 8.50146e-14 -6.3842e-14 -5.96253e-14
29 1 0.0135987 0.011317 0.0111106 0.00075 4.41786e-06 -1.02392e-13 7.09462e-14 3.30533e-15
30 1 0.000531493 0.0020985 0.010141 0.00075 4.41786e-06 3.03367e-14 -3.14968e-14 3.95488e-13
31 1 0.00594714 0.0108745 0.0114376 0.00075 4.41786e-06 -5.08244e-13 2.01551e-13 1.01027e-12
32 1 0.00393298 0.0101207 0.00203533 0.00075 4.41786e-06 2.84421e-14 -4.84723e-14 -6.00633e-15
33 1 0.00669475 0.0151517 0.00744451 0.00075 4.41786e-06 -2.39822e-14 2.15624e-13 -3.80446e-14
34 1 0.0136472 0.00622977 0.0146206 0.00075 4.41786e-06 1.88567e-14 2.52739e-13 5.06882e-13
35 1 0.00484974 0.00775334 0.0147411 0.00075 4.41786e-06 -5.71457e-15 -5.12184e-15 -2.00385e-14
36 1 0.00715504 0.0137532 0.0105645 0.00075 4.41786e-06 1.94173e-14 7.48763e-14 4.37415e-14
37 1 0.0104369 0.00105105 0.00184008 0.00075 4.41786e-06 1.81323e-14 4.22239e-14 -2.89407e-14
38 1 0.00804842 0.00546986 0.012735 0.00075 4.41786e-06 1.63436e-15 -5.20791e-14 8.99433e-14
39 1 0.0135219 0.0110357 0.00552027 0.00075 4.41786e-06 2.07532e-13 -2.96193e-14 1.18712e-13
40 1 0.0100914 0.00687521 0.0146458 0.00075 4.41786e-06 1.07592e-14 -6.85776e-14 -4.96065e-14
41 1 0.0152702 0.00816926 0.00573405 0.00075 4.41786e-06 2.28475e-13 1.73175e-13 -1.51928e-13
42 1 0.00169788 0.00536853 0.00575944 0.00075 4.41786e-06 -2.71369e-15 -3.24867e-15 8.35432e-15
43 1 0.0112858 0.00811019 0.0109342 0.00075 4.41786e-06 -5.17933e-14 4.3174e-14 -4.57307e-14
44 1 0.000333692 0.00901691 0.00469854 0.00075 4.41786e-06 -4.46839e-15 2.64415e-14 -1.013e-13
45 1 0.0128825 0.00500401 0.00932155 0.00075 4.41786e-06 -6.05087e-16 3.83824e-14 2.32559e-14
46 1 0.0012836 0.0107145 0.0146701 0.00075 4.41786e-06 -2.91244e-14 8.52491e-14 4.71858e-15
47 1 0.0142516 0.0113193 0.0134961 0.00075 4.41786e-06 -5.25889e-14 -5.87304e-15 1.22128e-14
48 1 0.00338456 0.00449497 0.000661803 0.00075 4.41786e-06 -3.56618e-14 -2.51007e-14 -8.99973e-15
49 1 0.00821117 0.01167 0.00428938 0.00075 4.41786e-06 5.50326e-13 -1.09243e-14 -1.15602e-13
50 1 0.0030141 0.014989 0.0147205 0.00075 4.41786e-06 -2.22309e-14 4.47623e-14 -5.16913e-14
51 1 0.0112734 0.000523822 0.000527969 0.00075 4.41786e-06 2.21553e-14 3.3151e-15 5.67626e-16
52 1 0.0153071 0.00223141 0.0146704 0.00075 4.41786e-06 1.57044e-14 6.63243e-14 -1.72239e-14
53 1 0.00525526 0.00481874 0.00973848 0.00075 4.41786e-06 1.68117e-14 5.90312e-15 -3.28094e-14
54 1 0.012368 0.00432018 0.000800857 0.00075 4.41786e-06 -6.61448e-14 2.9778e-14 -1.99401e-14
55 1 0.0060712 0.011504 0.0147445 0.00075 4.41786e-06 2.22947e-14 4.69175e-14 3.32899e-14
56 1 0.0116191 0.00681143 0.0114663 0.00075 4.41786e-06 2.53372e-14 7.89338e-14 1.58437e-14
57 1 0.0016964 0.00617965 0.00395767 0.00075 4.41786e-06 1.05815e-14 3.52695e-16 3.65542e-14
58 1 0.00346805 0.0141827 0.0113675 0.00075 4.41786e-06 3.08138e-14 8.99779e-17 -1.63833e-14
59 1 0.00352184 0.00538269 0.0141516 0.00075 4.41786e-06 -4.52464e-14 1.7559e-14 5.20162e-14
60 1 0.00714996 0.0120684 0.000645321 0.00075 4.41786e-06 7.67752e-14 4.74145e-14 2.37559e-14
61 1 0.0107051 0.00183494 0.000676453 0.00075 4.41786e-06 -4.32242e-14 1.7021e-14 4.19149e-16
62 1 0.00589846 0.00895415 0.00741713 0.00075 4.41786e-06 8.25198e-14 -1.20182e-13 3.27053e-14
63 1 0.00825892 0.0128874 0.0146034 0.00075 4.41786e-06 -3.20248e-14 -4.92571e-15 -1.9839e-14
64 1 0.00385337 0.00639291 0.00437389 0.00075 4.41786e-06 -1.58819e-14 8.11076e-14 1.73127e-16
65 1 0.000730921 0.010478 0.0133475 0.00075 4.41786e-06 -8.37263e-14 1.24159e-13 -2.8418e-14
66 1 0.00774637 0.00339433 0.0111926 0.00075 4.41786e-06 -1.2465e-14 6.79362e-15 -2.06105e-14
67 1 0.00945216 0.013076 0.000749256 0.00075 4.41786e-06 5.96883e-14 -3.47477e-14 -1.29798e-14
68 1 0.00203052 0.00233768 0.0132393 0.00075 4.41786e-06 -1.07829e-13 -7.2346e-14 -4.61403e-14
69 1 0.000418812 0.00670399 0.00525533 0.00075 4.41786e-06 -9.41735e-13 1.36523e-13 -8.61168e-13
70 1 0.0130047 0.00963998 0.000696527 0.00075 4.41786e-06 5.72352e-14 1.49724e-14 1.99331e-14
71 1 0.0136999 0.00650829 0.00259982 0.00075 4.41786e-06 -5.96507e-14 -1.35826e-13 2.54035e-14
72 1 0.00640045 0.0062688 0.00926918 0.00075 4.41786e-06 -6.20279e-14 2.59771e-16 5.07432e-14
73 1 0.00779927 0.00602207 0.00322564 0.00075 4.41786e-06 1.38129e-14 -1.56375e-14 -6.98533e-14
74 1 0.00434473 0.00658616 0.0141112 0.00075 4.41786e-06 1.11146e-13 7.53079e-14 -2.55409e-14
75 1 0.0117638 0.0116081 0.00779019 0.00075 4.41786e-06 1.08694e-322 1.08694e-322 1.08694e-322
76 1 0.00988525 0.00264787 0.00903162 0.00075 4.41786e-06 -4.88648e-14 8.57749e-14 -3.08342e-15
77 1 0.0149673 0.0100163 0.00393141 0.00075 4.41786e-06 -8.43952e-14 3.92636e-15 -8.12104e-16
78 1 0.00872153 0.0116626 0.00075 0.00075 4.41786e-06 3.04057e-13 -3.91005e-14 -6.13122e-13
79 1 0.000279323 0.00377106 0.00982998 0.00075 4.41786e-06 -2.69447e-14 -1.04229e-13 4.54798e-14
80 1 0.0138058 0.0085099 0.000757212 0.00075 4.41786e-06 -9.82652e-14 5.23329e-15 -1.69926e-14
81 1 0.00362028 0.00584406 0.00643751 0.00075 4.41786e-06 -8.55307e-15 1.6081e-13 -8.73951e-15
82 1 0.0153189 0.0138761 0.0146439 0.00075 4.41786e-06 -2.39935e-14 -4.04633e-15 2.49276e-14
83 1 0.0133296 0.00300237 0.00468012 0.00075 4.41786e-06 1.97235e-15 2.10061e-14 -4.85855e-14
84 1 0.0128291 0.0126087 0.00962027 0.00075 4.41786e-06 -3.34156e-13 9.1035e-14 -9.35735e-14
85 1 0.0111652 0.0125905 0.00915726 0.00075 4.41786e-06 3.71388e-14 -6.30063e-15 -1.71379e-14
86 1 0.000219644 0.00698282 0.00708926 0.00075 4.41786e-06 -9.07312e-14 -3.28764e-14 -9.29611e-14
87 1 0.00115998 0.0111961 0.0122206 0.00075 4.41786e-06 -1.7496e-14 2.68399e-15 3.82977e-14
88 1 0.0138595 0.000445606 0.00614881 0.00075 4.41786e-06 5.99279e-14 1.40642e-13 -1.12478e-13
89 1 0.00865836 0.00682836 0.0146994 0.00075 4.41786e-06 2.51259e-14 -7.41817e-14 -1.12293e-13
90 1 0.00182087 0.00147073 0.00613927 0.00075 4.41786e-06 1.4164e-13 -2.44037e-13 7.58351e-14
91 1 0.00682169 0.0150128 0.00453348 0.00075 4.41786e-06 2.19028e-14 -2.88829e-13 -1.15229e-13
92 1 0.0100439 0.00179684 0.00635142 0.00075 4.41786e-06 -3.56014e-14 3.49126e-14 -3.12778e-14
93 1 0.0130472 0.00114517 0.00705028 0.00075 4.41786e-06 -5.88116e-15 1.6352e-13 5.8012e-14
94 1 0.0116062 0.00416555 0.00584918 0.00075 4.41786e-06 -3.61208e-14 -4.06844e-14 5.53963e-15
95 1 0.00368363 0.00187894 0.000682861 0.00075 4.41786e-06 -1.42803e-14 1.04553e-14 -3.37896e-14
96 1 0.00762959 0.00615388 0.0139975 0.00075 4.41786e-06 5.99902e-16 5.77129e-14 -8.76197e-14
97 1 0.0102308 0.00756525 0.0118334 0.00075 4.41786e-06 -7.55634e-15 2.25942e-14 7.54494e-14
98 1 0.0122882 0.00209429 0.00420944 0.00075 4.41786e-06 2.67423e-14 -6.45077e-14 3.11521e-14
99 1 0.00481886 0.00660089 0.00275253 0.00075 4.41786e-06 -1.00271e-13 -4.94629e-15 4.42203e-14
100 1 0.0130448 0.00451368 0.00541289 0.00075 4.41786e-06 2.289e-14 -3.08231e-14 -1.07697e-13
101 2 0.00350828 0.0127195 0.0104588 0.001 1.0472e-05 1.96079e-13 3.27298e-13 -2.62205e-14
102 2 0.0109905 0.0137068 0.0128953 0.001 1.0472e-05 2.47397e-14 7.9909e-16 2.70704e-14
103 2 0.00908099 0.000591219 0.00090875 0.001 1.0472e-05 6.39006e-15 -1.04332e-13 -2.90506e-14
104 2 0.0111686 0.0118173 0.00361142 0.001 1.0472e-05 -1.84337e-14 -4.06317e-13 -1.45553e-13
105 2 0.00123954 0.0149498 0.0143755 0.001 1.0472e-05 -1.10857e-13 -1.41498e-14 4.23779e-14
106 2 0.00440482 0.0125974 0.0145961 0.001 1.0472e-05 -3.64092e-14 6.46782e-15 -8.56737e-14
107 2 0.00550766 0.00530918 0.00409605 0.001 1.0472e-05 1.54278e-14 9.33542e-15 6.35909e-14
108 2 0.0136129 0.00329776 0.0144723 0.001 1.0472e-05 2.40351e-14 -2.0005e-14 -3.44274e-14
109 2 0.00174234 0.0012819 0.0110781 0.001 1.0472e-05 7.30932e-14 -2.80567e-14 -3.32348e-13
110 2 0.0146835 0.0119231 0.0099499 0.001 1.0472e-05 -4.009e-14 9.09712e-14 -6.52208e-14
111 2 0.00666198 0.00939862 0.0122092 0.001 1.0472e-05 9.63304e-14 1.46943e-13 -3.39347e-15
112 2 0.00462615 0.00437676 0.00686314 0.001 1.0472e-05 1.95357e-13 -4.47977e-14 6.33251e-14
113 2 0.00754832 0.00921449 0.00399679 0.001 1.0472e-05 -4.47659e-13 3.91429e-14 -1.56709e-13
114 2 0.0100221 0.0018406 0.0126659 0.001 1.0472e-05 1.75782e-14 7.67093e-14 -1.57616e-14
115 2 1.41151e-05 0.0123435 0.0127924 0.001 1.0472e-05 -5.65114e-14 6.80845e-14 -2.3623e-14
116 2 0.0129554 0.0122705 0.00655939 0.001 1.0472e-05 2.86509e-13 1.66278e-14 2.26265e-13
117 2 0.00797148 0.0111237 0.0025548 0.001 1.0472e-05 -1.12211e-14 -2.42417e-13 -1.24763e-13
118 2 0.00311471 0.00975202 0.00774437 0.001 1.0472e-05 2.57752e-13 1.16016e-12 1.06157e-14
119 2 0.00117642 0.00793708 0.0140674 0.001 1.0472e-05 -1.52016e-13 7.29659e-14 -7.02957e-14
120 2 0.014792 0.0013073 0.0111542 0.001 1.0472e-05 1.43829e-13 -5.90424e-14 -8.73551e-14
121 2 0.01112 0.00748176 0.00576106 0.001 1.0472e-05 -2.48931e-13 3.19623e-14 -1.70374e-13
122 2 0.00738445 0.00732661 0.00705661 0.001 1.0472e-05 7.90993e-15 2.82792e-14 5.36266e-14
123 2 0.00156199 0.0132862 0.00615405 0.001 1.0472e-05 -5.1604e-14 6.01462e-13 7.87667e-13
124 2 0.0136592 0.00888639 0.00371737 0.001 1.0472e-05 -6.91259e-14 -4.7097e-13 5.10207e-13
125 2 0.00691938 0.0011383 0.00851543 0.001 1.0472e-05 -6.01767e-14 3.99111e-14 -2.4034e-13
126 2 0.00807732 0.00121977 0.0144705 0.001 1.0472e-05 9.86702e-15 8.78274e-14 -2.21973e-14
127 2 0.00124551 0.0094352 0.00812577 0.001 1.0472e-05 9.09198e-13 2.05114e-13 -2.30854e-13
128 2 0.0138093 0.0111395 0.000842585 0.001 1.0472e-05 -1.87309e-13 -9.0868e-14 2.28991e-14
129 2 0.00525033 0.0085159 0.00245228 0.001 1.0472e-05 -6.19251e-14 2.45553e-14 3.04895e-13
130 2 0.00931069 0.00658155 0.0131528 0.001 1.0472e-05 -1.8371e-14 -2.40458e-13 6.27976e-15
131 2 0.00973035 0.0109857 0.00467346 0.001 1.0472e-05 3.88531e-13 2.91239e-13 -7.59385e-13
132 2 0.00920325 0.0126127 0.00241739 0.001 1.0472e-05 1.68395e-13 -4.15559e-14 1.51278e-14
133 2 0.00750258 0.00771037 0.00893498 0.001 1.0472e-05 -7.67909e-14 -4.45832e-14 -5.53325e-14
134 2 0.0129168 0.0110224 0.003969 0.001 1.0472e-05 4.84477e-14 -3.18871e-13 4.06806e-13
135 2 0.0103892 0.0111451 0.000872728 0.001 1.0472e-05 -4.94985e-15 2.22094e-14 2.186e-14
136 2 0.00838932 0.00463135 0.0045899 0.001 1.0472e-05 -8.22678e-16 -6.57643e-14 -1.47601e-13
137 2 0.0100848 0.00599716 0.00858566 0.001 1.0472e-05 1.10806e-13 2.67342e-14 -2.43546e-14
138 2 0.00716977 0.00323586 0.0041996 0.001 1.0472e-05 3.9922e-14 2.54701e-13 1.41203e-13
139 2 0.00803417 0.00688241 0.0117179 0.001 1.0472e-05 -1.85201e-13 -1.10875e-13 5.4122e-13
140 2 0.00673104 0.00475392 0.00269162 0.001 1.0472e-05 3.13096e-14 -2.42112e-14 3.55136e-15
141 2 0.000271921 0.00631312 0.0141524 0.001 1.0472e-05 -2.62992e-13 3.25892e-14 -3.72347e-14
142 2 0.011615 0.0125889 0.0143936 0.001 1.0472e-05 4.99603e-14 6.59756e-14 5.64686e-14
143 2 0.000114288 0.0031526 0.0132468 0.001 1.0472e-05 1.0795e-13 2.78616e-13 2.64544e-13
144 2 0.00343174 0.0073073 0.00572037 0.001 1.0472e-05 -2.75319e-13 1.03862e-14 8.20551e-15
145 2 0.0120432 0.0105601 0.00170202 0.001 1.0472e-05 1.61503e-13 -1.16319e-13 3.80429e-13
146 2 0.00228892 0.0126539 0.0120717 0.001 1.0472e-05 6.9545e-14 2.91663e-14 2.36141e-16
147 2 0.00370761 0.00741853 0.00200219 0.001 1.0472e-05 -9.16578e-14 2.07314e-13 1.43865e-13
148 2 0.0138898 0.0102581 0.00247586 0.001 1.0472e-05 1.70422e-13 -2.3204e-13 -1.65347e-13
149 2 0.00198444 0.0150523 0.00423767 0.001 1.0472e-05 -8.57035e-14 -7.4875e-13 1.47416e-13
150 2 0.0107821 0.00228088 0.00286013 0.001 1.0472e-05 -7.26009e-14 -1.35873e-13 -6.96623e-14
151 2 0.00526061 0.00552815 0.00821719 0.001 1.0472e-05 7.13538e-14 -6.21583e-15 3.5846e-13
152 2 0.00196482 0.00663834 0.00679314 0.001 1.0472e-05 -1.99299e-13 -6.57068e-15 -1.34696e-13
153 2 0.0111311 0.0107118 0.014401 0.001 1.0472e-05 1.01077e-13 -1.88288e-14 5.15375e-14
154 2 0.000694271 0.0121836 0.0111114 0.001 1.0472e-05 -3.19837e-13 -5.624e-15 -1.07572e-13
155 2 0.0134118 0.0108371 0.00923842 0.001 1.0472e-05 -3.65687e-13 1.09299e-14 -2.46238e-14
156 2 0.00197995 0.00737236 0.010667 0.001 1.0472e-05 -9.81274e-14 -7.56829e-15 2.87587e-14
157 2 0.0118248 0.00396197 0.00420098 0.001 1.0472e-05 -1.12406e-13 -1.15672e-13 -5.41188e-14
158 2 0.00737368 0.0119328 0.00651784 0.001 1.0472e-05 2.63026e-13 2.21271e-13 -1.75143e-13
159 2 0.00781716 0.013515 0.00333392 0.001 1.0472e-05 3.46191e-14 6.30732e-14 1.96231e-13
160 2 0.0143423 0.00262287 0.00976003 0.001 1.0472e-05 7.67539e-14 6.44867e-14 -5.94392e-15
161 2 0.00631987 0.0123775 0.00811547 0.001 1.0472e-05 2.20634e-13 1.56909e-14 -2.0335e-14
162 2 0.0113112 0.00564228 0.00711587 0.001 1.0472e-05 1.75314e-13 -5.85841e-14 -1.63432e-13
163 2 0.00396106 0.0139045 0.00902363 0.001 1.0472e-05 1.9973e-13 3.75999e-13 -1.70299e-13
164 2 0.0150693 0.00978469 0.00925657 0.001 1.0472e-05 -6.21528e-14 -3.83224e-13 1.15568e-13
165 2 0.00188371 0.00298924 0.00740235 0.001 1.0472e-05 4.3281e-13 7.27445e-13 -2.15765e-12
166 2 0.00631321 0.00667648 0.00301519 0.001 1.0472e-05 -2.1759e-14 -5.22414e-14 -4.66984e-14
167 2 0.00672493 0.00423506 0.00809138 0.001 1.0472e-05 2.46123e-14 4.45918e-14 6.94047e-14
168 2 0.0122979 0.00162615 0.000934022 0.001 1.0472e-05 1.08296e-14 2.71298e-13 2.58699e-15
169 2 0.009391 0.00891311 0.00265586 0.001 1.0472e-05 -9.23898e-14 2.46676e-13 -2.3048e-13
170 2 0.00779686 0.0102046 0.00977872 0.001 1.0472e-05 -2.48686e-13 -1.20958e-13 3.03393e-13
171 2 0.00320432 0.0126268 0.00541845 0.001 1.0472e-05 -6.97925e-13 -2.02427e-13 7.22489e-13
172 2 0.00194 0.00463585 0.0131448 0.001 1.0472e-05 -4.00302e-14 1.06302e-15 -7.28593e-14
173 2 0.000127327 0.000652341 0.00081025 0.001 1.0472e-05 -2.92037e-14 2.15503e-14 2.66314e-13
174 2 0.00236877 0.00927747 0.0145524 0.001 1.0472e-05 -8.06032e-14 -2.69826e-15 2.87113e-14
175 2 0.00837952 0.0135913 0.00945576 0.001 1.0472e-05 -1.81842e-13 -7.18445e-14 9.38205e-14
176 2 0.0135682 0.00479646 0.00272295 0.001 1.0472e-05 -2.6855e-14 1.11124e-14 -1.52672e-14
177 2 0.001676 0.0037193 0.00553534 0.001 1.0472e-05 1.61957e-13 6.39719e-14 -2.01903e-13
178 2 0.00856388 0.00234458 0.0101714 0.001 1.0472e-05 -5.68752e-14 1.00036e-13 2.27916e-14
179 2 0.0137293 0.00476471 0.0122949 0.001 1.0472e-05 2.78454e-14 6.96072e-15 -5.19197e-14
180 2 0.0114414 0.00519698 0.0102356 0.001 1.0472e-05 9.84847e-14 -5.04619e-14 -3.22164e-14
181 2 0.00305499 0.0081446 0.0132436 0.001 1.0472e-05 -1.56614e-14 3.69961e-14 4.95993e-14
182 2 0.0146526 0.0128168 0.000812112 0.001 1.0472e-05 -1.52337e-13 5.43904e-13 1.75115e-13
183 2 0.00662779 0.000975816 0.00301158 0.001 1.0472e-05 -1.1704e-13 -5.08435e-13 4.70419e-14
184 2 0.00398195 0.000356092 0.00854828 0.001 1.0472e-05 3.66023e-14 -4.03724e-14 1.24107e-13
185 2 0.00236553 0.00647102 0.0144415 0.001 1.0472e-05 -5.59473e-14 -8.65233e-15 5.59972e-14
186 2 0.00582947 0.0134685 0.000953545 0.001 1.0472e-05 1.42715e-13 -4.15749e-13 -6.24497e-13
187 2 0.00915555 0.00791194 0.00788389 0.001 1.0472e-05 1.72869e-13 2.34741e-13 1.62324e-13
188 2 0.000108268 0.0134798 0.00900648 0.001 1.0472e-05 3.78598e-13 -1.78779e-13 -6.03656e-14
189 2 0.00543686 0.00777583 0.00638584 0.001 1.0472e-05 -4.97163e-14 -1.64099e-14 6.33062e-14
190 2 0.00210087 0.0131059 0.00395751 0.001 1.0472e-05 -4.38874e-13 -1.87408e-12 2.47341e-13
191 2 0.0102145 0.0151745 0.0111019 0.001 1.0472e-05 7.52376e-14 6.45497e-14 1.60543e-14
192 2 0.0149802 0.00967256 0.00092195 0.001 1.0472e-05 -1.56842e-13 1.47701e-13 2.4679e-13
193 2 0.000274145 0.0101765 0.00644295 0.001 1.0472e-05 1.3334e-12 1.11306e-12 -1.89455e-13
194 2 0.0140949 0.0134937 0.00356982 0.001 1.0472e-05 2.15504e-13 1.45154e-13 8.02344e-14
195 2 0.00507358 0.0139015 0.0136251 0.001 1.0472e-05 -1.36024e-15 -2.29955e-14 6.25732e-14
196 2 0.00897267 0.00503523 0.00100521 0.001 1.0472e-05 -1.28863e-13 -2.33385e-14 1.85691e-14
197 2 0.00788846 0.00887733 0.00606273 0.001 1.0472e-05 5.13809e-14 1.20386e-13 4.88839e-14
198 2 0.00937883 0.0115674 0.0144438 0.001 1.0472e-05 -7.60548e-14 2.53869e-14 4.7955e-14
199 2 0.0138889 0.00556811 0.00439314 0.001 1.0472e-05 -2.23839e-13 -1.79402e-13 -1.07907e-13
200 2 0.00233364 0.00115674 0.0144314 0.001 1.0472e-05 -4.44737e-14 -6.28808e-15 6.2497e-14
201 2 0.0038254 0.0112208 0.0114789 0.001 1.0472e-05 -6.6422e-14 -2.74193e-14 -3.14655e-14
202 2 0.000742283 0.00123893 0.012809 0.001 1.0472e-05 -1.25727e-13 1.59757e-14 -7.83733e-15
203 2 0.00420244 0.0123923 0.000945425 0.001 1.0472e-05 2.0492e-13 1.9815e-13 3.14149e-13
204 2 0.00750462 0.00131208 0.00461104 0.001 1.0472e-05 -1.51404e-13 -4.86521e-15 -2.01398e-14
205 2 0.0107299 0.00935113 0.0130333 0.001 1.0472e-05 6.30886e-14 -5.02134e-14 -6.17721e-14
206 2 0.00359514 0.00354825 0.0130733 0.001 1.0472e-05 -8.40376e-14 -1.21614e-14 -2.59386e-13
207 2 0.0145428 0.000870548 0.0139869 0.001 1.0472e-05 2.07486e-14 5.68266e-14 -4.44061e-14
208 2 0.00648123 0.00748177 0.0143631 0.001 1.0472e-05 1.03503e-13 -3.29348e-15 -2.39937e-13
209 2 0.00546523 0.000901014 0.00968179 0.001 1.0472e-05 -2.01524e-13 1.66954e-15 7.8337e-14
210 2 0.0019184 0.0147492 0.0117507 0.001 1.0472e-05 -1.18599e-13 4.04579e-14 -1.30229e-13
211 2 0.00816377 0.0119129 0.0102295 0.001 1.0472e-05 -2.45213e-13 8.73999e-14 2.53495e-13
212 2 0.0111737 0.0069816 0.00983003 0.001 1.0472e-05 -4.02892e-14 -6.98194e-14 1.47408e-14
213 2 0.00638109 0.0033675 0.00628393 0.001 1.0472e-05 7.48074e-14 -2.5625e-14 1.96038e-13
214 2 0.00376593 0.00431927 0.00859833 0.001 1.0472e-05 -2.19124e-14 -9.25586e-14 2.67537e-13
215 2 0.000802221 0.0144417 0.00749869 0.001 1.0472e-05 -1.65855e-13 -4.18501e-13 -1.88369e-13
216 2 0.0143296 0.00662442 0.0127683 0.001 1.0472e-05 6.45636e-15 7.10346e-14 1.11987e-14
217 2 0.0102251 0.00965833 0.0102533 0.001 1.0472e-05 -7.75797e-14 -2.9888e-14 -1.27154e-13
218 2 0.000677405 0.0129721 0.00265266 0.001 1.0472e-05 4.65161e-13 6.88728e-15 -3.4792e-13
219 2 0.00154121 0.00327924 0.0144744 0.001 1.0472e-05 -3.27903e-14 1.1213e-13 6.97988e-14
220 2 0.0148966 0.0136151 0.0107997 0.001 1.0472e-05 2.11569e-13 4.94766e-15 -2.22877e-14
221 2 0.000366681 0.0136859 0.00458094 0.001 1.0472e-05 -4.86529e-13 -2.2279e-13 -6.31003e-13
222 2 0.0145758 0.00192475 0.00599867 0.001 1.0472e-05 1.82554e-14 5.09479e-14 -9.1924e-14
223 2 0.00119267 0.0089962 0.00157527 0.001 1.0472e-05 8.95723e-14 2.10567e-14 -2.00804e-15
224 2 0.0126322 0.00153175 0.0143922 0.001 1.0472e-05 6.4724e-14 8.09992e-14 -4.2592e-16
225 2 0.0032797 0.00614054 0.00805145 0.001 1.0472e-05 -8.42668e-14 3.42989e-13 1.441e-13
226 2 0.000427849 0.00537416 0.00678088 0.001 1.0472e-05 -1.91946e-13 5.64641e-14 -2.19193e-13
227 2 0.0129838 0.0142876 0.000993387 0.001 1.0472e-05 1.23437e-13 2.06564e-13 -2.38268e-13
228 2 0.00209716 0.0135358 0.00854677 0.001 1.0472e-05 1.06823e-14 -2.55385e-14 2.70149e-14
229 2 0.00277466 0.00796192 0.00831361 0.001 1.0472e-05 -4.52557e-13 2.85678e-13 -9.0899e-14
230 2 0.0145373 0.00605815 0.00819299 0.001 1.0472e-05 -1.44854e-13 7.03086e-14 5.57692e-15
231 2 0.00738198 0.00862596 0.0106645 0.001 1.0472e-05 -2.77669e-13 -3.32533e-14 7.88388e-14
232 2 0.00489462 0.00429023 0.00253832 0.001 1.0472e-05 9.91892e-15 4.16696e-14 -1.74123e-13
233 2 0.00669364 0.0109304 0.00401177 0.001 1.0472e-05 2.78288e-14 -3.8003e-14 2.18146e-13
234 2 0.0124766 0.00611337 0.0127355 0.001 1.0472e-05 -1.82234e-14 1.29613e-13 9.97193e-15
235 2 0.00551452 0.00630993 0.0107041 0.001 1.0472e-05 5.89219e-15 5.05925e-14 -2.20216e-13
236 2 0.00912598 0.00741006 0.00100034 0.001 1.0472e-05 5.01712e-165 -1.0343e-162 -8.2025e-163
237 2 0.0131211 0.00502758 0.00737449 0.001 1.0472e-05 -1.14082e-13 -1.50837e-14 -4.80584e-15
238 2 0.0112291 0.00767641 0.00097568 0.001 1.0472e-05 -1.16409e-13 -3.16529e-14 7.27249e-14
239 2 0.0152828 0.00450269 0.0145052 0.001 1.0472e-05 -4.90042e-14 9.78817e-15 -1.29713e-13
240 2 0.00818736 0.00559069 0.0080488 0.001 1.0472e-05 5.59896e-14 1.19155e-13 8.40803e-14
241 2 0.0148516 0.0152396 0.00384295 0.001 1.0472e-05 5.32522e-15 -7.1122e-14 -2.40837e-15
242 2 0.00467751 0.015034 0.0122886 0.001 1.0472e-05 -3.61518e-14 3.72668e-14 -6.49188e-14
243 2 0.0100698 0.00928149 0.00089909 0.001 1.0472e-05 -9.52936e-14 -4.85984e-14 3.19531e-14
244 2 0.000483949 0.0152247 0.0106187 0.001 1.0472e-05 1.46166e-13 -1.51388e-13 -5.51346e-15
245 2 0.00493958 0.00790137 0.0131154 0.001 1.0472e-05 -4.82366e-14 -6.90175e-14 -4.52949e-14
246 2 0.00981432 0.0108335 0.00263337 0.001 1.0472e-05 -9.14102e-15 -3.82471e-16 -1.61559e-13
247 2 0.002013 0.00146872 0.003316 0.001 1.0472e-05 3.29866e-14 -1.01096e-13 1.84338e-13
248 2 0.000630687 0.00846458 0.00325454 0.001 1.0472e-05 -1.11692e-13 -8.98733e-14 2.29091e-13
249 2 0.00719035 0.00522911 0.011251 0.001 1.0472e-05 4.72905e-14 1.97015e-14 1.85736e-13
250 2 0.000600302 0.0122622 0.0145095 0.001 1.0472e-05 3.46015e-14 4.42729e-14 3.30388e-14
251 2 0.00273193 0.014136 0.0133522 0.001 1.0472e-05 -1.01624e-13 -4.14097e-14 3.50436e-14
252 2 0.00312247 0.0144776 0.00553698 0.001 1.0472e-05 -1.14267e-13 -1.8958e-12 -2.84371e-13
253 2 0.00818538 0.0146816 0.00794779 0.001 1.0472e-05 -1.87516e-13 3.13252e-13 6.72905e-14
254 2 0.0125162 0.00940704 0.0144787 0.001 1.0472e-05 1.03064e-14 1.55732e-14 1.31162e-14
255 2 0.00603632 0.00427764 0.000932917 0.001 1.0472e-05 -8.14401e-14 6.92599e-14 -6.49131e-14
256 2 0.00449298 0.000373966 0.0143847 0.001 1.0472e-05 1.80054e-14 7.68916e-14 -5.54026e-14
257 2 0.000167381 0.00506648 0.012683 0.001 1.0472e-05 2.16802e-15 -3.72516e-14 4.06426e-14
258 2 0.00752286 0.0114145 0.0141445 0.001 1.0472e-05 -7.91043e-15 7.31012e-14 -3.30492e-14
259 2 0.0149406 0.00769932 0.0112192 0.001 1.0472e-05 -5.49509e-15 8.16961e-14 -1.57583e-13
260 2 0.00271372 0.00503436 0.00453551 0.001 1.0472e-05 1.47803e-13 -1.35891e-16 9.13816e-14
261 2 0.00455708 0.0129767 0.0120055 0.001 1.0472e-05 1.73482e-14 -9.28967e-15 -8.12072e-14
262 2 0.00779104 0.0133708 0.00134064 0.001 1.0472e-05 5.42409e-13 -2.85557e-15 1.49303e-14
263 2 0.00193247 0.0106993 0.0108775 0.001 1.0472e-05 1.41652e-13 2.08803e-13 -1.3439e-13
264 2 0.0109384 0.00833353 0.0145211 0.001 1.0472e-05 1.06257e-13 6.54468e-14 -1.43944e-14
265 2 0.00496459 0.00376277 0.00510328 0.001 1.0472e-05 1.17771e-15 -3.09081e-14 1.72708e-13
266 2 0.000473892 0.0014626 0.00753746 0.001 1.0472e-05 4.17825e-14 4.70875e-13 4.94813e-14
267 2 0.00624167 0.000307722 0.011403 0.001 1.0472e-05 -1.63877e-14 -2.13881e-14 5.25637e-14
268 2 0.00127014 0.000924353 0.00918518 0.001 1.0472e-05 2.24854e-13 -7.21452e-14 -6.93616e-14
269 2 0.00474007 0.0121636 0.00914225 0.001 1.0472e-05 5.84656e-13 1.7219e-13 2.77628e-13
270 2 0.010527 0.00523387 0.0143946 0.001 1.0472e-05 -2.31102e-15 -1.61546e-14 1.78546e-14
271 2 0.00538299 0.00731263 0.000943318 0.001 1.0472e-05 4.67005e-14 -3.08175e-15 7.68608e-14
272 2 0.0148221 0.000782182 0.00928872 0.001 1.0472e-05 8.79629e-14 -6.33139e-14 -4.04e-14
273 2 0.014985 0.00500982 0.0108113 0.001 1.0472e-05 -6.52723e-14 6.64695e-14 1.6505e-13
274 2 0.0149419 0.0105633 0.0120957 0.001 1.0472e-05 -7.6336e-14 -8.63892e-15 7.89692e-14
275 2 0.0046239 0.00555865 0.00103919 0.001 1.0472e-05 1.03568e-15 -8.57034e-15 -3.34145e-14
276 2 0.00673436 0.00205639 0.0107665 0.001 1.0472e-05 -3.20401e-15 1.22985e-13 7.78308e-14
277 2 0.0102698 0.00635547 0.00444891 0.001 1.0472e-05 -4.96428e-14 -1.41742e-13 -3.33625e-14
278 2 0.00613421 0.0109146 0.00937458 0.001 1.0472e-05 1.1174e-13 2.8731e-14 2.69195e-13
279 2 0.00506621 0.000975279 0.000909725 0.001 1.0472e-05 -4.69135e-14 1.11708e-13 3.86733e-14
280 2 0.00132877 0.00327188 0.00303618 0.001 1.0472e-05 -5.03909e-14 7.55952e-14 4.39915e-14
281 2 0.0153332 0.00315787 0.0113593 0.001 1.0472e-05 -1.71987e-13 2.29588e-14 -1.67572e-14
282 2 0.0143258 0.00951495 0.00536918 0.001 1.0472e-05 6.14622e-15 -1.94475e-13 6.18065e-14
283 2 0.0106705 0.005782 0.000861429 0.001 1.0472e-05 -6.03397e-15 3.18206e-14 -1.24857e-13
284 2 0.0085952 0.00271005 0.0134731 0.001 1.0472e-05 2.0589e-14 -1.82979e-14 1.90807e-13
285 2 0.00654894 0.0130523 0.0144972 0.001 1.0472e-05 -1.08644e-13 4.87071e-14 -1.05202e-13
286 2 0.00955945 0.00310406 0.00410763 0.001 1.0472e-05 -1.67095e-14 -1.92768e-13 -1.62131e-13
287 2 0.00275906 0.014727 0.00729698 0.001 1.0472e-05 -1.24368e-13 -5.66198e-13 9.36296e-14
288 2 0.0122821 0.00597883 0.00548947 0.001 1.0472e-05 3.3052e-14 -1.06155e-13 -5.24614e-14
289 2 0.0142802 0.0073774 0.00467984 0.001 1.0472e-05 -9.99397e-14 2.91951e-13 -8.20837e-15
290 2 0.0124009 0.00640074 0.00853939 0.001 1.0472e-05 -1.07767e-14 5.16672e-15 -1.24688e-13
291 2 0.0102002 0.0141239 0.00927605 0.001 1.0472e-05 2.67617e-14 -1.28995e-13 -1.01246e-14
292 2 0.000877017 0.010352 0.00295445 0.001 1.0472e-05 -7.28387e-14 2.18754e-13 -3.14059e-14
293 2 0.0125681 0.00171993 0.00961878 0.001 1.0472e-05 -7.40065e-15 1.23942e-13 2.87961e-14
294 2 0.0119361 0.000800803 0.00285056 0.001 1.0472e-05 -1.10072e-13 -1.58927e-13 -1.69775e-14
295 2 0.0144779 0.00793718 0.00223498 0.001 1.0472e-05 3.22794e-14 -8.11928e-15 1.30898e-13
296 2 0.0118762 0.00891947 0.00955628 0.001 1.0472e-05 9.25664e-15 -5.67075e-14 -3.94447e-13
297 2 0.00281738 0.00427557 0.0115091 0.001 1.0472e-05 1.04172e-13 -9.02949e-15 -8.75386e-14
298 2 0.00592848 0.00912468 0.000857479 0.001 1.0472e-05 1.699e-13 1.2823e-14 -1.90617e-14
299 2 0.0089067 0.0145772 0.00221369 0.001 1.0472e-05 1.17043e-13 4.00104e-14 -7.06154e-15
300 2 0.00258773 0.0046858 0.00703065 0.001 1.0472e-05 4.20959e-13 -1.15802e-13 -8.62322e-13
301 2 0.014146 0.00619846 0.00623703 0.001 1.0472e-05 -3.26208e-14 -6.77341e-14 5.40503e-14
302 2 0.00570806 0.00214826 0.00456099 0.001 1.0472e-05 5.14946e-14 1.09026e-13 1.36275e-14
303 2 0.0122247 0.0133903 0.00330461 0.001 1.0472e-05 -1.83815e-13 4.73314e-14 2.30347e-13
304 2 0.0125824 0.00853851 0.00210868 0.001 1.0472e-05 7.18916e-15 -1.82627e-13 2.11589e-13
305 2 0.0152443 0.00432943 0.00238109 0.001 1.0472e-05 -1.40729e-13 -2.06067e-14 -4.07433e-14
306 2 0.011023 0.00246347 0.00520603 0.001 1.0472e-05 -3.57381e-14 -3.70554e-14 3.79992e-14
307 2 0.00342645 0.0083408 0.0113643 0.001 1.0472e-05 -7.50483e-14 -1.0203e-13 1.06764e-14
308 2 0.0110418 0.0125714 0.00182869 0.001 1.0472e-05 1.07629e-13 9.5987e-15 3.26256e-13
309 2 0.00513331 0.0059524 0.00584849 0.001 1.0472e-05 1.74435e-14 -2.85464e-14 -4.23603e-14
310 2 0.00766538 0.00788841 0.00253833 0.001 1.0472e-05 -1.40383e-13 -9.20643e-15 -8.96776e-14
311 2 0.00862063 0.00471638 0.0141882 0.001 1.0472e-05 -6.3325e-15 -3.40443e-14 8.40705e-14
312 2 0.0118655 0.0150784 0.00904179 0.001 1.0472e-05 1.7802e-14 1.27066e-13 -2.62012e-14
313 2 0.0024444 0.00118667 0.00772203 0.001 1.0472e-05 1.00762e-13 -8.57355e-14 -4.83221e-13
314 2 0.00291418 0.0136045 0.00199471 0.001 1.0472e-05 -3.69751e-13 -6.71685e-14 -1.60617e-13
315 2 0.00795137 0.00609129 0.00982887 0.001 1.0472e-05 1.19657e-14 8.1136e-15 1.19599e-13
316 2 0.00175532 0.0134383 0.0103344 0.001 1.0472e-05 -9.24005e-14 8.13685e-14 2.44424e-14
317 2 0.0121766 0.0149779 0.00429437 0.001 1.0472e-05 -1.76456e-14 -5.79043e-15 8.59176e-14
318 2 0.00338444 0.00316305 0.00612888 0.001 1.0472e-05 -4.10685e-14 -1.683e-14 -6.01958e-13
319 2 0.0103824 0.00039714 0.005487 0.001 1.0472e-05 7.68249e-14 -2.66295e-13 2.40529e-13
320 2 0.00275963 0.00601713 0.00126728 0.001 1.0472e-05 -9.27439e-14 -3.40175e-14 9.35063e-14
321 2 0.0118049 0.00667472 0.0144055 0.001 1.0472e-05 5.49968e-14 1.61876e-14 6.11334e-15
322 2 0.000506478 0.00508536 0.00398479 0.001 1.0472e-05 3.36786e-14 -2.08779e-13 -9.15683e-14
323 2 0.0102597 0.00716305 0.00264407 0.001 1.0472e-05 8.23084e-14 -3.26599e-13 1.68049e-13
324 2 0.0138313 0.012481 0.00826821 0.001 1.0472e-05 -1.12889e-13 -8.51367e-14 1.07753e-14
325 2 0.0047519 0.0143786 0.00730544 0.001 1.0472e-05 -6.887e-13 -4.2851e-13 6.7803e-14
326 2 0.00976996 0.0136383 0.014408 0.001 1.0472e-05 -2.91788e-15 4.05277e-15 3.49053e-14
327 2 0.00843132 0.0150034 0.00437379 0.001 1.0472e-05 -1.07998e-13 -3.49693e-14 -1.58932e-13
328 2 0.00423021 0.00936856 0.0142987 0.001 1.0472e-05 -5.41698e-14 8.04938e-14 8.67828e-14
329 2 0.000832271 0.00219935 0.00471153 0.001 1.0472e-05 -1.53867e-13 -2.21052e-13 1.42467e-13
330 2 0.00247101 0.0125194 0.0144811 0.001 1.0472e-05 -3.70944e-14 2.09482e-14 -8.6393e-14
331 2 0.0129426 0.0122428 0.00204217 0.001 1.0472e-05 -1.0223e-13 4.38433e-14 1.39571e-13
332 2 0.0039516 0.00048718 0.010745 0.001 1.0472e-05 1.84854e-14 -2.83318e-14 3.42684e-14
333 2 0.0146403 0.0141409 0.00194087 0.001 1.0472e-05 4.07133e-14 -1.48601e-13 -3.96963e-13
334 2 0.00574902 0.00734879 0.00817203 0.001 1.0472e-05 5.26665e-14 1.09429e-13 7.19911e-14
335 2 0.0136538 0.000374593 0.00219446 0.001 1.0472e-05 -7.17223e-14 2.12979e-13 2.73922e-13
336 2 0.00952998 0.00961702 0.014469 0.001 1.0472e-05 2.72077e-14 1.94466e-13 3.4438e-13
337 2 0.00500201 0.0142154 0.0106521 0.001 1.0472e-05 -4.89077e-14 5.0622e-14 5.50365e-14
338 2 0.012204 0.000757626 0.00575173 0.001 1.0472e-05 4.55246e-15 3.36777e-14 -3.03079e-14
339 2 0.0100384 0.00336847 0.014462 0.001 1.0472e-05 8.01519e-15 -1.40348e-14 -1.83467e-14
340 2 0.00559617 0.00815197 0.0111301 0.001 1.0472e-05 3.17335e-14 -8.98708e-15 -1.33062e-13
341 2 0.0140113 0.00188055 0.00803914 0.001 1.0472e-05 -5.42354e-14 -2.93434e-14 7.41472e-15
342 2 0.00297707 0.0016557 0.00955558 0.001 1.0472e-05 1.04727e-13 6.32451e-14 4.37878e-14
343 2 0.0152697 0.00320767 0.000867397 0.001 1.0472e-05 5.63763e-14 3.48016e-14 4.89047e-14
344 2 0.0110136 0.0114765 0.00608454 0.001 1.0472e-05 1.64483e-13 -4.0962e-15 -2.15513e-13
345 2 0.0121339 0.00783684 0.00404783 0.001 1.0472e-05 6.90059e-14 2.86081e-14 4.43032e-13
346 2 0.0106999 0.0148352 0.00751989 0.001 1.0472e-05 1.45429e-13 5.30119e-14 -2.72285e-13
347 2 0.00390124 0.00965242 0.00602318 0.001 1.0472e-05 7.97935e-13 -5.86337e-13 -1.24681e-14
348 2 0.00874118 0.0152175 0.00623155 0.001 1.0472e-05 -3.27142e-15 3.68584e-13 -5.03759e-14
349 2 0.00256071 0.0150564 0.00972878 0.001 1.0472e-05 1.6242e-14 1.78016e-13 -3.37549e-13
350 2 0.0151636 0.0085856 0.00729237 0.001 1.0472e-05 6.32116e-13 -1.82944e-14 -2.92224e-16
351 2 0.000333995 0.0114064 0.00149309 0.001 1.0472e-05 -7.06052e-14 -5.393e-15 -9.79001e-15
352 2 0.00812326 0.0120229 0.00833976 0.001 1.0472e-05 -2.29056e-13 2.17258e-13 9.2608e-14
353 2 0.00215499 0.00764296 0.000848651 0.001 1.0472e-05 -9.25275e-14 1.35281e-13 -1.18896e-14
354 2 0.0121685 0.00856582 0.0121654 0.001 1.0472e-05 -1.94469e-13 4.40947e-14 -2.87064e-13
355 2 0.010202 0.00460568 0.00517186 0.001 1.0472e-05 8.05712e-14 -1.26725e-14 1.58852e-15
356 2 0.0110042 0.0076238 0.0080279 0.001 1.0472e-05 -5.84815e-14 -9.4898e-14 6.53802e-14
357 2 0.0116941 0.00299934 0.0134647 0.001 1.0472e-05 -1.56557e-14 9.22238e-14 1.2096e-14
358 2 0.00571704 0.0104302 0.00618031 0.001 1.0472e-05 8.08885e-14 -9.28604e-13 2.64457e-14
359 2 0.0037209 0.014374 0.00356214 0.001 1.0472e-05 -2.73233e-13 -2.64348e-13 -3.34047e-13
360 2 0.00454627 0.0076352 0.00961946 0.001 1.0472e-05 -1.65182e-14 -5.5952e-14 5.23171e-14
361 2 0.00359661 0.00315342 0.00170258 0.001 1.0472e-05 -1.64741e-13 6.84659e-14 -1.98006e-13
362 2 0.00156782 0.0127756 0.000911601 0.001 1.0472e-05 -1.78918e-13 1.12038e-14 -1.20632e-13
363 2 0.0148137 0.0116747 0.00345297 0.001 1.0472e-05 5.58e-13 -1.81905e-14 4.31758e-13
364 2 0.01248 0.0048604 0.0142924 0.001 1.0472e-05 -3.291e-15 3.8447e-15 2.36029e-14
365 2 0.0146939 0.00548128 0.000948278 0.001 1.0472e-05 1.71344e-14 8.57871e-15 -1.21871e-14
366 2 0.00652451 0.0122959 0.00232233 0.001 1.0472e-05 -1.72357e-14 -8.32238e-13 1.79263e-13
367 2 0.0014423 0.00555585 0.0110196 0.001 1.0472e-05 -1.06703e-14 5.29997e-15 8.78757e-14
368 2 0.00534557 0.00034666 0.00461598 0.001 1.0472e-05 -6.26158e-13 -9.18151e-13 -2.95421e-13
369 2 0.00617458 0.00900985 0.00910026 0.001 1.0472e-05 -4.32895e-15 1.66406e-13 7.06119e-14
370 2 0.00531841 0.0122943 0.00373913 0.001 1.0472e-05 1.22501e-13 -7.3321e-13 4.53245e-13
371 2 0.0140496 0.0127511 0.0144262 0.001 1.0472e-05 -4.1046e-14 5.35822e-14 3.71214e-15
372 2 0.00998115 0.0112669 0.00916069 0.001 1.0472e-05 -4.19206e-14 3.19169e-13 -7.07018e-14
373 2 0.00663557 0.013685 0.00668341 0.001 1.0472e-05 -4.28595e-13 4.14999e-13 3.51657e-14
374 2 0.00601238 0.0124503 0.0106169 0.001 1.0472e-05 3.73145e-14 1.16016e-13 -1.33266e-13
375 2 0.00811496 0.00842274 0.0144168 0.001 1.0472e-05 -2.71323e-13 1.37019e-13 9.51447e-13
376 2 0.00239179 0.00936221 0.00961564 0.001 1.0472e-05 1.70417e-13 6.34777e-13 -3.38739e-13
377 2 0.0134629 0.00692764 0.000945181 0.001 1.0472e-05 -6.04142e-14 -2.7642e-14 8.5898e-14
378 2 0.00934228 0.00541221 0.00303254 0.001 1.0472e-05 -6.22065e-15 -2.51076e-14 -5.41955e-14
379 2 0.00405369 0.00890055 0.000905069 0.001 1.0472e-05 5.35997e-14 -1.71633e-14 -7.09708e-14
380 2 0.0035409 0.00559318 0.00292577 0.001 1.0472e-05 -2.38115e-13 1.63477e-13 9.25593e-15
381 2 0.00495186 0.0102011 0.00798641 0.001 1.0472e-05 3.34272e-13 -4.74574e-13 1.17667e-12
382 2 0.000178803 0.00944293 0.0144978 0.001 1.0472e-05 -2.38213e-13 -4.32125e-14 -5.30149e-14
383 2 0.00689042 0.0126815 0.00478848 0.001 1.0472e-05 8.36919e-14 -1.0142e-13 -7.313e-14
384 2 0.0059551 0.011008 0.00100096 0.001 1.0472e-05 8.41985e-14 -1.64649e-14 9.69223e-14
385 2 0.00377824 0.000928609 0.00378107 0.001 1.0472e-05 -1.04528e-14 -4.72515e-13 -2.84778e-13
386 2 0.00504164 0.0102898 0.0032917 0.001 1.0472e-05 1.25878e-13 -1.13386e-14 -4.60959e-14
387 2 0.0125735 0.00755284 0.00698267 0.001 1.0472e-05 3.47759e-14 2.19998e-14 5.94775e-14
388 2 0.00182832 0.0032197 0.0102603 0.001 1.0472e-05 -3.47321e-14 -3.21723e-13 1.14295e-12
389 2 0.0104091 0.005693 0.0118173 0.001 1.0472e-05 3.26146e-15 -2.00141e-14 9.12055e-15
390 2 0.00663346 0.00384969 0.0100079 0.001 1.0472e-05 1.55009e-14 -7.81414e-15 1.46637e-13
391 2 0.0136145 0.00113654 0.00452018 0.001 1.0472e-05 -1.0983e-13 3.78097e-13 2.20366e-13
392 2 0.0120945 0.0133996 0.00795507 0.001 1.0472e-05 3.5069e-13 -3.81439e-13 4.49742e-13
393 2 0.00831539 0.00377949 0.00281739 0.001 1.0472e-05 -1.44381e-13 -1.99118e-13 8.21294e-15
394 2 0.014096 0.00180356 0.00100368 0.001 1.0472e-05 9.08611e-14 1.84742e-14 1.61727e-13
395 2 0.00473177 0.00950777 0.0121215 0.001 1.0472e-05 -3.68492e-13 1.07816e-14 4.1918e-14
396 2 0.00512013 0.00233496 0.00268759 0.001 1.0472e-05 1.26509e-13 3.78363e-13 -1.72765e-14
397 2 0.0105068 0.00108987 0.00971668 0.001 1.0472e-05 8.83268e-14 -3.22892e-14 2.65486e-14
398 2 0.00437937 0.0111413 0.00493094 0.001 1.0472e-05 1.13036e-13 -5.10792e-13 3.08927e-13
399 2 0.00909936 0.00956569 0.00872481 0.001 1.0472e-05 1.0486e-14 4.37272e-14 2.07489e-13
400 2 0.00951466 0.0041205 0.0125165 0.001 1.0472e-05 2.04279e-14 4.28879e-17 -6.02024e-14
401 3 0.00506009 0.0112293 0.0131947 0.00125 2.04531e-05 -4.1242e-14 2.69339e-14 3.6487e-13
402 3 0.0134189 0.0151459 0.0105555 0.00125 2.04531e-05 2.49195e-13 -1.72716e-14 5.85539e-14
403 3 0.00149082 0.00508158 0.00887165 0.00125 2.04531e-05 -2.61938e-13 -1.85004e-13 -1.88007e-14
404 3 0.0102464 0.0139664 0.0038129 0.00125 2.04531e-05 2.88148e-13 1.33649e-13 6.05369e-13
405 3 0.00927042 0.00776417 0.0101156 0.00125 2.04531e-05 -2.65898e-13 -3.47509e-15 -1.99547e-14
406 3 0.00156126 0.0044024 0.00115171 0.00125 2.04531e-05 -1.67518e-13 3.67551e-14 4.52721e-15
407 3 0.00510995 0.00450016 0.0142746 0.00125 2.04531e-05 -7.45422e-15 -7.02994e-14 5.66546e-15
408 3 0.00942914 0.00832962 0.0046986 0.00125 2.04531e-05 -4.16296e-13 3.32042e-13 1.03539e-13
409 3 0.00583973 0.0142939 0.0030166 0.00125 2.04531e-05 2.53312e-13 3.81055e-13 7.23716e-13
410 3 0.00804365 0.000234175 0.0101561 0.00125 2.04531e-05 7.2274e-14 3.41065e-13 -7.67378e-14
411 3 0.0122659 0.00927611 0.00561146 0.00125 2.04531e-05 -2.61598e-13 3.69948e-13 -4.43791e-13
412 3 0.00886773 0.0131138 0.00551859 0.00125 2.04531e-05 2.80019e-13 5.41637e-13 1.62867e-13
413 3 0.00235872 0.0107021 0.00113824 0.00125 2.04531e-05 3.44371e-13 1.35983e-13 -3.62584e-13
414 3 0.00610878 0.00612001 0.0128248 0.00125 2.04531e-05 9.66693e-14 6.447e-14 8.29109e-15
415 3 0.0092903 0.0132914 0.011426 0.00125 2.04531e-05 -4.428e-14 -2.49438e-14 2.38235e-13
416 3 0.00170972 0.00862476 0.0060503 0.00125 2.04531e-05 1.08729e-12 1.6149e-12 -3.2569e-13
417 3 0.0117872 0.00115571 0.0116475 0.00125 2.04531e-05 -7.67301e-14 4.11769e-13 7.02653e-14
418 3 0.0139021 0.0146717 0.00796517 0.00125 2.04531e-05 5.60777e-13 -2.0544e-13 3.29675e-13
419 3 0.00257912 0.00777336 0.00376394 0.00125 2.04531e-05 -4.33718e-13 9.52637e-13 5.14559e-13
420 3 0.0136339 0.00234321 0.0125785 0.00125 2.04531e-05 6.0937e-14 2.66558e-13 1.72571e-13
421 3 0.000414558 0.000192635 0.00574279 0.00125 2.04531e-05 2.07556e-13 2.52244e-13 2.14486e-13
422 3 0.00255323 0.0100887 0.00430299 0.00125 2.04531e-05 4.93083e-13 -2.7065e-13 -1.42913e-12
423 3 0.010464 0.0115221 0.0125348 0.00125 2.04531e-05 -2.15888e-14 1.23012e-13 1.27844e-13
424 3 0.00336036 0.00307316 0.00394694 0.00125 2.04531e-05 1.99832e-13 -1.04145e-13 -3.10702e-15
425 3 0.00896454 0.00131934 0.00792336 0.00125 2.04531e-05 -2.75641e-13 2.21756e-13 3.17869e-14
426 3 0.00999035 0.012727 0.00759293 0.00125 2.04531e-05 2.5817e-13 4.4541e-13 7.73054e-14
427 3 0.00130146 0.00904122 0.0121695 0.00125 2.04531e-05 -1.45915e-13 -7.27635e-14 2.15913e-14
428 3 0.00926506 0.00287477 0.00117268 0.00125 2.04531e-05 -2.28274e-13 -3.36753e-13 -1.44672e-13
429 3 0.00796422 0.00949811 0.00117325 0.00125 2.04531e-05 -1.8139e-13 1.77661e-14 -3.48896e-13
430 3 0.00694999 0.0133332 0.0124193 0.00125 2.04531e-05 -4.58083e-14 -2.61143e-14 -1.43895e-13
431 3 0.0135872 0.0102575 0.00728074 0.00125 2.04531e-05 -1.84411e-13 -5.04367e-13 -6.09788e-13
432 3 0.0133893 0.0128789 0.0123459 0.00125 2.04531e-05 3.85207e-14 -5.34639e-14 -7.88416e-15
433 3 0.00483642 0.00844116 0.00449357 0.00125 2.04531e-05 3.38955e-15 -2.93468e-14 -5.82009e-14
434 3 0.0136215 0.00937917 0.01081 0.00125 2.04531e-05 1.63682e-13 2.77178e-13 1.10692e-13
435 3 0.00644529 0.00122516 0.00637692 0.00125 2.04531e-05 5.22938e-14 -2.26506e-14 5.44692e-14
436 3 0.0149025 0.00387729 0.00806378 0.00125 2.04531e-05 4.41572e-14 -2.77849e-13 -1.54208e-13
437 3 0.0113872 0.0136318 0.00587027 0.00125 2.04531e-05 -4.62242e-13 -7.85073e-14 5.22573e-13
438 3 0.0128448 0.00301368 0.00661025 0.00125 2.04531e-05 -1.64963e-13 -1.7767e-13 -4.22338e-13
439 3 0.00698909 0.00728632 0.00489334 0.00125 2.04531e-05 -1.1876e-13 -6.56647e-14 -4.06074e-13
440 3 0.00634946 0.00962625 0.0143034 0.00125 2.04531e-05 -4.52714e-13 1.77855e-13 1.99807e-14
441 3 0.00443206 0.00977363 0.0100386 0.00125 2.04531e-05 8.42241e-14 1.03245e-13 -1.33377e-14
442 3 0.000436529 0.0115043 0.00812507 0.00125 2.04531e-05 9.68615e-13 7.6347e-13 -1.73723e-12
443 3 0.0117085 0.0112083 0.0104334 0.00125 2.04531e-05 -2.77505e-15 2.64842e-14 2.74237e-13
444 3 0.0109652 0.00422473 0.00219587 0.00125 2.04531e-05 4.94431e-15 1.05642e-13 8.10624e-14
445 3 0.00621795 0.0143269 0.00898024 0.00125 2.04531e-05 -7.00545e-14 2.76512e-13 -1.0622e-13
446 3 0.000809496 0.00649696 0.0022332 0.00125 2.04531e-05 1.07687e-13 -5.19917e-14 -2.16436e-14
447 3 0.00329161 0.000302357 0.00179682 0.00125 2.04531e-05 1.03307e-13 -5.20154e-14 -1.98214e-13
448 3 0.00691515 0.00235016 0.00136909 0.00125 2.04531e-05 1.83648e-14 1.27972e-14 -1.36836e-13
449 3 0.0088953 0.00124312 0.00298981 0.00125 2.04531e-05 1.84503e-13 -9.89527e-14 -2.62402e-13
450 3 0.0137537 0.00805144 0.00878234 0.00125 2.04531e-05 -2.68023e-13 2.48907e-13 -2.97052e-13
451 3 0.0141085 0.00875695 0.0131222 0.00125 2.04531e-05 5.94648e-14 -6.82024e-14 1.40332e-13
452 3 0.0113194 0.00151832 0.00776026 0.00125 2.04531e-05 5.48679e-14 -2.12216e-13 -2.21919e-13
453 3 0.0034508 0.0117956 0.00291391 0.00125 2.04531e-05 -1.08113e-13 -9.0371e-13 -1.32087e-13
454 3 0.00346664 0.00581893 0.0101212 0.00125 2.04531e-05 -1.24668e-13 4.2006e-14 -4.41422e-14
455 3 0.015097 0.00180298 0.00292672 0.00125 2.04531e-05 -1.11765e-13 6.86534e-14 2.15276e-13
456 3 0.0049796 0.00443226 0.01163 0.00125 2.04531e-05 -2.97572e-13 -3.0548e-13 -1.28702e-13
457 3 0.00505115 0.0137365 0.00523636 0.00125 2.04531e-05 -2.02223e-12 -1.31724e-12 3.47073e-14
458 3 0.00870539 9.46005e-05 0.0126002 0.00125 2.04531e-05 -6.5625e-14 2.0384e-13 -1.21853e-13
459 3 0.00451373 0.0121109 0.0069794 0.00125 2.04531e-05 -3.31368e-13 -1.22745e-12 2.00432e-12
460 3 0.00734525 0.0101427 0.00763727 0.00125 2.04531e-05 1.73284e-13 -5.85034e-13 -4.61067e-14
461 3 0.0116995 0.00369503 0.00863181 0.00125 2.04531e-05 2.87732e-13 1.09102e-14 -1.43495e-14
462 3 0.00464792 0.00289813 0.00995802 0.00125 2.04531e-05 -3.55314e-13 4.93242e-15 3.13939e-13
463 3 0.00213374 0.0111315 0.00640642 0.00125 2.04531e-05 1.60334e-12 3.35303e-12 -1.34513e-12
464 3 0.00265641 0.0108205 0.0132162 0.00125 2.04531e-05 -3.4176e-13 3.29158e-13 4.3109e-14
465 3 0.00928022 0.00643706 0.00634863 0.00125 2.04531e-05 1.45885e-13 2.22243e-14 -3.39517e-15
466 3 0.00105095 0.0151171 0.00239109 0.00125 2.04531e-05 -6.42279e-14 -8.12029e-13 1.83946e-13
467 3 0.00911798 0.00436004 0.0096004 0.00125 2.04531e-05 1.91058e-13 4.7725e-15 2.11604e-13
468 3 0.008418 0.00269916 0.00595766 0.00125 2.04531e-05 -3.25503e-13 3.05173e-14 -3.89049e-14
469 3 0.00875803 0.00885407 0.0123405 0.00125 2.04531e-05 7.14866e-16 2.9481e-14 -5.88413e-13
470 3 0.00811391 0.0112196 0.0121829 0.00125 2.04531e-05 -3.34492e-14 1.05086e-13 2.78729e-14
471 3 0.0127896 0.00366125 0.0107786 0.00125 2.04531e-05 1.62962e-13 6.11076e-14 4.84503e-14
472 3 0.0126608 0.0106238 0.0126686 0.00125 2.04531e-05 3.2529e-14 -1.13047e-13 2.24527e-14
473 3 0.011242 0.00963596 0.00352259 0.00125 2.04531e-05 -6.09999e-13 7.09253e-14 -2.06529e-13
474 3 0.0106131 0.00967901 0.0072566 0.00125 2.04531e-05 1.7122e-13 1.51986e-13 -5.76343e-13
475 3 0.00715322 0.00533106 0.00622825 0.00125 2.04531e-05 1.58435e-13 5.42183e-14 1.89639e-13
476 3 0.00266446 0.011467 0.00896511 0.00125 2.04531e-05 1.00159e-12 5.02022e-13 -2.76557e-13
477 3 0.00359403 0.00144697 0.0126623 0.00125 2.04531e-05 -1.15329e-13 -3.89875e-13 -5.58144e-13
478 3 0.0116419 0.0135771 0.0108081 0.00125 2.04531e-05 3.31611e-14 -2.05834e-16 -3.71423e-14
479 3 0.00651407 4.27207e-05 0.0135665 0.00125 2.04531e-05 6.52947e-14 3.52296e-13 -1.422e-13
480 3 0.00475882 0.00219162 0.00773205 0.00125 2.04531e-05 -1.08956e-13 4.89591e-13 5.0313e-15
481 3 0.0129111 0.00282115 0.00255538 0.00125 2.04531e-05 -2.8337e-14 2.9072e-13 -4.93466e-15
482 3 0.00177583 0.00204182 0.00120939 0.00125 2.04531e-05 -3.25438e-13 8.89783e-14 -1.66186e-14
483 3 0.0137533 0.0140677 0.00556156 0.00125 2.04531e-05 3.83914e-13 1.70561e-13 7.89216e-14
484 3 0.0119922 0.00596005 0.00330881 0.00125 2.04531e-05 -1.63273e-13 -2.71836e-14 9.37842e-14
485 3 0.0148733 0.00393738 0.00545689 0.00125 2.04531e-05 -2.06651e-13 -2.47696e-14 -1.00575e-13
486 3 0.00693098 0.0153382 0.00111819 0.00125 2.04531e-05 5.28065e-13 -1.06177e-14 5.07685e-14
487 3 0.0105144 0.0029798 0.0108948 0.00125 2.04531e-05 3.90204e-14 1.50513e-14 2.16341e-13
488 3 0.0152058 0.0145241 0.0127469 0.00125 2.04531e-05 -2.79912e-14 2.40496e-14 1.81161e-13
489 3 0.0106571 0.000294109 0.0141398 0.00125 2.04531e-05 1.7608e-15 6.65717e-14 8.36883e-15
490 3 0.00341924 0.00616293 0.0124575 0.00125 2.04531e-05 -1.00447e-14 8.69462e-14 -1.18169e-13
491 3 0.00371273 0.00108794 0.00591958 0.00125 2.04531e-05 5.05395e-13 -7.76175e-13 -1.89791e-13
492 3 0.0109584 0.0146306 0.0016838 0.00125 2.04531e-05 -8.57991e-14 -8.88565e-14 4.28386e-13
493 3 0.0128507 0.0150641 0.0131425 0.00125 2.04531e-05 5.84081e-14 1.51055e-13 -1.07523e-13
494 3 0.00970292 0.0042138 0.00727617 0.00125 2.04531e-05 2.58916e-14 -4.57693e-14 -3.34584e-13
495 3 0.013321 0.00639678 0.0105679 0.00125 2.04531e-05 -1.02014e-14 2.09802e-13 -1.37388e-14
496 3 0.000731434 0.00741224 0.00889609 0.00125 2.04531e-05 -8.38278e-14 -5.48746e-14 -1.84308e-14
497 3 0.0072244 0.00620828 0.00116065 0.00125 2.04531e-05 -8.87951e-15 -1.05933e-13 2.94871e-14
498 3 0.0069292 0.00384271 0.0128863 0.00125 2.04531e-05 -3.30683e-13 1.44142e-14 4.69727e-13
499 3 0.00582125 0.00219221 0.0142256 0.00125 2.04531e-05 -9.37074e-14 1.65608e-13 3.1736e-15
500 3 0.0150626 0.0121426 0.00595212 0.00125 2.04531e-05 4.23015e-13 -5.17253e-13 -1.28454e-13
