ITEM: TIMESTEP
250000
ITEM: NUMBER OF ATOMS
500
ITEM: BOX BOUNDS pp pp ff
0.0000000000000000e+00 1.5370634520482899e-02
0.0000000000000000e+00 1.5370634520482899e-02
0.0000000000000000e+00 1.5370634520482899e-02
ITEM: ATOMS id type x y z vx vy vz omegax omegay omegaz radius mass fx fy fz
1 1 1.209113385074e-02 1.311008718038e-02 4.074404203256e-03 -2.188554332261e+01 -2.263166830843e+00 -6.529910478475e+00 -1.102830430438e+04 1.107660747874e+04 -2.358332455668e+04 6.312500000000e-04 2.634103232899e-06 2.188637420782e-02 2.263252752030e-03 6.530158386693e-03
2 1 8.859197879910e-03 5.312078649196e-03 1.422655685127e-02 -3.878826787871e+00 -4.424599443370e+00 -4.988557310684e+00 -2.459484130818e+04 4.844347171854e+03 2.456213390866e+04 6.312500000000e-04 2.634103232899e-06 3.878974047629e-03 4.424767423401e-03 4.988746701390e-03
3 1 6.750505564268e-03 7.869166199234e-03 8.077943179682e-04 -6.280454478766e+00 -2.945971609943e+01 -3.663892855779e-01 -2.549999809977e+04 1.262424422131e+04 4.174694779314e+03 6.312500000000e-04 2.634103232899e-06 6.280692916381e-03 2.946083453830e-02 3.664031955565e-04
4 1 1.358966951089e-02 1.035951644605e-02 6.408187290301e-04 9.353580288448e+00 -5.684572562109e-01 1.572911272808e+00 7.858486455722e+03 1.714558247189e+03 -1.813987341733e+04 6.312500000000e-04 2.634103232899e-06 -9.353935397363e-03 5.684788377052e-04 -1.572970988425e-03
5 1 7.147225527515e-03 7.825383838708e-03 1.448668610121e-02 4.979307687368e+00 -2.443721768077e+01 -6.079818468361e+00 -3.966525077300e+04 -8.093585507629e+03 -3.284450780706e+04 6.312500000000e-04 2.634103232899e-06 -4.979496726911e-03 2.443814544036e-02 6.080049288825e-03
6 1 1.223482275882e-02 5.813296963840e-03 3.447594998213e-03 -2.085774255840e+01 -4.073731287870e-01 1.511561098226e+01 -1.791991253046e+04 1.664442158945e+04 -2.912162962062e+04 6.312500000000e-04 2.634103232899e-06 2.085853442313e-02 4.073885947182e-04 -1.511618484681e-02
7 1 1.434711576343e-02 4.572074501450e-04 7.025695501545e-03 -4.812436323614e+00 1.658671791485e+01 2.995415278451e+01 6.627929946263e+03 2.675562554119e+04 -2.065188497913e+03 6.312500000000e-04 2.634103232899e-06 4.812619027882e-03 -1.658734763002e-02 -2.995528999469e-02
8 1 1.016906860071e-02 1.433066215731e-02 3.513415932433e-03 7.422102204618e+00 -6.370253284587e+00 2.624302098282e+00 7.409346527196e+02 -2.328194017436e+04 -1.686553104729e+04 6.312500000000e-04 2.634103232899e-06 -7.422383984918e-03 6.370495131415e-03 -2.624401729978e-03
9 1 6.876774145975e-03 4.460272187876e-03 8.469765040796e-03 -2.658700494135e+01 -1.274267592735e+01 1.624258915506e+01 3.376607971899e+03 1.660737878270e+04 -7.559417062682e+03 6.312500000000e-04 2.634103232899e-06 2.658801431767e-02 1.274315970337e-02 -1.624320580537e-02
10 1 8.028952310859e-03 1.077072117238e-02 1.184313676405e-02 7.043214728338e+00 1.740656347339e+00 -3.489450072861e+00 3.697793842188e+03 -1.501653399195e+04 2.067081286249e+03 6.312500000000e-04 2.634103232899e-06 -7.043482124165e-03 -1.740722431402e-03 3.489582549923e-03
11 1 7.799837317248e-03 8.247312097660e-03 5.568556728162e-04 -2.131908080482e+01 -7.083743128372e+00 4.110190068719e+00 1.130163515983e+04 -3.401535373649e+04 5.056550222371e+03 6.312500000000e-04 2.634103232899e-06 -4.639697671251e-03 -1.476608843315e-03 5.055900295756e-02
12 1 2.496972883986e-03 5.909046482322e-03 7.510136551303e-04 3.974613935063e+00 7.067795719973e+00 7.109503068880e-01 2.596542015605e+03 9.224144449339e+03 -1.490829828994e+04 6.312500000000e-04 2.634103232899e-06 -3.974764831383e-03 -7.068064049018e-03 -7.109772981346e-04
13 1 4.337081650888e-03 1.241524418334e-02 1.065160079315e-02 -4.011045726429e+00 -1.323162574383e-01 -1.212395978970e+01 -1.324611190561e+04 -5.951225524051e+02 -1.306190030530e+04 6.312500000000e-04 2.634103232899e-06 4.011198005883e-03 1.323212808284e-04 1.212442007615e-02
14 1 3.519992517466e-04 1.397337947449e-02 1.021745546064e-02 1.700749486712e+01 6.923120304140e+00 1.887024915220e+00 -1.954389413144e+04 7.072940785420e+03 1.300907749770e+04 6.312500000000e-04 2.634103232899e-06 -1.700814055710e-02 -6.923383140579e-03 -1.887096556169e-03
15 1 1.188908531061e-02 8.092262102202e-03 5.619285529902e-03 -1.586770382784e+01 -6.377859512529e-01 1.205490294283e+01 1.354061515679e+03 -2.982433467509e+04 1.559312797412e+03 6.312500000000e-04 2.634103232899e-06 1.586830624562e-02 6.378101648128e-04 -1.205536060753e-02
16 1 2.628956186243e-03 3.386756869761e-03 1.098823981646e-03 -1.213756308343e+01 -1.966743995679e+01 -4.603574691338e+00 -1.170746893519e+04 -1.312295069853e+04 -2.648631377038e+04 6.312500000000e-04 2.634103232899e-06 1.213802388633e-02 1.966818663165e-02 4.603749466169e-03
17 1 5.966197555627e-03 1.146132882920e-02 1.246667907417e-02 -1.444324058835e+01 -4.112059402744e+01 2.501898232646e+01 2.856412491467e+03 1.515637288945e+04 -1.462437827956e+04 6.312500000000e-04 2.634103232899e-06 1.444378892635e-02 4.112215517184e-02 -2.501993217277e-02
18 1 1.313302461264e-02 1.166670074090e-02 1.071457636427e-02 1.691520271577e+01 -1.056770226031e+01 -9.404189644514e+00 3.693616027808e+04 2.252418951348e+04 1.102821598087e+04 6.312500000000e-04 2.634103232899e-06 -1.691584490187e-02 1.056810346340e-02 9.404546674814e-03
19 1 1.018827536871e-02 4.467784143798e-03 1.022032650143e-02 1.314343986034e+01 -1.136355283192e+01 -6.394583664274e+00 7.681248880573e+03 1.685506692366e+03 9.838861913918e+02 6.312500000000e-04 2.634103232899e-06 -1.314393885137e-02 1.136398424949e-02 6.394826434806e-03
20 1 9.692473205944e-03 1.329810386413e-02 9.810066939281e-03 -8.104058163787e+00 -2.110791863009e+01 1.397136787447e+01 7.051130078576e+03 -1.085340144722e+04 -4.311655752568e+03 6.312500000000e-04 2.634103232899e-06 8.104365834562e-03 2.110871999276e-02 -1.397189829781e-02
21 1 1.217704241356e-02 1.465165571572e-02 6.760887038384e-03 -1.873677180357e+01 -2.243160212106e+00 -1.343848101710e+01 -6.770497566486e+03 -3.911918328980e+04 -6.275327718491e+03 6.312500000000e-04 2.634103232899e-06 1.873748314559e-02 2.243245373741e-03 1.343899120937e-02
22 1 1.526247290188e-02 9.527561573739e-03 1.355517162622e-03 -1.022697940653e+01 1.178397396446e+01 -2.318119157002e+01 -5.208758516001e+04 1.568324796017e+04 5.947242253596e+03 6.312500000000e-04 2.634103232899e-06 1.022736767406e-02 -1.178442134333e-02 2.318207164455e-02
23 1 9.307107237229e-03 6.291743035584e-03 6.286997242880e-03 1.975687874415e+01 -7.565369653713e+00 1.342670956435e+01 7.183580440808e+03 -7.270504128009e+03 -3.418532722491e+03 6.312500000000e-04 2.634103232899e-06 -1.975762881455e-02 7.565656873165e-03 -1.342721930972e-02
24 1 2.296108225345e-05 8.034553281192e-03 1.457831196330e-02 3.715352480586e+00 -3.294832137117e+01 -1.859247230025e+00 -2.832193754234e+04 1.112182076088e+03 -4.145618147476e+03 6.312500000000e-04 2.634103232899e-06 -3.715493534037e-03 3.294957225503e-02 1.859317816393e-03
25 1 6.672652019848e-03 4.334924763605e-03 1.329964865265e-02 -1.129495704217e+01 -1.111225638392e+01 -3.665095801233e+00 -2.045019325139e+04 2.078714066774e+04 -2.595158211233e+02 6.312500000000e-04 2.634103232899e-06 1.129538585550e-02 1.111267826101e-02 3.665234946689e-03
26 1 1.468923885424e-03 7.418371873804e-03 2.487463709764e-03 1.916043944362e+00 -4.442476172517e+00 1.910479026060e+01 -6.133701282919e+03 1.858244801895e+04 2.160089159857e+03 6.312500000000e-04 2.634103232899e-06 -1.916116687019e-03 4.442644831239e-03 -1.910551557445e-02
27 1 1.256251527975e-02 7.838152927874e-03 8.481930680748e-03 2.788948197777e+01 1.223937793322e+01 3.383548281774e+00 -2.106544697381e+04 -2.007597580775e+04 -3.165453403653e+03 6.312500000000e-04 2.634103232899e-06 -2.789054080266e-02 -1.223984260152e-02 -3.383676738271e-03
28 1 4.522516521854e-03 3.588567752763e-03 5.067961138170e-03 -1.945756049520e+01 -1.618944758384e+00 -2.633610412059e+01 -7.940101483436e+03 -3.270127557497e+04 -2.674036517979e+04 6.312500000000e-04 2.634103232899e-06 1.945829920198e-02 1.619006221663e-03 2.633710397146e-02
29 1 2.413805104059e-04 3.421157549701e-03 6.013376549168e-03 -5.205576892030e+01 6.961016395265e-01 1.549681521102e+01 2.305318288874e+04 -2.546059259023e+04 5.324086196045e+03 6.312500000000e-04 2.634103232899e-06 5.205774521889e-02 -6.961280670431e-04 -1.549740354801e-02
30 1 7.196323832083e-03 1.733894457697e-03 1.302709594584e-02 -2.386563771697e+01 -3.073621206278e+00 -5.963570086255e+00 -4.253736896743e+03 -4.373515138571e+03 1.010548588633e+04 6.312500000000e-04 2.634103232899e-06 2.386654377651e-02 3.073737896385e-03 5.963796493346e-03
31 1 1.417106514898e-02 9.446597581064e-03 4.741210046337e-03 1.294972800715e+01 5.034148641616e+00 5.625240515602e+00 6.296793650629e+03 1.940040669434e+04 2.078228269960e+03 6.312500000000e-04 2.634103232899e-06 -1.295021964390e-02 -5.034339763198e-03 -5.625454078002e-03
32 1 2.054803636430e-03 1.253447788540e-02 7.366833046996e-03 1.725674936744e+01 -7.879611015817e+00 2.027260318093e+01 -3.070209439278e+03 -1.106330678617e+04 1.513859010932e+04 6.312500000000e-04 2.634103232899e-06 -7.663741928478e+00 -2.069842871844e+01 -2.022032123258e+00
33 1 8.377589318273e-03 7.844840788374e-03 1.488339248256e-02 -2.604516190174e+00 3.400057442081e+00 -1.504798176737e+01 5.340846841630e+03 4.215597941516e+03 1.354397239129e+03 6.312500000000e-04 2.634103232899e-06 -3.792366885271e-03 -6.136425686996e-03 7.441934790055e-01
34 1 2.816965202766e-03 5.539245922755e-03 1.398744992137e-02 -1.242415737707e+01 -4.390082834900e+00 9.386026057188e+00 -1.534947042667e+04 -2.119942870592e+04 -9.695989025441e+03 6.312500000000e-04 2.634103232899e-06 1.242462906052e-02 4.390249504507e-03 -9.386382397907e-03
35 1 6.609484207695e-03 4.626469364598e-03 7.020678393824e-04 -4.058194347206e+00 -2.237956061608e+01 6.431987166304e-01 8.946365202400e+03 1.120484745767e+04 -2.329752752232e+04 6.312500000000e-04 2.634103232899e-06 4.058348416658e-03 2.238041025667e-02 -6.432231356861e-04
36 1 2.105184187477e-03 2.107549007278e-03 3.259261875489e-03 -5.259952811957e+00 3.381752277734e+01 -6.746071288941e+00 -1.789394087720e+03 1.258365634562e+04 -1.317965032247e+04 6.312500000000e-04 2.634103232899e-06 -8.021288945388e+00 1.028755262444e+01 9.431196872642e+00
37 1 9.905508392975e-03 6.030982103746e-03 7.346981018397e-04 1.325333108125e+01 1.062193318754e+01 3.252370660066e+00 -1.704288882434e+04 2.143108216184e+04 2.485949808375e+04 6.312500000000e-04 2.634103232899e-06 -1.325383424430e-02 -1.062233644951e-02 -3.252494136402e-03
38 1 2.791192719170e-03 7.032747001193e-03 7.547093269888e-03 -2.847654071103e+01 -1.470616608824e-01 -8.073481957332e+00 1.061386675517e+04 4.513838274908e+03 -3.734024829579e+03 6.312500000000e-04 2.634103232899e-06 2.847762182362e-02 1.470672440821e-04 8.073788467280e-03
39 1 7.931191233530e-03 1.599514222016e-03 3.269963377697e-03 3.565684439085e+00 1.061348456153e+01 1.861547315077e+01 5.739134155557e+03 -1.216907507444e+04 -6.679274434949e+03 6.312500000000e-04 2.634103232899e-06 -3.565819810386e-03 -1.061388750274e-02 -1.861617988768e-02
40 1 1.475781682895e-02 1.270784828601e-02 9.407990142180e-03 -5.299854581083e+00 -2.527554385330e+01 -1.513583833420e+01 2.697628079927e+04 -2.182927597790e+03 8.520383708274e+03 6.312500000000e-04 2.634103232899e-06 5.300055790198e-03 2.527650343997e-02 1.513641296668e-02
41 1 5.944739315685e-03 2.105773573029e-03 2.849714743298e-03 -2.033560543106e+01 -6.583318548628e+00 3.731288331348e+00 7.317298863040e+03 -2.117598701202e+03 8.222047762998e+03 6.312500000000e-04 2.634103232899e-06 2.033637747284e-02 6.583568484485e-03 -3.731429989804e-03
42 1 3.401792565435e-03 3.139527436482e-03 1.682259936803e-03 7.414505343785e+00 1.094476023695e+01 1.565948473594e+01 -1.321513527288e+04 9.218872780670e+03 -6.281267904720e+03 6.312500000000e-04 2.634103232899e-06 -7.414786835670e-03 -1.094517575505e-02 -1.566007924868e-02
43 1 1.210927138140e-02 2.904941484013e-03 1.243421619288e-02 -2.013021749165e+01 -2.099680192742e+01 -6.215718864704e+00 -3.861778764544e+04 3.682606533263e+04 -1.179368729752e+04 6.312500000000e-04 2.634103232899e-06 2.013098173587e-02 2.099759907155e-02 6.215954844630e-03
44 1 1.493143412773e-02 8.251057433064e-03 1.059019649325e-02 4.562038866559e+00 1.823057858334e+01 3.889399513890e-02 3.162380165072e+04 -3.232769267750e+03 -1.464812963464e+04 6.312500000000e-04 2.634103232899e-06 -4.562212064481e-03 -1.823127070773e-02 -3.889547175042e-05
45 1 1.261823374825e-02 5.460251756264e-03 1.330300450535e-02 -9.124422544286e+00 6.040574168101e+00 -2.814415587329e+00 -2.312860649817e+04 5.576593566536e+03 6.160380864667e+03 6.312500000000e-04 2.634103232899e-06 9.124768953221e-03 -6.040803498653e-03 2.814522436689e-03
46 1 1.174620991708e-02 1.385203945670e-02 9.976017451754e-03 -2.408059106385e+00 -1.005573630834e+01 1.257051587385e+01 -1.175644052726e+04 1.747669027333e+04 8.551913460271e+03 6.312500000000e-04 2.634103232899e-06 2.408150528411e-03 1.005611807462e-02 -1.257099311381e-02
47 1 7.762705809435e-03 7.775855740664e-03 2.341271097953e-03 -4.359533132220e-01 1.172353386673e+01 4.021264310623e+00 1.766434825552e+04 -5.570096852051e+03 5.638192574908e+03 6.312500000000e-04 2.634103232899e-06 4.359698642007e-04 -1.172397895099e-02 -4.021416978025e-03
48 1 1.416910139919e-02 1.090748422612e-03 4.058978840300e-03 -1.339187113249e+01 2.149990255025e+01 -1.188339014183e+00 6.929947070448e+03 4.303299624523e+03 3.008021092348e+03 6.312500000000e-04 2.634103232899e-06 1.339237955522e-02 -2.150071879459e-02 1.188384129504e-03
49 1 6.186528590470e-03 2.941649861439e-04 1.433671824380e-02 -1.647358298500e+01 -5.725239181344e+00 -2.138950992473e+00 2.938644716962e+03 1.950291060435e+04 2.775563887543e+03 6.312500000000e-04 2.634103232899e-06 1.647420840500e-02 5.725456540195e-03 2.139032197802e-03
50 1 4.421059671576e-03 1.153118942054e-02 1.321207026031e-02 1.453215317318e+01 -2.163867718697e+01 -1.796193181281e+01 1.658001732957e+04 8.379197510747e+03 -1.650791176886e+04 6.312500000000e-04 2.634103232899e-06 -1.453270488675e-02 2.163949869990e-02 1.796261373801e-02
51 1 1.868218173022e-03 1.502079888084e-02 3.767493918036e-03 3.892266300538e+01 -2.093217900567e+01 -1.127323140626e+01 -2.784306579139e+04 1.775555358725e+04 1.072102679688e+04 6.312500000000e-04 2.634103232899e-06 -3.892414070528e-02 2.093297369638e-02 1.127365939478e-02
52 1 7.571995927714e-03 6.263796966732e-03 9.495251357411e-03 -3.930096384962e+01 -2.781780076876e+01 -2.571497116624e+00 -1.724321422637e+04 5.917592058104e+02 -2.568269077876e+04 6.312500000000e-04 2.634103232899e-06 3.930245591172e-02 2.781885687227e-02 2.571594743578e-03
53 1 7.999427679269e-03 1.189533576944e-02 1.287980455300e-03 -1.290010139525e+01 1.262866885403e+01 2.175016666390e+00 1.395973282803e+04 -9.496296883214e+03 -1.452788286218e+04 6.312500000000e-04 2.634103232899e-06 1.290059114793e-02 -1.262914830177e-02 -2.175099240954e-03
54 1 9.042330784358e-03 6.930261045689e-04 1.050931367496e-02 2.512924148335e+01 3.253310707270e+01 1.903372005023e+01 5.348898582230e+03 -1.367440985082e+04 -1.241816220846e+04 6.312500000000e-04 2.634103232899e-06 -2.513019551565e-02 -3.253434219295e-02 -1.903444266590e-02
55 1 2.361095979342e-03 1.181779396202e-02 6.297999939252e-03 -2.217957213877e+01 -4.717373627417e+01 -1.245089479645e+01 1.934424493549e+04 6.479429470788e+03 -8.882574444229e+03 6.312500000000e-04 2.634103232899e-06 2.218041418679e-02 4.717552722627e-02 1.245136749499e-02
56 1 6.737508402502e-03 4.714294864458e-03 6.535453555760e-03 -2.125141799173e+01 3.953187873426e+01 -2.243415509378e+01 2.662880941874e+04 -1.145623416678e+04 5.136677011603e+03 6.312500000000e-04 2.634103232899e-06 2.125222480235e-02 -3.953337956305e-02 2.243500680706e-02
57 1 9.917388517358e-03 1.142625078634e-03 2.093960877599e-03 -1.575708340326e+01 -7.763117664869e+00 2.364994979869e+01 5.281817242836e+03 -1.777669321433e+04 5.466352703494e+03 6.312500000000e-04 2.634103232899e-06 1.575768162133e-02 7.763412391829e-03 -2.365084766964e-02
58 1 7.872420400173e-03 7.650524067885e-03 6.180333009132e-03 -6.824886612379e-01 -1.870748665439e+01 5.875792274957e+00 -2.856519536713e+03 -2.250651789703e+03 -2.673537339077e+04 6.312500000000e-04 2.634103232899e-06 6.825145719374e-04 1.870819688460e-02 -5.876015349561e-03
59 1 2.329718960703e-03 8.160815429056e-03 5.037036519087e-03 -1.309537080996e+01 -6.286004232394e+00 -1.613513157507e+01 1.395793578934e+03 -3.659574761510e+03 6.301227383790e+03 6.312500000000e-04 2.634103232899e-06 1.309586797605e-02 6.286242880705e-03 1.613574414575e-02
60 1 1.213015527739e-02 5.856796013919e-03 6.632069216426e-03 -1.548642773007e+01 5.321238380124e+01 -1.364058365403e+01 -3.777109211136e+04 -1.341067700164e+04 -1.496051692766e+04 6.312500000000e-04 2.634103232899e-06 1.548701567269e-02 -5.321440401075e-02 1.364110151914e-02
61 1 3.330796520144e-03 1.229239762974e-02 7.948872868050e-03 3.968081847952e+00 1.150343218312e+01 5.583948325479e+00 1.140132252671e+04 -1.102108798033e+04 1.010596110780e+04 6.312500000000e-04 2.634103232899e-06 -3.968232496281e-03 -1.150386891122e-02 -5.584160320220e-03
62 1 1.437016869117e-02 5.813583692605e-03 5.637636183528e-03 2.267650547107e+01 2.300052718794e+01 -1.771696962440e+01 -2.777271337614e+03 -2.757157367935e+04 -3.732436718310e+03 6.312500000000e-04 2.634103232899e-06 -2.267736638518e-02 -2.300140040354e-02 1.771764224960e-02
63 1 9.423236809587e-03 1.109123444785e-02 9.386733004169e-03 6.417224150947e+00 -7.739214327028e+00 3.105530028996e+00 -9.575718848157e+03 -1.091889478376e+04 -1.590139018626e+04 6.312500000000e-04 2.634103232899e-06 -6.417467781026e-03 7.739508146498e-03 -3.105647930523e-03
64 1 1.046774737979e-02 8.864483633296e-03 3.063222067586e-03 -6.046487186472e+00 3.904646026797e+01 3.833223159887e+00 1.697972854839e+04 -9.495268987289e+03 -2.391254578157e+04 6.312500000000e-04 2.634103232899e-06 6.046716741513e-03 -3.904794266783e-02 -3.833368688302e-03
65 1 1.098028370032e-02 1.819831979886e-03 1.324089651312e-02 -3.042802667521e+01 -7.454052511292e-01 -6.800264734940e+00 -9.693411369340e+03 -1.288505676084e+03 -7.013970716345e+03 6.312500000000e-04 2.634103232899e-06 3.042918187602e-02 7.454335504586e-04 6.800522907165e-03
66 1 6.575158032391e-04 1.462004890330e-02 2.376368238744e-03 -1.705334853540e+00 -6.884674095579e+00 -7.247816323013e+00 -1.270757340823e+04 -1.650434244967e+04 -8.235389887844e+03 6.312500000000e-04 2.634103232899e-06 1.705399596622e-03 6.884935472407e-03 7.248091486545e-03
67 1 2.337538493600e-03 4.905895737620e-03 2.774605853886e-03 7.790059092383e-01 -6.023870851807e+00 1.695790188826e+01 7.385550378591e+03 -4.190810321886e+04 -1.257681721144e+04 6.312500000000e-04 2.634103232899e-06 -7.790354842175e-04 6.024099548217e-03 -1.695854569544e-02
68 1 8.330241507910e-03 1.464580125155e-02 1.351309673327e-02 -2.646720811940e+01 -2.964019855091e+01 1.029506511963e+01 -1.041217572592e+04 3.169297680535e+03 1.240073342779e+04 6.312500000000e-04 2.634103232899e-06 2.646821294763e-02 2.964132384181e-02 -1.029545597204e-02
69 1 8.665476563636e-03 1.316919433551e-02 1.479738152193e-02 -3.353517448299e+01 -2.066352749693e+01 -2.459843258551e-01 -1.047284340025e+04 2.318545718908e+04 -2.194689449051e+04 6.312500000000e-04 2.634103232899e-06 1.851642347793e-01 1.335839103485e-01 -3.778641570826e-01
70 1 4.430918439569e-03 5.269318128903e-04 3.674750978282e-04 -1.270420885700e+01 -6.409050699842e+00 -9.950275026728e+00 4.621384623329e+03 -6.441441785673e+03 -4.831707697123e+03 6.312500000000e-04 2.634103232899e-06 -7.582038903484e+00 6.150856772027e-01 -6.023631703911e+00
71 1 1.216351551399e-02 7.414394505422e-03 6.113194586433e-03 -2.444565683551e+01 1.923909881030e+01 -2.583823773074e+01 7.149591001960e+03 4.039735655896e+03 1.234666909143e+04 6.312500000000e-04 2.634103232899e-06 2.444658491549e-02 -1.923982922318e-02 2.583921868010e-02
72 1 9.719749860365e-03 1.306391045254e-02 2.295859203887e-03 -7.505053180828e+00 3.571020260995e+01 8.366346178447e+00 6.394447018647e+03 3.188899642518e+03 3.644540304373e+04 6.312500000000e-04 2.634103232899e-06 7.505338110364e-03 -3.571155834870e-02 -8.366663806994e-03
73 1 9.611916928637e-03 9.905236818692e-03 8.587444273948e-03 -4.835201155604e+00 1.151989106821e+01 7.085591013444e+00 -2.039185051083e+03 1.660721572160e+04 8.569980748667e+03 6.312500000000e-04 2.634103232899e-06 1.749307896687e+01 -1.795156903142e+01 1.341626558963e+01
74 1 1.815189770649e-03 9.935450518820e-03 6.292027475053e-04 2.774064507091e+01 1.484320600882e+01 -1.788411832658e+01 -6.351008572148e+03 3.101227708492e+03 -1.359071578158e+04 6.312500000000e-04 2.634103232899e-06 -4.678673305231e-01 -1.997886278173e-01 9.726940406427e-01
75 1 1.461260592080e-02 2.004289752190e-03 9.982276639734e-03 1.025837842198e+01 -4.732079624413e+00 -3.265761315887e+00 -6.015082811206e+03 -2.381786238961e+03 -1.201733126444e+04 6.312500000000e-04 2.634103232899e-06 -1.025876788158e-02 4.732259277937e-03 3.265885300599e-03
76 1 1.451640358656e-02 1.327263610251e-02 1.090327744968e-02 5.591516811636e+00 -1.185622970459e+01 2.174708971431e+01 9.878260768315e+03 -5.279731217940e+03 1.051031252671e+04 6.312500000000e-04 2.634103232899e-06 -5.591729093715e-03 1.185667982665e-02 -2.174791534312e-02
77 1 9.099168485318e-03 7.250440531381e-03 3.686613803846e-03 3.130302721306e+00 -2.802328842133e+01 1.020794280957e+01 -3.233043118848e+04 -1.937743386580e+04 -2.695583496165e+04 6.312500000000e-04 2.634103232899e-06 -3.130421563328e-03 2.802435232619e-02 -1.020833035438e-02
78 1 1.365933487136e-02 1.287326327119e-02 9.856890193246e-03 -2.259652439605e+00 -3.765501678749e+00 1.710589464257e+01 6.420095236057e+03 -1.561273619388e+04 1.386654344344e+04 6.312500000000e-04 2.634103232899e-06 2.259738227367e-03 3.765644636116e-03 -1.710654406830e-02
79 1 1.183375823441e-02 8.902019945539e-03 8.535937072254e-03 1.549770790859e+01 -3.061468961148e+01 -1.111276404569e+01 -1.988646764474e+04 -1.150787786072e+04 -2.446979076760e+04 6.312500000000e-04 2.634103232899e-06 -1.549829627947e-02 3.061585189895e-02 1.111318594206e-02
80 1 9.094290103895e-03 1.000135367683e-02 9.779145088731e-03 -1.682143286472e+01 1.973800780159e+01 -1.418490177509e+01 -8.879117057033e+03 -3.832649851473e+03 2.890456516405e+03 6.312500000000e-04 2.634103232899e-06 1.682207149085e-02 -1.973875715556e-02 1.418544030525e-02
81 1 2.207880496076e-03 9.405949882071e-03 1.339229831186e-02 -8.864808120469e+00 -1.351854963946e+01 4.879799016340e+00 -3.318511357893e+03 1.079498866952e+04 1.364243988613e+04 6.312500000000e-04 2.634103232899e-06 8.865144673136e-03 1.351906287154e-02 -4.879984278034e-03
82 1 1.357090750663e-02 1.007386162366e-03 1.383783363369e-03 -2.950408253162e+00 -3.974303768594e+00 3.767138515133e+00 6.830762814814e+03 -4.992712205619e+03 -2.231967936885e+04 6.312500000000e-04 2.634103232899e-06 2.950520265487e-03 3.974454653138e-03 -3.767281534643e-03
83 1 1.468509670975e-03 7.407797394312e-03 4.580820257546e-04 1.187563018861e+01 -1.832417908224e+01 -1.775877274881e+00 1.953888155040e+04 9.553536050525e+03 -5.497238451082e+03 6.312500000000e-04 2.634103232899e-06 -6.775351922628e-01 6.930570375829e-01 2.399861942659e+00
84 1 1.421645174292e-02 1.253924905217e-02 1.193667962126e-02 -4.409604236306e+00 1.268687623486e+00 -6.041298889055e+00 1.965060396237e+04 1.350440471707e+04 -4.622004734467e+03 6.312500000000e-04 2.634103232899e-06 -6.452179787824e+00 -1.762982945367e+01 1.970517635199e+00
85 1 2.277443372154e-03 8.941076082477e-03 1.466888793721e-02 -1.727775520199e+01 -1.554760187274e+01 3.344058418401e+00 -5.613683366455e+03 1.104049942971e+04 -1.564550328427e+04 6.312500000000e-04 2.634103232899e-06 1.727841115240e-02 1.554819213785e-02 -3.344185375664e-03
86 1 1.224944247492e-02 1.100534770284e-02 1.760819256720e-03 2.420593926707e+01 1.432560377358e+01 -2.875013360824e+01 -1.301498133200e+04 2.424933361787e+03 1.692790425951e+04 6.312500000000e-04 2.634103232899e-06 -2.420685824618e-02 -1.432614764549e-02 2.875122510779e-02
87 1 1.773377035458e-03 1.075583116075e-02 1.124352083397e-02 -4.970431050562e+00 -1.834856515713e+01 1.643169685685e+01 -6.905660854754e+03 3.084968669627e+04 -2.273636756469e+04 6.312500000000e-04 2.634103232899e-06 4.970619753103e-03 1.834926176087e-02 -1.643232068664e-02
88 1 1.380766998237e-02 4.048809493376e-03 1.471469825849e-02 -2.517359039048e+01 -8.213776344139e+00 -4.068577787320e-01 4.403184403452e+03 1.806832850862e+04 1.957040336677e+03 6.312500000000e-04 2.634103232899e-06 2.517454610648e-02 8.214088180368e-03 4.068732250979e-04
89 1 8.765381046762e-03 1.487886448340e-02 4.514171227514e-03 3.177775651216e-01 -1.195000107416e+01 6.692250932917e+00 2.302108101711e+04 -4.869328969406e+02 -8.205492414528e+02 6.312500000000e-04 2.634103232899e-06 -3.177896295550e-04 1.195045475626e-02 -6.692505004394e-03
90 1 3.211499938188e-03 8.171311216477e-03 6.461244364607e-03 -2.940604499774e+01 -9.657516362812e+00 2.629153454242e+01 -2.710049520060e+04 -1.870175117530e+04 -1.109707791876e+04 6.312500000000e-04 2.634103232899e-06 2.940716139898e-02 9.657883010667e-03 -2.629253270120e-02
91 1 1.427068265448e-02 1.005751042255e-02 1.081859753491e-03 3.004328698137e+01 8.887979191058e-01 9.100174262220e+00 -2.815861909060e+04 2.850584854533e+04 8.552904858070e+03 6.312500000000e-04 2.634103232899e-06 -3.004442757552e-02 -8.888316623415e-04 -9.100519750568e-03
92 1 6.591408594566e-03 4.912465562947e-03 2.413703988498e-03 -7.649843120412e+00 -8.938731052587e+00 5.265583250169e+00 -1.342919735017e+04 1.736087872707e+04 8.013184208190e+03 6.312500000000e-04 2.634103232899e-06 7.650133546901e-03 8.939070411740e-03 -5.265783158172e-03
93 1 6.842775242186e-05 5.104654092997e-03 4.221837539991e-03 7.016771788381e+00 5.599598044693e+00 3.452709268146e+01 2.585114954982e+03 1.824023333211e+02 -7.078595462433e+03 6.312500000000e-04 2.634103232899e-06 -7.017038180301e-03 -5.599810633576e-03 -3.452840350342e-02
94 1 2.536370112046e-04 4.590563808343e-03 6.419570789208e-03 4.049247092891e+00 1.300008247226e+00 -7.901349107411e+00 1.472982508680e+04 1.508347602480e+03 9.028817405415e+03 6.312500000000e-04 2.634103232899e-06 -4.049400822660e-03 -1.300057602072e-03 7.901649082332e-03
95 1 5.614510027162e-03 4.317686136286e-03 1.464228546656e-02 -1.012051123683e+01 1.221413432059e+01 -3.164134321447e-01 -3.510625945330e+03 -4.652389376680e+02 -6.119578391955e+03 6.312500000000e-04 2.634103232899e-06 1.012089546230e-02 -1.221459803051e-02 3.164254447888e-04
96 1 1.028954300144e-02 5.421655397604e-04 1.229621705637e-02 7.253923143836e+00 -2.207062237746e+00 -1.186081735098e+01 1.448343233882e+04 -3.944543888589e+02 2.215217455279e+04 6.312500000000e-04 2.634103232899e-06 -7.254198539213e-03 2.207146028920e-03 1.186126764721e-02
97 1 4.524477719690e-03 6.702077557978e-03 8.122460985011e-04 2.260132325050e+01 -1.235289377847e+00 4.770614071650e-01 3.099346391661e+04 2.708663020389e+04 -2.224122190311e+03 6.312500000000e-04 2.634103232899e-06 -2.260218131032e-02 1.235336275640e-03 -4.770795188135e-04
98 1 3.714667742726e-03 3.463979222092e-03 6.949266920273e-04 1.247959806504e+01 1.269949867581e+01 8.595862507657e+00 -2.048682008964e+04 1.996002255810e+04 -2.454873951952e+04 6.312500000000e-04 2.634103232899e-06 -1.248007185330e-02 -1.269998081260e-02 -8.596188849797e-03
99 1 5.218948781772e-03 8.592450808086e-03 1.078825946591e-02 -1.576926936476e+01 -4.209863869820e+00 1.076344800869e+00 -1.811407675681e+04 3.643269008422e+03 -1.998873176416e+04 6.312500000000e-04 2.634103232899e-06 1.576986804547e-02 4.210023697409e-03 -1.076385664326e-03
100 1 5.711766186524e-03 5.649494532231e-03 1.571451596694e-03 -1.012509132658e+01 9.951184761741e+00 -3.989295082351e+00 1.025588225466e+04 -6.026147350440e+03 -7.439918796781e+03 6.312500000000e-04 2.634103232899e-06 1.012547572593e-02 -9.951562558725e-03 3.989446536041e-03
101 2 5.516189063948e-03 9.127150053781e-03 1.042982690745e-02 3.959375451734e+00 8.234224332722e-01 1.636403327815e+01 -3.400039741901e+03 -3.111420787322e+03 6.210159745968e+03 8.416666666667e-04 6.243800255760e-06 -3.959438865660e-03 -8.234356213242e-04 -1.636429536686e-02
102 2 7.283248810007e-03 7.879661952499e-03 1.033228186250e-02 7.906201561092e-01 5.595809678437e+00 -7.254135321374e+00 -1.220916258632e+04 -8.467457194368e+03 2.266841421573e+03 8.416666666667e-04 6.243800255760e-06 -7.906328187952e-04 -5.595899301729e-03 7.254251504647e-03
103 2 8.800539652412e-03 2.789424635183e-03 1.278541906751e-02 -8.759757352759e+00 -3.517006014286e-01 -1.007885542449e+01 -6.442845439099e+02 -3.920723373492e+03 -5.335473558274e+03 8.416666666667e-04 6.243800255760e-06 8.759897650291e-03 3.517062343160e-04 1.007901684889e-02
104 2 6.331620936368e-03 9.196416511661e-03 1.241538045298e-02 3.541327893020e-01 4.532645622816e+00 -1.321674238263e+01 -2.623826699646e+03 1.127862763968e+04 -3.812678700193e+03 8.416666666667e-04 6.243800255760e-06 -1.496265744869e+01 1.796555298395e+01 1.636106650041e+01
105 2 7.016689219556e-03 2.647334480309e-03 9.545571704625e-04 2.028337785165e+01 2.139563456566e+01 -1.773433263984e+01 1.171083785961e+04 -5.899059686399e+03 -1.048225740063e+03 8.416666666667e-04 6.243800255760e-06 2.322261242008e+01 1.605437351043e+00 -1.586971377964e+01
106 2 7.480366281329e-03 1.183021213020e-02 8.682056838566e-03 1.023465110280e+01 -5.407647665517e+00 9.553089496054e-01 8.072765199501e+03 1.168852371631e+04 4.390556850731e+02 8.416666666667e-04 6.243800255760e-06 -1.023481502245e-02 5.407734275178e-03 -9.553242499707e-04
107 2 7.665989983899e-03 1.858601341652e-03 4.285483019226e-03 -1.453139960156e+01 -2.058088250545e+01 4.021821252665e-01 -2.003783261584e+04 -8.895467415224e+03 -1.436822459928e+04 8.416666666667e-04 6.243800255760e-06 1.453163233855e-02 2.058121213182e-02 -4.021885666731e-04
108 2 4.137516023027e-03 1.503940037339e-02 6.879493377952e-04 1.972208925056e+01 2.925716210355e+01 -9.456274959735e+00 1.160991622575e+04 -8.967265145448e+02 1.075965741422e+04 8.416666666667e-04 6.243800255760e-06 -3.928536126932e-01 -7.430436210932e-01 4.500066753095e+00
109 2 6.573767222745e-03 5.086090409484e-03 7.753054420323e-03 -4.663240997884e+00 -8.537202043025e+00 -5.057593814032e-01 -2.420824533720e+03 3.370926385667e+02 -4.568891046022e+02 8.416666666667e-04 6.243800255760e-06 4.663315685022e-03 8.537338776079e-03 5.057674817181e-04
110 2 2.540271607630e-03 1.667654061330e-03 2.892944615375e-03 -1.700519715730e+01 3.650000072984e+01 -7.429809726947e+00 4.970867246897e+03 7.349489784911e+03 -2.573863400622e+03 8.416666666667e-04 6.243800255760e-06 8.043378400319e+00 -1.035764548246e+01 -9.416813768215e+00
111 2 1.110914555303e-02 5.322418877911e-04 1.150513543740e-03 1.662434340881e+01 -1.944832103488e+01 -1.775182226407e+00 1.308910278217e+04 5.821411815695e+03 -3.023272360570e+03 8.416666666667e-04 6.243800255760e-06 -1.662460966668e-02 1.944863252198e-02 1.775210657981e-03
112 2 5.279449848441e-03 2.017302027261e-03 4.899795250803e-03 -1.271528502138e+01 4.449147447563e+01 2.919686811905e+00 -1.759181841480e+04 2.184880478655e+04 -1.036389858752e+04 8.416666666667e-04 6.243800255760e-06 1.271548867121e-02 -4.449218705747e-02 -2.919733574029e-03
113 2 5.353077227390e-03 1.502280906905e-02 6.809798567928e-03 -1.776654887233e+01 -2.456121734110e+01 -7.724643256406e-01 5.521743012980e+03 -9.609500220350e+02 6.384883362970e+03 8.416666666667e-04 6.243800255760e-06 1.776683342392e-02 2.456161071708e-02 7.724766975402e-04
114 2 1.024122053251e-02 5.407593339863e-03 9.734843192057e-04 -1.381701455863e+01 -1.984484243130e+00 -1.196212617529e+01 -5.090891033456e+03 3.222982424047e+03 -1.219254901957e+04 8.416666666667e-04 6.243800255760e-06 1.381723585392e-02 1.984516026915e-03 1.196231776242e-02
115 2 9.291380574841e-03 2.584633508270e-03 1.060051221679e-02 1.663604726470e+01 1.126608275437e+00 2.850929847571e+01 3.809016308528e+03 -3.799701209387e+03 5.036615690678e+03 8.416666666667e-04 6.243800255760e-06 -1.663631371003e-02 -1.126626319357e-03 -2.850975508473e-02
116 2 9.983327236437e-03 2.829037520582e-03 1.354395229036e-02 -4.294868322709e+00 8.358658043097e+00 -3.929876975254e+00 1.043809414176e+04 5.354436119632e+03 1.938781829513e+04 8.416666666667e-04 6.243800255760e-06 4.294937109937e-03 -8.358791916564e-03 3.929939916728e-03
117 2 1.372067288745e-02 5.320111603793e-03 1.249537883414e-03 6.682845044640e+00 -4.763665402943e+00 2.827794722559e+00 3.511830383636e+03 1.026326321681e+04 -2.828812157394e+02 8.416666666667e-04 6.243800255760e-06 -6.682952078046e-03 4.763741698492e-03 -2.827840012925e-03
118 2 9.358724327423e-03 6.915459904715e-03 1.218904362367e-02 -1.948037347325e+01 -1.042987749974e+01 1.779102177828e+01 1.099413380664e+04 -1.198051205091e+04 2.278407249510e+03 8.416666666667e-04 6.243800255760e-06 1.948068547371e-02 1.043004454616e-02 -1.779130672184e-02
119 2 8.754864493669e-03 1.366160580594e-02 1.007631141370e-02 9.266820111008e+00 5.967972597159e+00 -1.177386466221e+01 3.525739955740e+03 7.760170611195e+03 9.433344828184e+03 8.416666666667e-04 6.243800255760e-06 -9.266968529730e-03 -5.968068181065e-03 1.177405323411e-02
120 2 5.903653585909e-03 3.390454125661e-03 1.458611209330e-02 -2.106977589696e+01 -1.380012148004e+01 -2.578377093218e+00 -1.024262438390e+04 7.241577885592e+03 -1.234757389954e+04 8.416666666667e-04 6.243800255760e-06 5.039758187281e-02 2.391652558792e-02 6.462477428258e-02
121 2 1.552318898252e-03 3.088391499190e-03 7.035792713123e-03 5.389578972767e+00 -1.754789006652e+01 -2.090467461969e+01 1.998740460776e+03 -1.310754279392e+04 -9.004366030501e+03 8.416666666667e-04 6.243800255760e-06 -5.389665293038e-03 1.754817111605e-02 2.090500943196e-02
122 2 2.011440059034e-03 2.650696402280e-03 5.823581869692e-03 -1.379924607906e+01 2.038179165636e+00 -1.414963319459e+01 -1.288195988437e+03 9.198930522873e+03 2.355265628425e+03 8.416666666667e-04 6.243800255760e-06 1.379946708976e-02 -2.038211809406e-03 1.414985981715e-02
123 2 1.282411780579e-02 6.800513560803e-04 1.378288929591e-02 1.386775422918e+00 1.316881404668e+00 -1.472368442788e+00 -9.457076682475e+02 7.962606818618e+03 -6.940913602915e+03 8.416666666667e-04 6.243800255760e-06 -1.386797633713e-03 -1.316902496030e-03 1.472392024452e-03
124 2 1.977006794785e-03 3.099549689904e-03 3.581542505124e-03 1.643686625317e+01 2.519802669547e+01 2.011761411664e+01 1.329716362848e+04 1.531417113477e+04 -2.098332153559e+03 8.416666666667e-04 6.243800255760e-06 -1.643712950838e-02 -2.519843027068e-02 -2.011793632324e-02
125 2 6.332427876360e-03 1.241516555188e-02 1.168832859018e-02 -3.102765360696e+00 7.837651711764e+00 4.036509760578e+00 1.605724061533e+04 1.970652269054e+03 8.746176130547e+03 8.416666666667e-04 6.243800255760e-06 3.102815055031e-03 -7.837777240719e-03 -4.036574409898e-03
126 2 1.391346078250e-02 1.009408830848e-02 7.377126539158e-03 7.668357374037e+00 -7.991633825418e+00 -2.427415241348e+00 2.743645227718e+03 -1.041619417134e+04 -6.865469833563e+03 8.416666666667e-04 6.243800255760e-06 -7.668480191550e-03 7.991761820574e-03 2.427454119179e-03
127 2 3.926858648029e-03 8.605056716336e-03 7.729973053804e-03 -2.491161980021e+01 3.432456075143e+00 1.822801449539e+01 5.753122755264e+02 -1.432416301469e+04 9.301194941955e+03 8.416666666667e-04 6.243800255760e-06 2.491201878829e-02 -3.432511049852e-03 -1.822830643789e-02
128 2 1.216946226247e-03 5.419245751653e-03 7.677499433902e-03 4.510839922734e+00 2.085718592987e+01 -2.100674332799e+01 -6.464069851769e+03 -5.301937467302e+03 -3.847684147232e+03 8.416666666667e-04 6.243800255760e-06 -4.510912168994e-03 -2.085751998155e-02 2.100707977501e-02
129 2 2.028557474134e-03 8.709920297954e-03 1.141723296612e-02 7.989156891739e+00 2.996451261410e+00 -2.327315805846e-01 -5.290716649139e+03 -4.723398905943e+03 -3.092194145138e+03 8.416666666667e-04 6.243800255760e-06 -7.989284847223e-03 -2.996499253004e-03 2.327353080470e-04
130 2 4.958771455096e-03 1.425863758370e-02 3.999643971462e-03 -5.221112339934e+00 2.780273896345e+00 -1.343611710859e+01 -1.363244978706e+04 5.078929613716e+03 7.237369568793e+03 8.416666666667e-04 6.243800255760e-06 5.221195962019e-03 -2.780318425611e-03 1.343633230337e-02
131 2 1.196143678937e-02 1.206330941956e-02 1.029166539116e-02 5.243886780527e+00 -1.872138999180e+01 1.881369877323e+01 -1.029012218581e+04 3.616596317671e+03 6.312846774413e+03 8.416666666667e-04 6.243800255760e-06 -5.243970767371e-03 1.872168983627e-02 -1.881400009613e-02
132 2 5.061168802507e-03 9.105367228809e-04 1.461235490377e-02 1.363582908665e+01 2.215456072091e+01 -1.984814836241e+00 -3.400188019759e+03 3.349801369772e+03 5.276977013945e+03 8.416666666667e-04 6.243800255760e-06 -1.152580601752e-01 -1.766263651650e-01 -3.678175990663e-01
133 2 1.420440583513e-02 1.105588014742e-02 1.795888829461e-03 -1.425144970540e+01 2.733411200357e+01 -5.465682274830e+00 -2.523256922850e+03 -5.146927146573e+03 -1.008267766574e+04 8.416666666667e-04 6.243800255760e-06 1.425167795867e-02 -2.733454979064e-02 5.465769813982e-03
134 2 2.977385328878e-03 6.501144528721e-03 1.352488416681e-02 1.789472584961e+01 9.115533709255e+00 1.664959130500e+01 -2.414563051694e+03 -2.321874813094e+04 8.930710129865e+03 8.416666666667e-04 6.243800255760e-06 -1.789501245411e-02 -9.115679704952e-03 -1.664985796724e-02
135 2 1.286838438711e-02 7.373782316272e-03 7.959713205466e-03 9.231563367688e-01 1.665602256703e+01 -6.746632649646e-01 -5.993050924251e+03 -5.310083014801e+03 1.925304623717e+04 8.416666666667e-04 6.243800255760e-06 -9.231711221733e-04 -1.665628933228e-02 6.746740704684e-04
136 2 9.387672911623e-03 8.683933070322e-03 1.095979764438e-03 -1.360314695468e+01 -1.107143056174e+01 4.619742839216e+00 4.323664619579e+03 -1.877040717278e+04 -7.260431795141e+03 8.416666666667e-04 6.243800255760e-06 1.360336482464e-02 1.107160788337e-02 -4.619816829681e-03
137 2 8.789416707022e-03 1.176053003517e-02 4.379851805215e-03 1.391366702748e+01 4.049819214042e+00 -1.277320590513e+01 9.635583312013e+03 -8.392835765799e+03 1.560778480853e+02 8.416666666667e-04 6.243800255760e-06 -1.391388987077e-02 -4.049884076528e-03 1.277341048263e-02
138 2 1.004754066236e-02 9.458106461796e-03 7.628346477352e-04 -1.899746523144e+01 -8.561700864684e+00 3.079937715945e+00 -1.079057699338e+04 -1.344305134469e+04 1.096588292847e+03 8.416666666667e-04 6.243800255760e-06 3.286309784673e-02 4.053907210567e-02 6.662771215451e-02
139 2 7.454794134430e-03 3.209705694263e-03 1.082723555127e-02 1.588908191384e+01 -1.683708423089e+01 9.901514560760e+00 -2.004663059586e+04 -1.370691048047e+04 6.571625949086e+03 8.416666666667e-04 6.243800255760e-06 -1.588933639566e-02 1.683735389605e-02 -9.901673144839e-03
140 2 1.352499337017e-02 7.320971894558e-03 6.630997215868e-03 1.061372145374e+01 1.920470775068e+01 -1.140792083530e+01 -1.527728474657e+04 -4.042406692365e+03 -4.210348688657e+03 8.416666666667e-04 6.243800255760e-06 -1.061389144463e-02 -1.920501533604e-02 1.140810354620e-02
141 2 8.605245606237e-03 9.798994267834e-03 1.032907847561e-03 -2.104994608255e+01 -4.853247532877e+00 3.055664197422e+00 -7.446064778956e+03 9.996474751682e+03 -1.008200780280e+03 8.416666666667e-04 6.243800255760e-06 2.105028322151e-02 4.853325263186e-03 -3.055713137379e-03
142 2 6.285709001649e-03 2.359586389267e-03 1.227796737888e-02 1.492023057192e+01 -2.537070439036e+01 -6.594727103134e+00 -1.491935673847e+04 -1.825160805959e+04 3.224326607121e+03 8.416666666667e-04 6.243800255760e-06 -1.492046953648e-02 2.537111073120e-02 6.594832725230e-03
143 2 1.361956627716e-02 6.650506708440e-03 1.129392722459e-03 -9.035648812256e+00 -7.924822347843e+00 6.602326913274e+00 9.796714845858e+03 -1.094959574688e+04 1.843672689741e+02 8.416666666667e-04 6.243800255760e-06 9.035793528505e-03 7.924949272936e-03 -6.602432657090e-03
144 2 1.109487311825e-02 1.474761257937e-02 1.262806528713e-02 -5.738469137045e+00 1.099577245824e+01 1.749114018251e+01 -3.026252385089e+03 5.676251375663e+03 6.691170742722e+03 8.416666666667e-04 6.243800255760e-06 5.738561045191e-03 -1.099594856811e-02 -1.749142032313e-02
145 2 2.085647941073e-03 9.655139158106e-05 1.399709122227e-02 2.201764199135e+01 6.096904027949e+00 6.977941095523e+00 1.333915679494e+04 1.609066510202e+03 1.409434328152e+04 8.416666666667e-04 6.243800255760e-06 -2.201799462907e-02 -6.097001676839e-03 -6.978052855229e-03
146 2 9.078918829897e-03 8.492645346807e-04 1.356267885892e-02 -5.956697640351e+00 1.218139920089e+01 -4.674940067539e+00 1.496729432598e+04 7.259035442225e+03 -9.127446093731e+03 8.416666666667e-04 6.243800255760e-06 5.956793043675e-03 -1.218159429993e-02 4.675014942051e-03
147 2 6.496649754246e-03 1.366049889037e-02 2.042132771926e-03 4.452580632368e+00 -2.149696082345e+01 2.896497557539e+00 1.665903290561e+03 8.121811043619e+03 1.569017538051e+03 8.416666666667e-04 6.243800255760e-06 -4.452651945539e-03 2.149730512186e-02 -2.896543948260e-03
148 2 9.729552997944e-03 4.721389654927e-03 1.456777945848e-02 -3.289300526744e+00 3.429486267419e+00 -4.738020300206e+00 3.890886578485e+03 3.941428829137e+03 1.295119213558e+04 8.416666666667e-04 6.243800255760e-06 -1.431842901041e-03 -2.728527146944e-02 6.185666871553e-01
149 2 1.847329521566e-03 4.740814996406e-03 1.088333506003e-03 1.286502744674e+01 -2.174440703006e+01 -7.059951900001e+00 1.185917788853e+04 6.985221303839e+03 7.446504537287e+03 8.416666666667e-04 6.243800255760e-06 -1.286523349486e-02 2.174475529161e-02 7.060064973205e-03
150 2 1.194318797520e-02 6.489781038466e-03 2.587404162550e-03 -1.972931147288e+01 -3.636852466500e+00 8.070700653035e+00 -1.153238170334e+04 -2.007725144759e+04 2.055927252235e+03 8.416666666667e-04 6.243800255760e-06 1.972962746037e-02 3.636910714851e-03 -8.070829914536e-03
151 2 1.121053845954e-02 9.125527985942e-03 1.317061707191e-02 -1.829742144848e+01 6.897247148516e+00 -4.912441817562e+00 8.718228679729e+03 2.300397945651e+04 -2.363286814653e+02 8.416666666667e-04 6.243800255760e-06 1.829771450261e-02 -6.897357615816e-03 4.912520495936e-03
152 2 6.989084711079e-04 1.050161442205e-02 1.102783400863e-03 -1.275740377032e+01 -2.061280426797e+00 2.328388043064e+00 2.475030637738e+03 -1.554565310649e+04 1.125545453962e+04 8.416666666667e-04 6.243800255760e-06 1.275760809473e-02 2.061313440560e-03 -2.328425334861e-03
153 2 1.225644899474e-02 5.120092746061e-03 1.213194589839e-02 -1.387811864865e+01 -1.803748564153e+01 2.264762950333e+01 6.049744782396e+02 1.106760051793e+04 4.201648188754e+03 8.416666666667e-04 6.243800255760e-06 1.387834092259e-02 1.803777453250e-02 -2.264799223101e-02
154 2 2.998379477990e-03 1.466974765973e-02 1.474862793760e-02 1.052160681724e+01 2.812137550537e+01 2.008930605647e-01 1.431624529423e+04 -1.345131199480e+04 1.490676383911e+04 8.416666666667e-04 6.243800255760e-06 8.060022979884e-02 -1.792047448467e+00 -3.532756244331e+00
155 2 6.601962639995e-03 4.561040954479e-04 1.262344747607e-02 1.770183559380e+01 1.090216196622e+01 -3.635423698678e+00 4.708517391397e+02 5.472455331518e+03 1.682814523679e+03 8.416666666667e-04 6.243800255760e-06 -1.770211910894e-02 -1.090233657681e-02 3.635481924146e-03
156 2 6.136257167090e-03 1.472630796403e-02 1.429926945484e-02 2.266960052816e-01 -1.058264374227e+01 -3.995158847883e+00 -1.284211079215e+04 -2.644755295908e+02 -5.300254871016e+03 8.416666666667e-04 6.243800255760e-06 -2.266996360774e-04 1.058281323541e-02 3.995222834921e-03
157 2 7.650996671486e-03 3.588523614851e-03 7.792903372625e-03 2.925548612124e+00 8.907725168475e+00 8.362555761685e+00 -3.031208464994e+03 9.036778773608e+03 8.439933461367e+02 8.416666666667e-04 6.243800255760e-06 -2.925595468131e-03 -8.907867835881e-03 -8.362689697579e-03
158 2 8.013901311565e-05 1.403404891226e-02 1.376357490555e-02 -1.360712466997e+01 1.596298919021e+01 2.123752368937e+01 -1.058182898143e+03 8.732817942221e+03 2.519576843307e+03 8.416666666667e-04 6.243800255760e-06 1.360734260363e-02 -1.596324485574e-02 -2.123786383260e-02
159 2 3.839386906716e-03 9.456384813500e-03 1.045759538923e-02 -1.740375948594e+01 -4.451367205267e+00 3.477030187705e+00 1.110060759415e+04 -2.664406583488e+03 -4.654638984357e+03 8.416666666667e-04 6.243800255760e-06 1.740403822705e-02 4.451438499003e-03 -3.477085876320e-03
160 2 1.473103955104e-02 8.377424145207e-03 7.028926491765e-03 -6.715416623460e+00 1.035920667037e+01 1.011190737412e+01 7.987460282834e+03 -1.024910330280e+04 4.524066204015e+03 8.416666666667e-04 6.243800255760e-06 6.715524178537e-03 -1.035937258492e-02 -1.011206932788e-02
161 2 2.066068052058e-03 3.155502829473e-03 1.022980781642e-02 6.330415841273e-01 2.811039645183e+00 3.388293111633e+00 -1.160380653592e+04 1.256677100460e+02 6.036572268943e+03 8.416666666667e-04 6.243800255760e-06 -6.330517230123e-04 -2.811084667198e-03 -3.388347379022e-03
162 2 1.517638820928e-02 1.154104329875e-02 9.751592986816e-03 2.223953109502e+01 -1.114280268531e+01 -1.718960419524e+00 -2.556454035668e+02 -1.146124825268e+04 -5.922364496560e+03 8.416666666667e-04 6.243800255760e-06 -2.223988728655e-02 1.114298115003e-02 1.718987950641e-03
163 2 1.262664229046e-02 1.678206864448e-03 1.342164935394e-02 -2.724926883924e+01 -1.627680468986e+00 -1.293162083287e+01 -9.087930488095e+03 3.937561300697e+03 -6.508339527566e+03 8.416666666667e-04 6.243800255760e-06 2.724970526744e-02 1.627706538150e-03 1.293182794757e-02
164 2 1.455687977633e-02 1.039708907274e-02 2.244930097529e-03 -2.552873581749e+00 1.617702248070e+00 1.570573757436e+01 -1.066108668697e+03 -4.044597234897e+03 3.878086154247e+03 8.416666666667e-04 6.243800255760e-06 2.552914468939e-03 -1.617728157422e-03 -1.570598911971e-02
165 2 1.681625284780e-03 3.213433507783e-03 1.072298248961e-02 -2.889519679927e+01 -1.821786681576e+01 -2.097796797987e+01 8.538228437669e+03 2.589835943978e+04 3.950647834238e+03 8.416666666667e-04 6.243800255760e-06 2.889565958890e-02 1.821815859573e-02 2.097830396602e-02
166 2 1.342350189436e-02 5.445924402882e-03 1.052734547808e-02 -6.357929373051e+00 -3.715649247235e+01 -1.641005715532e+01 -2.563041494170e+03 1.248522309540e+04 3.810423757725e+03 8.416666666667e-04 6.243800255760e-06 6.358031202561e-03 3.715708757607e-02 1.641031998115e-02
167 2 7.175366700672e-03 6.583727135399e-03 1.407403670701e-02 6.393233000527e+00 -8.492628335802e+00 -5.485815352281e+00 -1.034967598941e+04 -7.727110883478e+03 1.384637245759e+04 8.416666666667e-04 6.243800255760e-06 -6.393335395465e-03 8.492764354958e-03 5.485903213888e-03
168 2 3.744518298293e-03 1.129534177812e-02 5.770173909925e-03 -2.151649630056e+01 5.696617171158e-01 -1.355359632267e+01 7.967661476066e+00 -1.183405325624e+04 -3.841789595799e+03 8.416666666667e-04 6.243800255760e-06 2.151684091185e-02 -5.696708408997e-04 1.355381339902e-02
169 2 1.186116475705e-02 6.487902022399e-04 7.926141029254e-04 -1.342843674223e+01 1.187493298714e+01 3.545115974490e+00 -6.183041118685e+03 -1.195665235923e+04 -3.791603721368e+03 8.416666666667e-04 6.243800255760e-06 8.647638014609e-02 -1.572063079097e-01 -3.288580920794e-01
170 2 7.374384575126e-03 1.541968492839e-04 1.459825269615e-02 3.001876023353e-01 1.254151038574e+01 -8.478773554935e+00 1.523522922242e+04 -7.354784840404e+02 7.427757380293e+01 8.416666666667e-04 6.243800255760e-06 5.442240061216e-02 3.710210390215e-02 1.197124847949e+00
171 2 1.004797336920e-02 4.675595671287e-03 1.398786381161e-02 1.826995359011e+01 -9.787556312188e+00 4.969244428247e-01 1.231605504584e+03 -7.268976259053e+03 1.081432044177e+03 8.416666666667e-04 6.243800255760e-06 -1.827024620431e-02 9.787713071095e-03 -4.969324016379e-04
172 2 1.024976099891e-02 1.425386787221e-02 1.258915812640e-02 3.340602691379e+01 -2.086562514276e+01 8.453301442757e+00 3.329430375106e+03 8.749459286760e+03 5.932929792203e+03 8.416666666667e-04 6.243800255760e-06 -3.340656194951e-02 2.086595932961e-02 -8.453436832047e-03
173 2 4.902985877770e-03 1.227201078678e-03 1.382194088280e-02 8.741633019616e+00 -1.843904246033e+01 -1.387950124601e-01 9.547102804201e+02 1.896531202436e+03 2.344775676017e+02 8.416666666667e-04 6.243800255760e-06 -8.741773026866e-03 1.843933778269e-02 1.387972354209e-04
174 2 3.319949459691e-03 8.050083956557e-04 5.358517890414e-03 -1.242449661495e+01 -2.481410247814e+01 -1.687203257826e+01 -2.094448811517e+03 -8.920636986008e+03 -1.686667995552e+04 8.416666666667e-04 6.243800255760e-06 1.242469560747e-02 2.481449990437e-02 1.687230280316e-02
175 2 8.605239489814e-03 4.738083404066e-03 5.022419902443e-03 1.938521589126e+01 6.712356060253e+00 1.275634478833e+01 2.621536011310e+04 4.513846578982e+03 -5.606180302246e+03 8.416666666667e-04 6.243800255760e-06 -1.938552636766e-02 -6.712463566311e-03 -1.275654909578e-02
176 2 1.378595906561e-02 4.980586690549e-03 6.854477134075e-03 -1.140831322221e+01 1.761741330872e+01 -1.076478774456e+01 -1.175662734859e+04 -4.176193227803e+03 1.411683151701e+04 8.416666666667e-04 6.243800255760e-06 1.140849593940e-02 -1.761769547174e-02 1.076496015495e-02
177 2 4.253138395867e-03 6.829743356098e-03 4.233301621579e-03 -2.190639749176e+01 -1.398041074978e+01 1.565925065624e+01 -4.818146956333e+01 -1.658418882667e+03 2.100952907230e+03 8.416666666667e-04 6.243800255760e-06 2.190674834777e-02 1.398063466205e-02 -1.565950145705e-02
178 2 9.716545951478e-03 1.267824307720e-02 1.411868411052e-03 -3.289943050728e+00 -5.566060027286e+00 -5.687658032035e+00 -1.030829502144e+04 8.004412566507e+03 -7.209594219264e+03 8.416666666667e-04 6.243800255760e-06 3.289995742929e-03 5.566149174103e-03 5.687749126383e-03
179 2 7.253672741153e-03 1.191472926473e-02 4.415630342436e-03 -7.822847072434e+00 -1.058000012369e+01 1.899726318377e+01 1.200234574479e+04 8.909492750895e+03 -6.683533920093e+03 8.416666666667e-04 6.243800255760e-06 7.822972364276e-03 1.058016957449e-02 -1.899756744666e-02
180 2 6.481167642567e-03 7.639937531017e-03 2.999233473231e-03 1.454686291699e+00 -1.167722295659e+01 1.144783915115e+01 -2.585594695708e+04 -1.166552044979e+04 -1.355778279627e+04 8.416666666667e-04 6.243800255760e-06 -1.454709590164e-03 1.167740998067e-02 -1.144802250139e-02
181 2 2.515766267152e-03 7.971769366508e-03 1.423446693595e-02 2.440875126731e+01 4.578392859446e+00 -4.413385865263e+00 -2.364366011908e+03 -1.847790561892e+04 -7.673233407989e+03 8.416666666667e-04 6.243800255760e-06 -2.440914220137e-02 -4.578466187644e-03 4.413456550685e-03
182 2 1.343070756766e-02 1.428651504939e-02 2.529840326403e-03 3.242805847232e+00 -5.602890105773e+00 1.917696057817e+01 -1.682387205970e+04 7.522390499289e+03 -2.822470755061e+02 8.416666666667e-04 6.243800255760e-06 -3.242857784476e-03 5.602979842466e-03 -1.917726771912e-02
183 2 3.044539668135e-03 1.336950842813e-02 1.024312581218e-02 -4.062021959297e+00 1.551699382174e+01 -2.057872472105e+01 -1.742862913718e+04 -4.257813121376e+03 -4.246266439182e+03 8.416666666667e-04 6.243800255760e-06 4.062087017224e-03 -1.551724234414e-02 2.057905431286e-02
184 2 7.201959450625e-03 3.203142647729e-04 1.024759448839e-02 1.823077094642e+01 -8.510856316823e+00 5.999542454966e+00 -2.373841141168e+04 5.886647177697e+03 -1.170368071694e+04 8.416666666667e-04 6.243800255760e-06 -1.823106293307e-02 8.510992627920e-03 -5.999638544500e-03
185 2 5.833705995460e-03 3.234584495686e-03 3.289500831586e-03 -9.323967498385e+00 1.006729110123e+01 -1.078960067533e+01 1.355815256668e+04 1.715407327071e+04 -1.301135717653e+03 8.416666666667e-04 6.243800255760e-06 9.324116832387e-03 -1.006745234041e-02 1.078977348312e-02
186 2 5.626510711242e-04 1.136434338438e-02 1.558276513722e-03 2.910909021926e+00 -1.361495741205e+01 -1.572750599534e+01 1.224660683367e+04 7.036666438730e+03 1.030785248612e+04 8.416666666667e-04 6.243800255760e-06 -2.910955643463e-03 1.361517547116e-02 1.572775788934e-02
187 2 1.145949632781e-02 1.002172835513e-02 4.225243699064e-03 3.364985938205e+00 -7.171003840166e+00 6.725666848296e+00 5.188428851568e+02 5.632949216961e+03 -3.130596608199e+02 8.416666666667e-04 6.243800255760e-06 -3.365039832303e-03 7.171118691993e-03 -6.725774567542e-03
188 2 6.021039561663e-03 7.983499355172e-03 4.847197815673e-03 1.582455409783e+01 -1.439718595820e+01 4.931463446133e+00 2.513475751696e+04 -7.537528185621e+03 -1.102044467824e+04 8.416666666667e-04 6.243800255760e-06 -1.582480754616e-02 1.439741654560e-02 -4.931542429159e-03
189 2 1.516244325795e-02 6.117853417020e-05 5.987025313719e-03 1.895953344896e+00 -1.611446452172e+01 9.532610740920e+00 -2.210768453395e+04 3.111636445064e+04 8.229629375884e+03 8.416666666667e-04 6.243800255760e-06 -1.895983710757e-03 1.611472261330e-02 -9.532763416583e-03
190 2 9.719116803845e-04 1.134672098965e-02 1.431678602206e-02 -1.966318829400e+01 5.920629322804e+00 -2.498223225564e+00 -2.091305991724e+04 -4.505413268687e+02 9.901262478634e+02 8.416666666667e-04 6.243800255760e-06 1.966350322245e-02 -5.920724148454e-03 2.498263237466e-03
191 2 5.528711154062e-03 4.609510191988e-03 4.211705097211e-03 -1.351440899337e+01 1.633476713660e+00 1.171794918460e+01 -5.660939876547e+02 -1.815843033944e+04 -1.043701405850e+03 8.416666666667e-04 6.243800255760e-06 1.351462544208e-02 -1.633502875658e-03 -1.171813686096e-02
192 2 2.769156296902e-03 1.074873368874e-02 6.785471892718e-04 1.656326857246e+01 -2.074315119497e+01 -3.892693779247e+00 -1.736493944770e+03 6.150622289986e+02 -6.498593427744e+03 8.416666666667e-04 6.243800255760e-06 -9.680164690225e-01 1.337999050198e+00 3.253769625209e+00
193 2 7.932462344725e-03 5.996612292849e-03 8.776861403766e-04 3.643294577742e+00 -1.361695991864e+01 4.163197505599e+00 1.614046817688e+04 4.397055311377e+03 2.916545716437e+03 8.416666666667e-04 6.243800255760e-06 -3.643352929271e-03 1.361717800982e-02 -4.163264183968e-03
194 2 4.609571036978e-03 1.158826188910e-02 8.616196023936e-03 -1.856401529872e+00 1.285715918088e+01 3.966699741834e+00 1.006734197895e+04 1.014359684353e+04 9.162800553490e+02 8.416666666667e-04 6.243800255760e-06 1.856431262266e-03 -1.285736510299e-02 -3.966763273067e-03
195 2 1.862851412019e-03 5.457639509474e-03 4.439134278106e-03 -1.077627301482e+01 1.347841416993e+01 -2.379977943961e+01 -2.194205192067e+04 3.768596087450e+03 -1.211549968726e+04 8.416666666667e-04 6.243800255760e-06 1.077644560916e-02 -1.347863004214e-02 2.380016062029e-02
196 2 2.124179733409e-03 1.240890522199e-02 1.271173676780e-02 -1.270062481362e+01 3.913700247304e+00 -1.215744552875e+01 1.781737055890e+04 9.900473796952e+02 5.776023468590e+03 8.416666666667e-04 6.243800255760e-06 1.270082822865e-02 -3.913762929689e-03 1.215764024414e-02
197 2 9.828550271321e-03 7.314955477806e-03 1.905795820556e-03 3.031565189811e+01 1.394851178508e+01 -1.856478004216e+01 -2.386265702116e+04 9.085310612857e+03 -4.274432029270e+03 8.416666666667e-04 6.243800255760e-06 -3.031613743794e-02 -1.394873518644e-02 1.856507737835e-02
198 2 1.310490043459e-02 3.512343812791e-03 8.441504329922e-03 -6.177495241668e+00 1.210496244414e+01 -2.226923670480e+01 5.963317229371e+03 -5.899333673084e+03 1.405658720849e+04 8.416666666667e-04 6.243800255760e-06 6.177594181319e-03 -1.210515631895e-02 2.226959337209e-02
199 2 8.989564260453e-03 1.935938484039e-03 3.093391017255e-03 8.962739122405e+00 1.562835914228e+01 1.898105083362e+00 3.535123827940e+03 9.221211472538e+03 9.225773230432e+03 8.416666666667e-04 6.243800255760e-06 -8.962882670922e-03 -1.562860944832e-02 -1.898135483686e-03
200 2 9.113124085311e-03 1.527609350755e-02 1.791212014717e-03 -8.910793603454e-01 2.939201458113e+00 2.925656792223e+00 -3.732067026886e+03 -1.026614267723e+03 8.619570025649e+03 8.416666666667e-04 6.243800255760e-06 8.910936320004e-04 -2.939248532786e-03 -2.925703649962e-03
201 2 1.509745089818e-02 2.428960862156e-03 1.263846234023e-02 5.285609889894e+00 -1.729000940889e+01 1.081946914022e+01 -6.425159322025e+03 1.189664581791e+04 -3.132071823003e+03 8.416666666667e-04 6.243800255760e-06 -5.285694544981e-03 1.729028632816e-02 -1.081964242639e-02
202 2 1.137458994361e-02 1.185025238974e-02 5.921785577065e-03 -1.524737024857e-01 -1.250061111273e+01 1.127769664699e+01 2.356285117640e+03 -4.078620517133e+03 -1.758266026649e+04 8.416666666667e-04 6.243800255760e-06 1.524761445264e-04 1.250081132431e-02 -1.127787727220e-02
203 2 1.481043974813e-02 7.077305915124e-03 5.099887915016e-03 2.451236621607e+01 -1.601255170356e+01 3.505112083243e+01 -3.721400112654e+03 1.141084148334e+04 1.661305035928e+04 8.416666666667e-04 6.243800255760e-06 -2.451275880965e-02 1.601280816289e-02 -3.505168221622e-02
204 2 1.131621517341e-02 6.827992885628e-03 8.869866431121e-03 -4.589352065398e+00 -1.202273506190e+01 1.423375044067e+01 1.506503775995e+03 5.150371801436e+03 3.503883059591e+03 8.416666666667e-04 6.243800255760e-06 4.589425569119e-03 1.202292761976e-02 -1.423397841046e-02
205 2 2.606696903271e-03 9.169362062285e-03 1.092994432014e-02 -8.278624004146e-01 -9.909312841382e+00 -3.824115946534e+00 7.017427913448e+03 -3.500303656892e+02 -2.447295211923e+02 8.416666666667e-04 6.243800255760e-06 8.278756595777e-04 9.909471550360e-03 3.824177194124e-03
206 2 3.251515937401e-03 2.019289163604e-03 1.377517114158e-02 1.606558282426e+01 8.043310958409e-01 -9.524942578015e+00 9.963973540303e+02 -1.950787922865e+04 -1.243149546548e+04 8.416666666667e-04 6.243800255760e-06 -1.606584013294e-02 -8.043439781233e-04 9.525095130863e-03
207 2 3.729004211916e-03 5.931901952695e-05 1.794568120505e-03 5.288426414502e+00 -1.188963295441e+01 3.752293530890e+00 5.279961163745e+03 4.814026885518e+03 7.936999428039e+03 8.416666666667e-04 6.243800255760e-06 -5.288511114699e-03 1.188982338048e-02 -3.752353628162e-03
208 2 5.990148621942e-03 2.160011253714e-03 1.097449568287e-02 1.198025375137e+00 9.255008657344e+00 -1.161108327447e+01 8.015784641909e+03 1.164618418907e+04 3.382059919296e+03 8.416666666667e-04 6.243800255760e-06 -1.198044562884e-03 -9.255156886891e-03 1.161126923925e-02
209 2 5.596013358020e-03 7.241342205998e-03 1.381285812500e-02 2.437322983664e+01 -9.975677324558e+00 -1.845246676481e+01 -1.266053393759e+03 2.609765885506e+03 -1.883100730207e+04 8.416666666667e-04 6.243800255760e-06 -2.437362020179e-02 9.975837096438e-03 1.845276230217e-02
210 2 5.311235838321e-03 2.191080137967e-03 2.213940619882e-03 -5.016368228272e+00 3.553602236100e+01 2.436246887095e+01 5.764531101786e+03 1.012637623059e+03 -6.200769809848e+03 8.416666666667e-04 6.243800255760e-06 5.016448571146e-03 -3.553659151103e-02 -2.436285906375e-02
211 2 1.534895374424e-02 4.735756982732e-03 8.729313279939e-04 5.491794050286e+00 1.796553919831e+00 2.872665381957e+00 -2.125278607992e+03 6.556553783014e+03 -2.817038219602e+03 8.416666666667e-04 6.243800255760e-06 -5.491882007648e-03 -1.796582693697e-03 -2.872711390978e-03
212 2 7.197134317158e-03 1.125694565233e-02 1.073710095266e-03 -1.105705284728e+00 1.441347636931e+01 1.651234878450e+00 3.515492299891e+03 -1.553364640624e+03 3.461933164543e+03 8.416666666667e-04 6.243800255760e-06 1.105722993862e-03 -1.441370721762e-02 -1.651261324865e-03
213 2 7.994489036350e-03 1.073534262141e-02 2.205840200118e-03 -9.629383114139e+00 -1.464115825753e+01 4.294541249231e+00 1.845314691862e+04 -1.215238387715e+04 8.787716617301e+02 8.416666666667e-04 6.243800255760e-06 9.629537339721e-03 1.464139275243e-02 -4.294610031221e-03
214 2 4.902917349196e-03 5.580128207731e-03 1.367912874497e-02 -1.737213854792e+01 -1.732257991730e+01 3.978274424470e-01 -5.748194364538e+03 3.885024307068e+03 2.580158857644e+03 8.416666666667e-04 6.243800255760e-06 1.737241678259e-02 1.732285735822e-02 -3.978338141085e-04
215 2 1.282410541154e-02 1.506344429430e-02 9.422755822876e-04 2.447359840690e+00 1.848231993467e+01 6.432445284737e-01 -5.379561749671e+03 -2.952820117604e+03 7.477157434948e+03 8.416666666667e-04 6.243800255760e-06 -2.447399037957e-03 -1.848261595016e-02 -6.432548307704e-04
216 2 5.874836009444e-03 2.055121841907e-03 1.616850336969e-03 1.644827486795e+01 1.381153674758e+01 -8.867135634490e+00 9.088119797062e+02 3.143586986384e+03 -1.483864248862e+04 8.416666666667e-04 6.243800255760e-06 -1.644853830588e-02 -1.381175795514e-02 8.867277651808e-03
217 2 2.520297372383e-03 9.673541537340e-03 7.223058772319e-03 8.783523990920e+00 1.097905207317e+01 6.629888127951e+00 -4.640901587855e+03 -9.475558150599e+03 -2.646577094556e+03 8.416666666667e-04 6.243800255760e-06 -8.783664669102e-03 -1.097922791524e-02 -6.629994313192e-03
218 2 7.008184948670e-03 1.014595616524e-02 1.069884860243e-02 1.724966010437e+01 -1.438918504720e+01 -9.862924342254e+00 9.198648371229e+02 -8.792061974525e+03 2.459071004729e+04 8.416666666667e-04 6.243800255760e-06 -1.724993637740e-02 1.438941550645e-02 9.863082308267e-03
219 2 5.387112362103e-03 1.391515537395e-03 9.030221582369e-03 2.729404338213e+01 -8.656794918062e+00 -3.051105546795e+00 -6.606521296816e+03 -6.701788526593e+02 -5.849818714953e+03 8.416666666667e-04 6.243800255760e-06 -2.729448052745e-02 8.656933566532e-03 3.051154413740e-03
220 2 3.545807335129e-03 2.558048086808e-03 6.512067673415e-03 -5.683143235929e+00 1.508381212403e+01 9.647395027482e+00 3.510218822766e+03 2.261913309341e+02 2.139186565350e+03 8.416666666667e-04 6.243800255760e-06 5.683234257967e-03 -1.508405370853e-02 -9.647549541547e-03
221 2 2.817691333555e-03 3.476738897307e-03 1.381698967156e-02 2.831350992582e+01 -3.380222323887e+00 -1.713764858553e+01 -1.316883541207e+02 -7.796152140074e+03 1.521684740834e+03 8.416666666667e-04 6.243800255760e-06 -2.831396339906e-02 3.380276462013e-03 1.713792306457e-02
222 2 9.606835097457e-04 8.668835909967e-03 4.779839845080e-03 9.364484481107e+00 -7.469541766575e+00 1.963329290853e+01 8.400739295818e+02 -2.570980492863e+03 3.904314525856e+03 8.416666666667e-04 6.243800255760e-06 -9.364634464036e-03 7.469661399829e-03 -1.963360735817e-02
223 2 5.755083952853e-03 1.280203738062e-02 1.408574433624e-02 4.560566101394e+00 -9.781656932526e+00 -4.146373611535e+00 -1.183438594951e+04 -5.499093246823e+03 1.916802501565e+02 8.416666666667e-04 6.243800255760e-06 -4.560639144076e-03 9.781813596948e-03 4.146440020450e-03
224 2 8.981721002576e-03 1.008569056166e-02 2.644878537539e-03 9.553510935666e+00 -1.373619953359e+01 -2.309403532093e+01 5.518743773758e+03 -1.127068799508e+03 3.468595101599e+03 8.416666666667e-04 6.243800255760e-06 -9.553663946069e-03 1.373641953453e-02 2.309440519832e-02
225 2 1.274224220500e-02 3.207474948328e-03 1.323522697374e-03 3.373276299030e+00 7.042128770852e+00 4.741475568909e+00 -8.550823607923e+03 4.090351675263e+03 -1.112590706305e+04 8.416666666667e-04 6.243800255760e-06 -3.373330325908e-03 -7.042241558597e-03 -4.741551509063e-03
226 2 1.324246269335e-02 8.864317989448e-03 7.073868038914e-03 -4.304903015872e+00 -1.500714970939e+01 1.387568234950e+01 -1.077106692127e+04 -4.212019032655e+03 -3.333361926377e+03 8.416666666667e-04 6.243800255760e-06 4.304971963817e-03 1.500739006605e-02 -1.387590458443e-02
227 2 1.049577849614e-02 8.898600305914e-03 1.640976802531e-03 1.957565411525e+01 -1.053127804756e+01 3.038143635853e+00 2.454430461928e+03 1.462997740027e+04 2.061596074297e+03 8.416666666667e-04 6.243800255760e-06 -1.957596764174e-02 1.053144671802e-02 -3.038192295197e-03
228 2 1.377451317611e-02 7.996738178023e-03 1.532579297772e-03 3.900231056232e+00 -2.291284879002e-01 -5.096402482125e-02 -9.619083217354e+03 3.719102872546e+03 -3.402131387947e+03 8.416666666667e-04 6.243800255760e-06 -3.900293522893e-03 2.291321576550e-04 5.096484106839e-05
229 2 4.302953598785e-03 9.080968951850e-03 6.814524675751e-03 1.967970341242e+01 1.227709972623e+01 8.602643783119e-01 5.541183502229e+02 -8.657792629658e+03 -2.557186611880e+03 8.416666666667e-04 6.243800255760e-06 -1.968001860538e-02 -1.227729635802e-02 -8.602781564297e-04
230 2 1.124810969646e-02 1.343486173772e-02 2.123648218401e-03 1.094893071283e+01 2.283677919580e+01 -1.379933196030e+00 -8.711311420901e+03 -2.828521241452e+03 6.199730052205e+03 8.416666666667e-04 6.243800255760e-06 -1.094910607248e-02 -2.283714495293e-02 1.379955297239e-03
231 2 -1.078627348171e-07 6.814119017515e-03 7.115431263008e-04 -3.411738131068e+00 -1.179703188124e+01 1.006310847552e+01 1.409160274476e+04 -4.138770580691e+03 7.997667209297e+03 8.416666666667e-04 6.243800255760e-06 -3.450457842492e-03 4.271250282772e-03 -9.337441882474e-01
232 2 3.936703228628e-03 9.603543706923e-04 1.197369219041e-02 3.454984737573e+01 -2.241410655615e+01 2.402692797169e+01 6.648354838018e+03 4.011671092744e+03 1.217384980057e+02 8.416666666667e-04 6.243800255760e-06 -3.455040073105e-02 2.241446554370e-02 -2.402731279042e-02
233 2 4.028548839234e-03 9.355598343010e-03 2.415407406171e-03 4.740750537814e+00 1.077107752135e+01 -2.968733047424e+01 -4.998384012498e+03 -4.597218918431e+03 6.479127722259e+03 8.416666666667e-04 6.243800255760e-06 -4.740826466355e-03 -1.077125003247e-02 2.968780595079e-02
234 2 1.488811656052e-03 1.139373795106e-02 2.336269729124e-03 -6.520788447085e+00 -1.530469798987e+01 -2.902050714966e+01 2.070664705298e+03 -4.704684904111e+03 9.502475117145e+02 8.416666666667e-04 6.243800255760e-06 6.520892884969e-03 1.530494311211e-02 2.902097194627e-02
235 2 1.054999363082e-02 1.395839483884e-02 3.039971234026e-03 1.296575325981e+01 -5.235323074934e+01 2.030690082379e+01 1.447881345878e+03 -5.294948482102e+03 -1.999319713286e+03 8.416666666667e-04 6.243800255760e-06 -1.296596092118e-02 5.235406924620e-02 -2.030722606203e-02
236 2 1.897607843157e-03 4.636430014236e-03 1.452246777195e-02 5.876298101401e-01 3.038013463066e+00 -6.631476856114e+00 2.879344012525e+03 -1.302661353646e+03 -1.336043182116e+04 8.416666666667e-04 6.243800255760e-06 -5.876392217036e-04 -3.038062120326e-03 6.631583066800e-03
237 2 1.088745359395e-02 8.779181516105e-03 9.841366164207e-03 1.603334434668e+01 1.205547418668e+01 2.977683255455e+00 5.687497419825e+03 -6.265084486402e+02 -8.886727840758e+03 8.416666666667e-04 6.243800255760e-06 -1.603360113902e-02 -1.205566726888e-02 -2.977730946458e-03
238 2 1.103375820419e-02 2.359449382879e-03 8.398137133225e-03 2.255723856554e+01 8.136262948113e+00 1.309849175867e+01 1.652881289184e+03 4.991490456767e+03 -2.997838739255e+03 8.416666666667e-04 6.243800255760e-06 -2.255759984551e-02 -8.136393259669e-03 -1.309870154599e-02
239 2 8.381891597136e-03 6.406015351600e-04 4.604973353675e-03 1.003948040655e+01 -1.110283283135e+01 -2.655441515439e-01 1.892708954341e+02 -1.930853187217e+04 -1.163342486782e+04 8.416666666667e-04 6.243800255760e-06 -1.003964120031e-02 1.110301065592e-02 2.655484045371e-04
240 2 1.215846207553e-02 8.406086802983e-03 3.389549125498e-03 6.283071068237e-01 -6.304454999727e+00 3.539343151024e+00 8.508517839198e+03 7.877623664948e+02 1.201606035263e+04 8.416666666667e-04 6.243800255760e-06 -6.283171698805e-04 6.304555972784e-03 -3.539399837652e-03
241 2 6.656489438999e-04 7.282069005004e-03 1.176139663856e-02 2.947752386732e+01 3.359924298287e+00 -5.390037375922e+00 -9.029879694975e+02 9.437737588016e+03 -2.034677282718e+03 8.416666666667e-04 6.243800255760e-06 -2.947799598358e-02 -3.359978111317e-03 5.390123703535e-03
242 2 1.333578145481e-02 7.428640056956e-03 2.181804000378e-03 1.932072860350e+01 1.863932943479e+01 -6.568068611733e-01 5.941188699067e+03 7.054795096928e+03 -1.102137823327e+04 8.416666666667e-04 6.243800255760e-06 -1.932103804706e-02 -1.863962796497e-02 6.568173806863e-04
243 2 1.269741508725e-02 5.637073720609e-03 8.138493181629e-03 1.364120013379e+00 -1.003008513036e+01 -1.285955187111e+01 1.299315399463e+04 3.812804261635e+03 -6.192580165522e+03 8.416666666667e-04 6.243800255760e-06 1.765745584218e+01 -1.856194874533e+01 1.832162675379e+01
244 2 1.262272577675e-02 1.528075230588e-02 1.030823213363e-02 -2.014289367493e+00 -1.840087926788e+01 -4.931441645114e+00 -3.579749958506e+03 4.878633172963e+03 -1.049463086015e+03 8.416666666667e-04 6.243800255760e-06 2.014321628641e-03 1.840117397901e-02 4.931520627791e-03
245 2 9.731596747860e-03 3.233209136432e-03 4.268275191599e-03 -2.101674080766e+01 -2.236221941367e+01 2.205288558515e+01 -8.159001940353e+03 -4.265577996611e+03 -5.586427760479e+03 8.416666666667e-04 6.243800255760e-06 2.101707741480e-02 2.236257757019e-02 -2.205323878733e-02
246 2 8.061486712087e-03 4.391258563863e-05 8.479664266083e-03 -1.658381778047e+00 -1.702841515428e+01 -1.310770530644e+01 7.759971566389e+03 -9.511239540816e+02 -1.183783234535e+04 8.416666666667e-04 6.243800255760e-06 1.658408338927e-03 1.702868788382e-02 1.310791524133e-02
247 2 6.478652757552e-03 8.824286442088e-03 1.210472163359e-02 -2.970744955905e+00 -1.403994037224e+01 -1.160092530208e+01 -8.791581888332e+03 -2.289364121545e+04 6.794070579983e+03 8.416666666667e-04 6.243800255760e-06 1.496527410277e+01 -1.795604553693e+01 -1.633624843524e+01
248 2 7.804883572155e-03 5.015533385484e-03 1.411883608664e-02 4.523275949961e+00 1.571548198953e+01 8.397720874841e+00 -7.722930050772e+03 -1.232036199895e+04 -7.727265144827e+03 8.416666666667e-04 6.243800255760e-06 -4.523348395398e-03 -1.571573369095e-02 -8.397855373945e-03
249 2 9.028658160415e-03 9.033145729901e-03 2.449725554846e-03 -1.339294891789e+01 -1.592593570346e+01 -2.219215817463e+01 1.601793661926e+04 -5.629849992706e+03 9.891822628568e+03 8.416666666667e-04 6.243800255760e-06 1.339316342128e-02 1.592619077553e-02 2.219251360742e-02
250 2 6.224591610962e-03 1.235411406846e-03 1.444758552356e-02 -1.552632930950e+00 1.733785219992e+01 6.971172661987e+00 3.010004883877e+03 6.946795026740e+03 -2.904137120134e+03 8.416666666667e-04 6.243800255760e-06 1.552657798142e-03 -1.733812988545e-02 -6.971284313289e-03
251 2 1.403432753505e-02 2.723546184188e-03 1.456453002689e-02 -7.860040465098e+00 1.023052739992e+01 -3.354506910767e+00 1.258982296478e+04 9.043588941237e+03 8.195424948823e+03 8.416666666667e-04 6.243800255760e-06 4.073969119198e-02 4.077497924625e-02 3.810028631372e-01
252 2 5.986148758366e-03 1.033273041797e-02 1.069298553415e-02 3.208237182223e+01 -3.967564617125e+00 8.538436397651e+00 8.304202840015e+03 -7.947964135729e+02 -8.471392574812e+03 8.416666666667e-04 6.243800255760e-06 -3.208288565811e-02 3.967628162209e-03 -8.538573150475e-03
253 2 7.255342080100e-03 1.009740979833e-02 1.284223453841e-02 -7.587040426855e+00 6.742489489244e+00 -3.147246469382e+01 -2.400204919356e+04 2.473758440778e+03 2.083451610363e+03 8.416666666667e-04 6.243800255760e-06 7.587161941984e-03 -6.742597477924e-03 3.147296876133e-02
254 2 3.950297754825e-04 8.971968675647e-03 1.025953840923e-02 -1.284616323759e+01 -7.633530773378e+00 1.709141618209e+01 3.359067989427e+03 1.082114386038e+04 6.252399681708e+03 8.416666666667e-04 6.243800255760e-06 1.284636898359e-02 7.633653033103e-03 -1.709168992067e-02
255 2 5.277073490217e-03 2.783030952763e-03 4.411435981523e-03 1.948749949791e+01 2.314177456769e+01 -1.688944000459e+00 3.855081942000e+02 8.992059359022e+03 9.454384097403e+03 8.416666666667e-04 6.243800255760e-06 -1.948781161250e-02 -2.314214520968e-02 1.688971050828e-03
256 2 8.798054430338e-04 7.944157218250e-03 1.026290369542e-03 -4.356051679579e+00 -3.147398996006e+00 6.414526589427e+00 1.325105234872e+04 -1.017620539895e+04 -1.549593215707e+04 8.416666666667e-04 6.243800255760e-06 4.356121446728e-03 3.147449405200e-03 -6.414629325406e-03
257 2 9.107612112765e-03 3.323942840610e-03 5.982405495569e-03 -4.406364841518e+00 -8.056159327654e+00 -4.843149540070e+00 4.237505481079e+03 3.291191874628e+03 -5.689150955204e+03 8.416666666667e-04 6.243800255760e-06 4.406435414491e-03 8.056288356259e-03 4.843227108649e-03
258 2 3.095096720324e-03 3.863908939546e-03 9.933969888484e-04 2.477831940918e+01 5.520853617169e+00 -6.897511566049e+00 1.899202543624e+04 1.637481001077e+04 5.021310636150e+03 8.416666666667e-04 6.243800255760e-06 -2.477871626230e-02 -5.520942039953e-03 6.897622037585e-03
259 2 1.132552227252e-02 7.332055477614e-03 5.041390342722e-03 -6.353069456856e+00 -2.257440514018e+01 9.143415294984e+00 2.371382255294e+04 -3.764401182149e+03 -1.935326631818e+03 8.416666666667e-04 6.243800255760e-06 6.353171208529e-03 2.257476669509e-02 -9.143561737237e-03
260 2 1.445038558419e-02 4.841934271944e-03 2.360400195258e-03 -1.759214600110e+01 1.268340656034e+01 3.000664726665e+00 -3.422623862752e+03 8.950280061496e+02 2.184085444040e+03 8.416666666667e-04 6.243800255760e-06 1.759242775944e-02 -1.268360969960e-02 -3.000712785742e-03
261 2 4.053986155524e-03 1.054674993285e-02 6.558776352348e-03 4.106951585764e+00 1.989932800968e+01 1.329288502245e+01 1.384106865695e+04 1.930996378895e+03 3.499618430613e+03 8.416666666667e-04 6.243800255760e-06 -4.107017363291e-03 -1.989964672018e-02 -1.329309792320e-02
262 2 5.365515247722e-03 1.512627885212e-02 9.567473521195e-03 -4.129647765346e+00 -1.324792416693e+01 6.101963129153e-01 2.826455396062e+03 -5.478907704254e+03 -5.379398055366e+03 8.416666666667e-04 6.243800255760e-06 4.129713906378e-03 1.324813634759e-02 -6.102060859071e-04
263 2 4.521881779962e-03 3.380174937952e-03 9.984886436312e-04 -5.230417338883e+00 -8.983883334394e+00 2.310962366343e+00 3.324813295709e+03 -3.359321657043e+03 -1.740416320536e+04 8.416666666667e-04 6.243800255760e-06 5.230501109998e-03 8.984027221560e-03 -2.310999379048e-03
264 2 4.170733849174e-03 1.296789176222e-02 1.312103984339e-02 1.450800585733e+01 -1.629201380290e+01 -2.828079393503e+01 3.661059556455e+03 7.695407527667e+02 -8.446106118217e+03 8.416666666667e-04 6.243800255760e-06 -1.450823821964e-02 1.629227473813e-02 2.828124688428e-02
265 2 9.734988381423e-03 1.238848499242e-02 7.912449463928e-04 -4.695982428223e+00 2.917100953442e+01 1.243649350224e+00 8.642757802221e+02 1.124830400549e+04 -1.637187696380e+03 8.416666666667e-04 6.243800255760e-06 3.414936491158e-02 -9.123983507728e-02 1.361605288586e-01
266 2 9.400824695293e-03 1.026470602342e-02 8.352061364488e-03 1.475502939570e+01 -6.771652509793e+00 2.533561067146e+01 -2.450307421591e+03 4.282437173696e+03 6.394067954279e+03 8.416666666667e-04 6.243800255760e-06 -1.750261501504e+01 1.794642671491e+01 -1.344839284973e+01
267 2 1.360592129439e-02 1.006758670865e-02 5.197179451201e-03 2.074184442657e+00 9.049367911116e+00 8.640449245945e+00 -2.899415533520e+03 -5.255005482001e+03 8.156104754342e+03 8.416666666667e-04 6.243800255760e-06 -2.074217663093e-03 -9.049512847092e-03 -8.640587632621e-03
268 2 1.085716443708e-02 7.938738533361e-03 9.311181285124e-03 3.105413152520e+01 1.033604938332e+01 1.752849551087e+01 -2.427383849824e+04 -2.066441178781e+03 1.294295272103e+04 8.416666666667e-04 6.243800255760e-06 -3.105462889263e-02 -1.033621492697e-02 -1.752877624978e-02
269 2 1.481062376896e-02 3.040284140080e-03 5.708258993527e-04 2.482070325291e+01 1.690756296091e+01 1.546120687682e-01 -1.403253598939e+04 1.401114317256e+04 1.087946342106e+04 8.416666666667e-04 6.243800255760e-06 -2.071410248248e+00 -8.150919685194e-01 4.713062355429e+00
270 2 1.252543721182e-02 2.711200740594e-03 1.410463686976e-02 9.433458377099e+00 1.141004589470e+00 4.296306182337e+00 9.931687105963e+03 1.436674180351e+04 9.617801570610e+03 8.416666666667e-04 6.243800255760e-06 1.767739038227e+01 -1.688806768037e+01 -3.032629988747e-01
271 2 4.169144589542e-03 1.256379866560e-02 7.307242521414e-03 -6.134648528672e+00 1.140525169633e+01 -3.135259691355e+00 -8.422334773181e+03 5.949852673865e+03 4.568160876347e+03 8.416666666667e-04 6.243800255760e-06 6.134746782084e-03 -1.140543436448e-02 3.135309906124e-03
272 2 3.677208151931e-03 1.002923092550e-02 7.394599479538e-03 4.344706306557e+00 -8.898880195139e+00 7.714888830457e+00 1.079780600018e+03 3.699692828314e+03 -7.044596515192e+02 8.416666666667e-04 6.243800255760e-06 -4.344775891997e-03 8.899022720882e-03 -7.715012393225e-03
273 2 4.488764088885e-03 1.475539133839e-02 1.157811862979e-02 -1.902726998682e+01 1.143690883293e+01 -2.713667583984e+00 -9.585686293621e+03 -5.414859358115e+03 1.122032233167e+04 8.416666666667e-04 6.243800255760e-06 1.902757473031e-02 -1.143709200811e-02 2.713711046474e-03
274 2 4.040858612248e-03 4.602018093204e-03 1.624373765625e-03 4.586765052034e-01 1.094137009570e+01 -1.881677127269e+01 -9.157028780935e+03 7.348146262784e+03 -6.240733857110e+03 8.416666666667e-04 6.243800255760e-06 -4.586838514322e-04 -1.094154533425e-02 1.881707264480e-02
275 2 4.836523243829e-03 3.456679617676e-03 1.438420489152e-02 -5.003445912865e+00 1.528275026257e+01 9.536003795163e+00 -9.351289155752e+02 -2.404966175287e+02 1.018343089610e+02 8.416666666667e-04 6.243800255760e-06 5.003526048773e-03 -1.528299503329e-02 -9.536156525169e-03
276 2 2.245085408881e-03 1.499542232796e-02 1.004031028680e-02 -6.521502923230e+00 1.155404578153e+01 7.062630125934e-01 5.693218336488e+03 2.101441391113e+03 1.349153250775e+04 8.416666666667e-04 6.243800255760e-06 6.521607372558e-03 -1.155423083278e-02 -7.062743242032e-04
277 2 1.326024069570e-03 4.731272669162e-03 1.327943564503e-02 -1.573075362596e+01 2.027952069445e+00 -3.213487637961e+00 -7.050518228604e+03 1.158987756256e+04 -7.209464995163e+03 8.416666666667e-04 6.243800255760e-06 1.573100557197e-02 -2.027984549416e-03 3.213539105641e-03
278 2 1.417167496938e-02 9.425640479406e-03 5.424876830550e-03 1.343538986781e+01 6.050053319672e+00 -2.169021467495e+00 1.862449225682e+04 8.344891950954e+03 1.736346420091e+04 8.416666666667e-04 6.243800255760e-06 -1.343560505094e-02 -6.050150218195e-03 2.169056206854e-03
279 2 9.269719236931e-03 6.259577807793e-03 9.027322344435e-03 4.588428661942e+00 1.354356929475e+00 3.449537625381e+00 -7.617179978686e+02 -4.879287698821e+03 -2.334882595774e+04 8.416666666667e-04 6.243800255760e-06 -4.588502150874e-03 -1.354378621050e-03 -3.449592873671e-03
280 2 4.743179635457e-04 3.866459083314e-03 9.144282036048e-03 -1.653748998177e+01 7.868585465633e+00 -6.454579418916e+00 8.241728920236e+03 4.912841785876e+03 -7.384312349007e+03 8.416666666667e-04 6.243800255760e-06 1.653775484859e-02 -7.868711490028e-03 6.454682796387e-03
281 2 1.295670739458e-04 3.979990959661e-04 7.230756555169e-03 1.911785128986e+01 -2.156097880005e+00 -9.368343828038e+00 1.553152564912e+04 -1.796033543632e+03 -9.824128397770e+03 8.416666666667e-04 6.243800255760e-06 -1.911815748411e-02 2.156132412378e-03 9.368493872778e-03
282 2 1.429741684059e-02 7.539560578213e-03 2.754773438618e-03 8.582548321716e+00 -1.599584464491e+01 8.863670982704e-02 1.008304737703e+04 -8.747774343075e+02 -1.031010149973e+03 8.416666666667e-04 6.243800255760e-06 -8.582685781043e-03 1.599610083665e-02 -8.863812944531e-05
283 2 1.411576464960e-02 4.518444428378e-03 6.409927816838e-03 7.361235424960e+00 1.715040362822e+01 8.705416650538e+00 -9.668210988895e+03 -2.412215362092e+03 4.421171198206e+03 8.416666666667e-04 6.243800255760e-06 -7.361353323564e-03 -1.715067831155e-02 -8.705556077742e-03
284 2 1.456074613318e-02 1.414683590463e-02 4.439300924239e-03 -3.846514795067e+00 -2.013506304381e+00 -2.797331735380e+00 2.635516039361e+03 -5.430464637681e+03 -7.607583649376e+02 8.416666666667e-04 6.243800255760e-06 3.846576401400e-03 2.013538552987e-03 2.797376537847e-03
285 2 4.269399111978e-03 1.230454581124e-02 1.669129390814e-03 5.270685153990e+00 1.268249485737e+01 -2.540487000264e+01 2.052938806279e+03 -6.016330771091e+03 4.854444364244e+02 8.416666666667e-04 6.243800255760e-06 -5.270769570040e-03 -1.268269798203e-02 2.540527689069e-02
286 2 4.574674099719e-04 1.411252274534e-02 1.251418639498e-02 -1.478496234874e+01 2.709500096124e+00 -5.821923825149e+00 2.037112111842e+03 1.931312339172e+04 -2.006638255172e+04 8.416666666667e-04 6.243800255760e-06 1.478519914683e-02 -2.709543491867e-03 5.822017069917e-03
287 2 2.407515049593e-03 5.031127643604e-03 2.152279092931e-03 1.805099652192e+01 -1.277412599021e+01 -3.449939751627e+00 -4.537914707209e+03 -1.355293165236e+03 1.689785186514e+04 8.416666666667e-04 6.243800255760e-06 -1.805128562928e-02 1.277433058245e-02 3.449995006358e-03
288 2 3.628321953404e-04 1.038326193659e-02 1.488432036264e-02 -1.227629368370e+01 1.396691661560e+01 2.214734959390e-01 1.709717146321e+04 1.903693938296e+04 2.300740441626e+04 8.416666666667e-04 6.243800255760e-06 -4.573274444994e-01 -3.070269452502e-01 -7.226547565141e+00
289 2 3.037039152320e-03 6.225447199633e-03 1.986216314360e-03 -1.118853759752e-01 2.857743580436e+00 4.049574652424e-01 1.892762910851e+03 1.069910474108e+04 -8.856286913802e+03 8.416666666667e-04 6.243800255760e-06 1.118871679474e-04 -2.857789350467e-03 -4.049639510994e-04
290 2 1.306287712786e-02 4.619815105042e-03 1.415582557659e-02 2.582491619238e+00 1.547487767513e+01 -9.164134108794e-01 6.736000702328e+03 4.836909173009e+01 -1.493140144468e+03 8.416666666667e-04 6.243800255760e-06 -2.582532980795e-03 -1.547512552300e-02 9.164280882882e-04
291 2 1.466841633354e-02 1.918938354974e-03 1.381013429686e-02 -8.553618478031e+00 2.761662746999e+00 -2.909159245471e+00 8.517606121074e+03 -1.493000223252e+03 -1.122954348983e+04 8.416666666667e-04 6.243800255760e-06 8.553755474013e-03 -2.761706978186e-03 2.909205838983e-03
292 2 1.550262240004e-03 9.932460592753e-03 1.428417242395e-02 2.177968575582e+01 4.856335677364e+00 -1.536130231949e+00 4.303514358023e+03 -8.397258608196e+03 -2.159532100296e+04 8.416666666667e-04 6.243800255760e-06 -2.178003458239e-02 -4.856413457134e-03 1.536154834831e-03
293 2 1.048792722491e-02 1.299073658110e-02 8.562468148838e-04 3.061188657565e+01 -1.100967630703e+01 1.108487602724e+00 -5.916630318101e+03 2.641263318497e+04 3.631767153909e+03 8.416666666667e-04 6.243800255760e-06 -3.061237686003e-02 1.100985263959e-02 -1.108505356421e-03
294 2 5.500166130055e-03 1.492128441718e-02 7.471943383236e-03 -2.231920658655e+01 5.354918427715e+00 5.276699353795e-01 3.135125227299e+04 5.628222379839e+03 7.269583255890e+03 8.416666666667e-04 6.243800255760e-06 2.231956405417e-02 -5.355004192858e-03 -5.276783866169e-04
295 2 8.223673629715e-03 1.271078061724e-02 5.382457485195e-03 -7.473046314658e+00 -5.295807214555e+00 -1.178095067137e+01 -1.350603088201e+04 -3.975771383017e+03 9.169321712165e+03 8.416666666667e-04 6.243800255760e-06 7.473166004041e-03 5.295892032964e-03 1.178113935676e-02
296 2 1.505866692541e-02 1.207986974439e-02 7.455654298073e-03 -2.510916678825e+01 -2.046998614657e+01 -1.018621628039e+01 6.260512177796e+03 1.604622504980e+04 1.064853990686e+04 8.416666666667e-04 6.243800255760e-06 2.510956894027e-02 2.047031399681e-02 1.018637942429e-02
297 2 1.333209697856e-02 1.412145494732e-02 1.220407045351e-03 -3.430629948091e+01 2.169096026847e+01 -1.292963265836e+01 4.791401969086e+03 5.717696285631e+03 1.367291453217e+04 8.416666666667e-04 6.243800255760e-06 3.430684893553e-02 -2.169130767401e-02 1.292983974121e-02
298 2 1.245390917331e-02 6.245517956321e-03 5.396216697509e-03 4.806326045092e+00 -1.038483727588e-02 -9.440286727609e+00 -7.488628222477e+03 6.256611031816e+03 9.398011862246e+03 8.416666666667e-04 6.243800255760e-06 -4.806403023900e-03 1.038500360092e-05 9.440437924597e-03
299 2 5.382829511858e-03 7.800015790425e-03 1.284675898955e-02 1.038688535876e+01 1.548658601402e+00 6.703965228804e-01 1.285065852974e+04 -1.966038542226e+04 1.913351234120e+04 8.416666666667e-04 6.243800255760e-06 -1.038705171661e-02 -1.548683404941e-03 -6.704072600474e-04
300 2 1.178572498847e-02 1.032576023382e-02 9.516153913823e-04 2.117080935329e+00 1.862852241444e+01 7.263117127876e+00 -2.228313475434e+04 2.559914424317e+03 1.960977257914e+04 8.416666666667e-04 6.243800255760e-06 -2.117114842802e-03 -1.862882077153e-02 -7.263233455003e-03
301 2 1.487582923900e-02 6.683446901881e-03 3.297326456959e-03 -7.702986842755e+00 8.174257680652e+00 1.754738360818e+01 6.970825154818e+03 -8.448437673427e+03 4.155425712228e+03 8.416666666667e-04 6.243800255760e-06 7.703110214898e-03 -8.174388600737e-03 -1.754766464960e-02
302 2 7.408831651837e-03 2.152831998855e-03 1.602499755721e-03 -6.331782619102e-01 -5.555470413314e+00 6.045089056245e-01 -5.755804618652e+03 -3.124797638957e+03 4.090005480183e+01 8.416666666667e-04 6.243800255760e-06 6.331884029842e-04 5.555559390526e-03 -6.045185875259e-04
303 2 7.449400880241e-04 8.209750024806e-04 1.437010629671e-03 6.668212407317e+00 2.177444762505e+01 3.182126223317e+00 -1.233104598022e+04 -8.913655689085e+03 5.702952787057e+03 8.416666666667e-04 6.243800255760e-06 -6.668319206365e-03 -2.177479636773e-02 -3.182177188708e-03
304 2 5.221265870358e-03 8.593973162643e-03 3.886328174100e-03 -3.370863730796e+00 3.713350995866e+01 8.211108607361e+00 -1.543656041649e+03 -3.072462907476e+03 -7.107902550507e+02 8.416666666667e-04 6.243800255760e-06 3.370917719034e-03 -3.713410469429e-02 -8.211240117656e-03
305 2 5.476647827580e-04 9.169606112140e-03 3.392696914190e-03 1.104671828836e+01 9.696345652809e+00 2.386652541952e+01 2.277304687335e+04 1.127528361887e+04 -4.570669753173e+03 8.416666666667e-04 6.243800255760e-06 -1.104689521419e-02 -9.696500950873e-03 -2.386690766922e-02
306 2 5.412558403852e-03 1.489720766924e-03 1.157943006113e-02 -5.747201977570e+00 3.331547234292e+00 -2.152549361089e+01 -1.342736800464e+04 1.037542474267e+04 6.389762145570e+03 8.416666666667e-04 6.243800255760e-06 5.747294025582e-03 -3.331600592831e-03 2.152583836628e-02
307 2 3.635883929888e-03 8.917193607534e-03 1.018744157546e-02 -3.827547935298e+00 3.074316864876e-01 -1.340139184519e+01 -8.294695346493e+03 -3.020889261530e+03 6.874352273682e+02 8.416666666667e-04 6.243800255760e-06 3.827609237855e-03 -3.074366103577e-04 1.340160648381e-02
308 2 4.319194239142e-03 8.268776441402e-03 1.464481875205e-02 -2.143632868872e+00 1.238898838894e+01 -5.791686760977e+00 1.291682017539e+04 4.506105807554e+02 9.795872877579e+03 8.416666666667e-04 6.243800255760e-06 2.933457502768e-02 -3.548075871351e-02 7.713787012925e-02
309 2 1.445751976452e-02 6.082230603698e-03 9.563896460588e-03 -2.133381466139e+00 1.559700743464e+01 -8.628024665415e+00 -7.130152795718e+03 -1.396108618687e+04 -7.859089055371e+01 8.416666666667e-04 6.243800255760e-06 2.133415634683e-03 -1.559725723855e-02 8.628162853097e-03
310 2 4.453541939947e-03 4.199771033203e-03 1.349589441703e-02 -4.797766192501e+00 1.160765702323e+01 2.023992369746e+01 6.401936069790e+03 2.266861040492e+03 -4.031382318081e+03 8.416666666667e-04 6.243800255760e-06 4.797843034213e-03 -1.160784293314e-02 -2.024024786299e-02
311 2 1.008703318666e-02 8.117498294134e-03 1.029789719126e-02 9.745696898548e+00 1.167640071246e+01 -1.166453033136e+01 -6.650897837468e+03 -3.268284980346e+03 1.033886628017e+04 8.416666666667e-04 6.243800255760e-06 -9.745852987029e-03 -1.167658772337e-02 1.166471715215e-02
312 2 1.304345931235e-02 2.618346657058e-04 5.462923013920e-03 -3.476801968812e+00 -2.326029974207e+00 6.810465377268e+00 1.430287276159e+03 1.345028070912e+04 1.754694638264e+03 8.416666666667e-04 6.243800255760e-06 3.476857653772e-03 2.326067228237e-03 -6.810574454660e-03
313 2 1.341268634508e-02 1.529321224364e-02 1.070335332756e-02 1.680776651779e+01 -9.084149660595e+00 -7.178250970057e+00 3.379842064484e+03 -1.087088977883e+04 -6.138383086324e+03 8.416666666667e-04 6.243800255760e-06 -1.680803571339e-02 9.084295153641e-03 7.178365937955e-03
314 2 8.641411174773e-03 4.261287191505e-04 2.239679793878e-03 -1.107095943600e+01 1.321711016398e+01 -2.596766159825e+01 1.075400450861e+04 -1.905575453005e+03 7.349925308686e+03 8.416666666667e-04 6.243800255760e-06 1.107113675008e-02 -1.321732185112e-02 2.596807750005e-02
315 2 1.262382737500e-02 1.952098677393e-03 8.382941147083e-03 -3.555170756433e+01 1.793726725793e+01 -3.506831139752e+00 5.789197602357e+03 2.774961200594e+02 3.409852623438e+03 8.416666666667e-04 6.243800255760e-06 3.555227696558e-02 -1.793755454378e-02 3.506887305663e-03
316 2 3.500120001128e-04 6.386106202447e-04 8.418237477077e-03 -1.005139021054e+01 -9.631687043892e+00 -4.982305507401e+00 -1.058473482174e+02 1.207868840855e+04 -7.135176624933e+03 8.416666666667e-04 6.243800255760e-06 1.005155119504e-02 9.631841306375e-03 4.982385304722e-03
317 2 3.609197858672e-03 9.244718062401e-03 1.282660302796e-02 -7.669267026882e-01 2.138860771371e+01 -2.308760280305e+01 -1.249816934009e+04 -2.175942191756e+03 -3.294152688903e+03 8.416666666667e-04 6.243800255760e-06 7.669389858964e-04 -2.138895027672e-02 2.308797257741e-02
318 2 1.380222322617e-02 1.159953334268e-02 1.310818325715e-02 3.925108108088e+00 2.860794577197e+00 -4.413212027073e+00 3.674712842287e+03 -4.847660759340e+03 -1.205117368451e+04 8.416666666667e-04 6.243800255760e-06 -3.925170973183e-03 -2.860840396094e-03 4.413282709711e-03
319 2 1.116742177556e-02 1.788212490063e-03 1.756743537956e-03 1.024222858462e+01 -1.083407762275e+01 4.372889132973e+00 2.134565269576e+03 -2.034104018374e+02 1.084319844035e+04 8.416666666667e-04 6.243800255760e-06 -1.024239262562e-02 1.083425114289e-02 -4.372959169794e-03
320 2 8.447505169122e-03 1.241901544667e-02 1.131415578577e-02 -3.263518400772e+01 -7.950902748111e+00 2.376052591329e+01 -5.043234494039e+03 -5.110259502364e+03 3.065024890786e+02 8.416666666667e-04 6.243800255760e-06 3.263570669751e-02 7.951030090912e-03 -2.376090646529e-02
321 2 8.082767961982e-03 1.780261603894e-04 2.296236484130e-03 -1.521974557103e+01 -1.579144819105e+01 -1.521271431835e+01 1.663813051802e+04 3.150034210506e+03 -3.210694795355e+03 8.416666666667e-04 6.243800255760e-06 1.521998933266e-02 1.579170110915e-02 1.521295796737e-02
322 2 1.030205177574e-02 7.439918877874e-03 1.170414564744e-02 -1.477882975749e+00 -7.299428278320e+00 -8.953243084840e+00 2.532491316439e+03 -6.017204925568e+03 -7.421414044054e+03 8.416666666667e-04 6.243800255760e-06 1.477906645735e-03 7.299545187011e-03 8.953386481267e-03
323 2 1.832305024516e-03 1.282349997961e-02 8.786757885586e-03 -1.119026912713e+00 2.995528894175e+00 -1.175383625061e+01 -1.364486051584e+04 -1.846052632754e+04 -1.022300739377e+04 8.416666666667e-04 6.243800255760e-06 1.119044835209e-03 -2.995576870996e-03 1.175402450174e-02
324 2 1.342659953983e-03 9.569222665375e-03 6.284469245871e-03 -1.372886749741e+01 1.687966197574e+01 1.306137138173e+01 4.347209439515e+03 3.836929274824e+03 -8.631459896728e+03 8.416666666667e-04 6.243800255760e-06 1.372908738093e-02 -1.687993232283e-02 -1.306158057453e-02
325 2 1.026515194665e-02 1.507290769491e-02 1.240775777437e-02 6.164824695485e+00 4.048665188662e-01 -5.987528147410e+00 5.192322422680e+02 -7.787955333373e+03 -1.618006407219e+03 8.416666666667e-04 6.243800255760e-06 -6.164923432203e-03 -4.048730032665e-04 5.987624044521e-03
326 2 1.534034534083e-02 1.741900359379e-03 6.393505745267e-03 1.161490856517e+01 -1.417638098985e+01 3.651690003408e+00 1.620347278751e+03 1.038439031889e+04 8.931789869118e+02 8.416666666667e-04 6.243800255760e-06 -1.161509459122e-02 1.417660804080e-02 -3.651748489399e-03
327 2 4.120133870268e-03 2.225818442414e-03 6.922745096299e-04 3.405010764477e-01 -1.016716367349e+01 1.073640830592e+01 1.140749932235e+04 5.076116365888e+02 3.164890463726e+03 8.416666666667e-04 6.243800255760e-06 9.008606445167e-03 6.965699560192e-02 -8.317713894353e-01
328 2 7.468950956705e-04 1.329716479535e-03 1.910387336424e-03 -3.659045480286e+00 4.991131085768e+00 1.678452384030e+00 -2.684253650674e+04 1.604133062206e+02 -6.155735951539e+03 8.416666666667e-04 6.243800255760e-06 3.659104084084e-03 -4.991211024440e-03 -1.678479266364e-03
329 2 7.229095218073e-03 1.132837568984e-02 1.154039875857e-02 -2.697294433054e+00 1.325688129940e+01 5.336317858084e+00 9.611904152480e+03 -7.101767078340e+03 3.200894786666e+03 8.416666666667e-04 6.243800255760e-06 2.697337633309e-03 -1.325709362351e-02 -5.336403325317e-03
330 2 1.498697782100e-02 1.273860141623e-02 1.455955401854e-02 1.823406184883e+01 1.417978744140e+01 -1.624136823938e+00 3.340717207678e+03 -1.170289884495e+04 1.742077882538e+03 8.416666666667e-04 6.243800255760e-06 -4.822160994118e-02 -5.492061858381e-02 1.027979211510e-01
331 2 1.224435916206e-02 7.488696249203e-03 1.079152550201e-02 6.823131371383e-01 -8.944237264403e+00 3.820554831658e+01 -6.394721247776e+03 1.804291674491e+03 4.959120368636e+03 8.416666666667e-04 6.243800255760e-06 -6.823240651635e-04 8.944380516591e-03 -3.820616022213e-02
332 2 3.153023301865e-03 3.237641753571e-03 2.134992632207e-03 8.156835721955e+00 -5.644920360949e-01 -1.623423467825e+01 -5.515126593830e+03 -1.249679399879e+02 4.627012901997e+03 8.416666666667e-04 6.243800255760e-06 -8.156966363007e-03 5.645010770804e-04 1.623449468808e-02
333 2 1.212735547972e-02 3.144078955394e-03 1.404782938021e-02 -4.725940905361e+00 3.910873888092e+00 -2.486251092152e+00 -1.220339416927e+04 -1.190344554913e+04 4.325171398857e+03 8.416666666667e-04 6.243800255760e-06 -1.768209797514e+01 1.688301572098e+01 3.014529147944e-01
334 2 1.193946159981e-02 1.490075452391e-02 7.935019571560e-03 -7.521915747137e+00 9.192619365670e-01 3.757596479765e+00 -8.002145011388e+02 7.767641312061e+02 1.654318291857e+03 8.416666666667e-04 6.243800255760e-06 7.522036219220e-03 -9.192766595982e-04 -3.757656661970e-03
335 2 9.705847634833e-03 3.809587157364e-03 1.355860037627e-02 1.324524652119e+00 -1.495936146054e+01 1.239530577821e+01 1.253465175593e+04 8.665871246544e+03 4.218051488921e+03 8.416666666667e-04 6.243800255760e-06 -1.324545865896e-03 1.495960105182e-02 -1.239550430321e-02
336 2 1.281869305585e-02 9.270641659567e-03 5.850399316051e-03 1.889360510835e+01 8.209529119473e-01 -4.548421082956e+00 -2.250179009285e+03 6.238941913898e+03 -1.776890283840e+03 8.416666666667e-04 6.243800255760e-06 -1.889390771104e-02 -8.209660604470e-04 4.548493931122e-03
337 2 1.057758246854e-02 1.503877428110e-02 1.025225805410e-02 2.529754058676e+01 -8.271109547286e+00 2.912166102030e+01 -1.113076915760e+04 6.867139777384e+03 9.845131523104e+03 8.416666666667e-04 6.243800255760e-06 -2.529794575581e-02 8.271242018564e-03 -2.912212743700e-02
338 2 9.591800161506e-03 2.547237053760e-03 6.161091414863e-03 3.268382376995e+00 9.116466776463e+00 1.791271665229e+00 4.298462683116e+02 8.741954882552e+03 -6.070507023514e+03 8.416666666667e-04 6.243800255760e-06 -3.268434723877e-03 -9.116612787104e-03 -1.791300354494e-03
339 2 4.282692939184e-03 1.759199953122e-03 5.523595293668e-03 6.676295907879e-02 9.001870584723e+00 1.969727873922e+01 -3.972906864278e+03 2.908020057720e+03 -5.974230358611e+03 8.416666666667e-04 6.243800255760e-06 -6.676402836393e-05 -9.002014759975e-03 -1.969759421366e-02
340 2 1.271955672989e-02 3.685050332108e-03 7.588514311327e-04 9.443097918516e+00 -1.071551727091e+01 5.507760067378e+00 3.502516287833e+03 1.363319011636e+03 3.302443082331e+02 8.416666666667e-04 6.243800255760e-06 -1.633023881488e-01 1.547250845474e-01 -4.269878154779e-01
341 2 1.386737239101e-02 8.726282423859e-03 1.195701594215e-02 -1.196275116607e+01 -2.033000536037e+01 -1.078887621087e+00 1.672100158224e+04 -6.665493353878e+02 1.170650384284e+03 8.416666666667e-04 6.243800255760e-06 1.196294276321e-02 2.033033096866e-02 1.078904900706e-03
342 2 1.849323759132e-03 1.030157779650e-02 3.244883490875e-03 1.144753955773e+00 -1.285486853294e+01 4.494225662602e+00 5.648979355354e+03 1.544219833569e+03 6.327654322053e+03 8.416666666667e-04 6.243800255760e-06 -1.144772290317e-03 1.285507441836e-02 -4.494297642766e-03
343 2 1.341299413252e-02 2.537342542057e-03 1.354860548021e-02 -3.464827308957e+00 9.007688329400e+00 1.922105050564e+01 7.347772959609e+02 -9.282519632870e+03 -1.070624626213e+04 8.416666666667e-04 6.243800255760e-06 3.464882802129e-03 -9.007832597830e-03 -1.922135835274e-02
344 2 9.938832635039e-03 6.966015378410e-03 8.388427286763e-03 -4.984525007088e+00 3.845257369008e+01 1.391456693777e+00 1.371454673011e+04 1.428751076578e+04 -6.311061471205e+03 8.416666666667e-04 6.243800255760e-06 4.984604839957e-03 -3.845318955203e-02 -1.391478979547e-03
345 2 6.807800615884e-05 5.787005243487e-03 1.314553957387e-02 -1.517616876185e+01 6.266360600068e+00 -6.684292348553e+00 1.161995607867e+04 5.184008777924e+02 1.069999855768e+04 8.416666666667e-04 6.243800255760e-06 1.517641182554e-02 -6.266460963000e-03 6.684399405140e-03
346 2 1.233047888400e-02 5.899126776727e-03 7.816247821771e-03 -1.757326391937e+00 -1.056086659834e+01 6.257855762756e+00 7.521589156703e+03 4.840952141017e+03 -3.452933137890e+03 8.416666666667e-04 6.243800255760e-06 -1.765706262951e+01 1.858254002685e+01 -1.831502495195e+01
347 2 8.111548300802e-03 2.664289660108e-03 5.482940202337e-03 -1.836864635508e+01 7.584653494468e+00 1.022561950425e+01 3.832161915764e+03 -5.290612679537e+02 -7.454241179286e+03 8.416666666667e-04 6.243800255760e-06 1.836894054995e-02 -7.584774971367e-03 -1.022578327924e-02
348 2 1.424365354419e-02 1.308725994014e-02 1.178245975450e-02 -1.304929950006e+01 1.152678304925e+01 2.693202263790e+00 1.304236989791e+04 -4.403534390526e+03 -1.519179913342e+04 8.416666666667e-04 6.243800255760e-06 6.469497358429e+00 1.761664683771e+01 -1.967126235933e+00
349 2 9.146585355689e-03 1.142056311344e-02 1.296120026046e-02 1.754180281784e+01 -2.025707994162e+00 -1.194412546673e+00 1.936544633568e+03 -1.170955990711e+04 -4.170361004033e+03 8.416666666667e-04 6.243800255760e-06 -1.754208376987e-02 2.025740438192e-03 1.194431676556e-03
350 2 4.434735623164e-03 1.177809835101e-02 5.858475433105e-03 -1.273425569833e+00 -8.708465726026e+00 -1.250800510592e+00 8.471755911970e+03 5.714898770454e+03 5.692251867149e+03 8.416666666667e-04 6.243800255760e-06 1.273445965200e-03 8.708605202064e-03 1.250820543592e-03
351 2 6.479024333249e-03 1.140948277328e-02 1.012313146772e-02 -1.680349988999e+01 4.214585181338e+00 1.291657641435e+01 6.288560196226e+03 -1.416422869768e+04 -3.766231774677e+03 8.416666666667e-04 6.243800255760e-06 1.680376901725e-02 -4.214652682739e-03 -1.291678328809e-02
352 2 1.228914336397e-02 3.271936101104e-03 4.460845067362e-03 -1.155467710467e+01 2.673128472319e+00 1.118383785893e+01 1.249855264865e+03 -2.827473931527e+04 4.435166503967e+03 8.416666666667e-04 6.243800255760e-06 1.155486216604e-02 -2.673171285529e-03 -1.118401698089e-02
353 2 7.011751051133e-03 8.558188927313e-03 1.309681996736e-02 1.256646567554e+01 2.447399645663e+01 -1.209063675529e+00 1.834291727909e+04 -6.609651652155e+03 -1.173486768827e+03 8.416666666667e-04 6.243800255760e-06 -1.256666694185e-02 -2.447438843567e-02 1.209083040067e-03
354 2 2.584318322362e-03 1.700864404573e-03 1.440172486595e-02 1.949749190522e+00 1.415483817190e+01 1.018380767474e+01 -2.779271702381e+03 -1.689881540031e+04 -1.032020675112e+04 8.416666666667e-04 6.243800255760e-06 -1.949780417985e-03 -1.415506487782e-02 -1.018397078007e-02
355 2 1.461653568317e-02 8.845477516931e-03 1.004560005527e-02 -1.002878696061e+01 -1.603599106551e+01 -1.294679530046e+01 -4.029593069708e+03 -3.752677772841e+03 -2.227511606005e+03 8.416666666667e-04 6.243800255760e-06 -2.619105469804e+01 -2.958244164271e+00 -1.711274917995e+01
356 2 1.007137736200e-02 6.263445636655e-03 7.487886545167e-03 -2.293390989073e+01 1.269910863729e+00 1.533253234018e+01 -1.217481121370e+00 -1.429246641024e+04 -4.537978999494e+03 8.416666666667e-04 6.243800255760e-06 2.293427720353e-02 -1.269931202804e-03 -1.533277790822e-02
357 2 3.646532016098e-03 1.145825878837e-02 9.972199962373e-03 2.075584454319e+00 1.217962574772e+01 2.962715244016e+00 -6.578216502906e+03 1.543226826566e+04 -1.696880586395e+03 8.416666666667e-04 6.243800255760e-06 -2.075617697178e-03 -1.217982081836e-02 -2.962762695289e-03
358 2 7.730078614650e-03 9.761026840066e-03 1.329089947570e-02 2.770926698161e+00 -4.530291175013e-01 -2.924916137680e+00 -5.740334263849e+02 -3.518759176296e+03 -7.165430309165e+03 8.416666666667e-04 6.243800255760e-06 -2.770971077720e-03 4.530363732808e-04 2.924962983557e-03
359 2 7.518657637560e-03 1.532580340982e-02 1.095001417927e-02 -2.162542441636e+01 -2.460956977885e+01 -1.257212509970e+00 -1.464480740187e+03 1.275117492951e+03 7.545755782983e+03 8.416666666667e-04 6.243800255760e-06 2.162577077226e-02 2.460996392925e-02 1.257232645666e-03
360 2 5.717236368376e-03 5.755588242352e-03 7.310785014574e-04 -1.390795385703e+01 -1.995981329855e+01 8.834442085715e+00 2.335320653184e+04 -1.616028473886e+04 1.474643612012e+04 8.416666666667e-04 6.243800255760e-06 5.079823887584e-02 5.577573643385e-02 -8.814117438443e-01
361 2 8.580040848572e-03 6.390512735912e-04 1.432483803168e-02 -6.898948161941e+00 -1.088043096756e+00 -2.390959119134e+00 -1.307171137170e+03 8.362311198865e+03 -2.832970179875e+02 8.416666666667e-04 6.243800255760e-06 6.899058656486e-03 1.088060523011e-03 2.390997413079e-03
362 2 2.653361658446e-03 1.141697961717e-02 5.482278209954e-03 -1.542060522703e+01 8.225803528681e+00 1.190215700371e+01 5.850313527741e+03 9.510292405224e+02 -7.605436275905e+03 8.416666666667e-04 6.243800255760e-06 1.542085220566e-02 -8.225935274331e-03 -1.190234763036e-02
363 2 6.166192414002e-03 7.389625414571e-03 1.248241910310e-03 1.993376243317e+01 1.236932695651e+01 6.684961722837e+00 5.821752189385e+03 2.654808205703e+03 -5.518049899648e+03 8.416666666667e-04 6.243800255760e-06 -1.993408169517e-02 -1.236952506543e-02 -6.685068790144e-03
364 2 1.299705208754e-02 1.303243017760e-02 1.453771644733e-02 -8.447794391635e+00 8.148003786603e-01 -2.861863384466e+00 9.480252564870e+02 1.009549858394e+04 -5.488301987831e+03 8.416666666667e-04 6.243800255760e-06 1.415134015449e-03 -3.115615832367e-03 3.377050019467e-01
365 2 5.738002599924e-04 1.258370624938e-02 8.098915251594e-03 2.015722282795e+01 1.793130821153e+00 1.204237294514e+01 -3.215981564758e+03 8.594772611914e+03 -6.135249500310e+03 8.416666666667e-04 6.243800255760e-06 -2.015754566893e-02 -1.793159540194e-03 -1.204256581752e-02
366 2 1.311048201171e-02 9.413147238470e-03 8.815872867736e-03 -1.706990904826e+01 -2.478148750854e+01 1.055403418431e+01 2.591191289908e+03 2.847941615871e+03 1.804312380555e+02 8.416666666667e-04 6.243800255760e-06 1.707018244238e-02 2.478188441240e-02 -1.055420321924e-02
367 2 8.480529338194e-03 3.822411464501e-03 4.801738738218e-03 6.803600342044e+00 3.029733518523e+01 -1.034790940329e+01 1.585851549193e+03 9.463571882556e+03 4.408661736405e+02 8.416666666667e-04 6.243800255760e-06 -6.803709309484e-03 -3.029782043170e-02 1.034807513689e-02
368 2 1.524295519337e-02 8.441758782277e-03 6.182257839536e-03 -1.954338885332e+01 -1.267913894838e+01 -2.408901502109e+01 2.400173582494e+03 8.712419419126e+03 -1.639023249220e+04 8.416666666667e-04 6.243800255760e-06 1.954370186305e-02 1.267934201929e-02 2.408940083421e-02
369 2 7.342583671065e-03 3.162283156021e-03 1.269846444202e-02 -1.857583792396e+01 -2.796452221511e+01 -9.752121152254e+00 -6.800627741890e+03 -9.509511607281e+03 -1.963173773480e+03 8.416666666667e-04 6.243800255760e-06 1.857613543725e-02 2.796497009892e-02 9.752277343627e-03
370 2 2.160272214130e-03 1.294398270566e-02 7.364332860871e-03 4.147800993199e+00 6.419445249459e+00 2.570196727974e+01 1.568946049145e+04 -5.163674659626e+03 -2.306845256273e+03 8.416666666667e-04 6.243800255760e-06 7.642168831118e+00 2.069943461748e+01 1.976012436803e+00
371 2 7.993258574631e-03 5.424140210664e-03 8.538685147897e-03 3.502159744689e+00 -1.499953221524e+01 8.012322476970e+00 2.191855548474e+04 2.061872617494e+03 -2.972440261405e+03 8.416666666667e-04 6.243800255760e-06 -3.502215835783e-03 1.499977244990e-02 -8.012450803477e-03
372 2 1.364593086348e-02 8.167747820430e-03 3.781269861473e-03 1.079563329981e+01 -1.725980442125e+01 -1.574602248946e+01 6.959408007645e+03 -1.242466176125e+04 -1.241558289941e+03 8.416666666667e-04 6.243800255760e-06 -1.079580620422e-02 1.726008085676e-02 1.574627468002e-02
373 2 6.087009918678e-03 1.101787078551e-02 1.469335130249e-02 1.434715074702e+00 1.044454962084e+01 2.834613317154e+00 -3.346479723298e+02 1.173010781239e+04 -3.035821558826e+03 8.416666666667e-04 6.243800255760e-06 -9.840392690293e-01 -9.392923925857e-01 -3.001043624600e+00
374 2 1.541009874059e-02 9.517059088675e-03 3.163312216393e-03 3.169280853967e+01 1.804054100776e+01 1.943680784158e+01 4.726867529383e+02 8.013560428747e+03 -1.236007436573e+03 8.416666666667e-04 6.243800255760e-06 -3.169331613624e-02 -1.804082994765e-02 -1.943711914428e-02
375 2 7.521495649576e-03 1.285610557915e-02 6.277758760051e-03 -3.496529354388e+01 1.690959731988e+00 1.145744137363e+01 -6.358521124966e+03 -1.021185662787e+04 -3.430489294995e+03 8.416666666667e-04 6.243800255760e-06 3.496585355304e-02 -1.690986814641e-03 -1.145762487765e-02
376 2 2.487632222439e-03 1.900051913174e-03 2.263081260466e-03 -2.671456455901e+01 1.952338489335e+01 5.420764194280e-02 2.311423588100e+03 -8.251911215599e+02 -1.506822125766e+04 8.416666666667e-04 6.243800255760e-06 2.671499242331e-02 -1.952369758268e-02 -5.420851014018e-05
377 2 9.080146161167e-03 7.335178164511e-03 4.673322133064e-03 1.853346365677e+01 1.122518740605e+01 -1.197913384614e+01 6.488237149844e+03 -8.240955037987e+03 2.762439256720e+04 8.416666666667e-04 6.243800255760e-06 -1.853376049138e-02 -1.122536719027e-02 1.197932570567e-02
378 2 2.720912921916e-03 3.126335408348e-03 9.529927535421e-03 2.135097249204e+00 -1.457433389127e+01 5.833994769673e+00 1.836458516286e+02 4.559339912205e+03 -6.584742668204e+03 8.416666666667e-04 6.243800255760e-06 -2.135131445228e-03 1.457456731590e-02 -5.834088207772e-03
379 2 1.027480201063e-02 7.857737515680e-03 8.986491178397e-03 1.660272312167e+01 -4.836958378898e-03 2.000877915135e+00 1.320723522286e+04 -7.273989122933e+03 4.343138495792e+03 8.416666666667e-04 6.243800255760e-06 -1.660298903327e-02 4.837035848318e-06 -2.000909961483e-03
380 2 1.096759027648e-02 1.188873302025e-02 1.134100363718e-03 5.113630532930e+00 -1.226328770337e+00 1.337856785069e+00 1.486730219863e+03 6.320646811048e+03 -2.190858065476e+03 8.416666666667e-04 6.243800255760e-06 -5.113712433572e-03 1.226348411394e-03 -1.337878212375e-03
381 2 7.250970657504e-03 1.383295060848e-02 1.354095166654e-02 3.926691272409e+00 -1.509870235549e+01 -1.560198363305e+01 -7.915028018057e+03 -1.929169692918e+04 9.692480119253e+03 8.416666666667e-04 6.243800255760e-06 -3.926754162860e-03 1.509894417848e-02 1.560223351666e-02
382 2 4.074412383344e-03 1.891911481844e-03 8.463773149446e-03 8.578638496421e+00 2.072907163982e+01 -2.383882213674e+01 -4.301783120265e+03 7.765603835521e+03 6.404207038904e+03 8.416666666667e-04 6.243800255760e-06 -8.578775893128e-03 -2.072940363961e-02 2.383920394274e-02
383 2 1.067757492910e-02 1.428833422791e-02 1.286696787253e-03 2.236397586677e+01 1.276638739346e+01 -9.863905025993e+00 8.759313848859e+03 1.642366183271e+03 1.634101034516e+04 8.416666666667e-04 6.243800255760e-06 -2.236433405142e-02 -1.276659186176e-02 9.864063007712e-03
384 2 2.191858661403e-03 2.381757204093e-03 1.354798015220e-02 -4.527577686092e+00 1.658904238608e+01 3.326762007981e+01 1.047205847691e+03 2.809786111801e+02 -1.146082087659e+04 8.416666666667e-04 6.243800255760e-06 4.527650200426e-03 -1.658930807857e-02 -3.326815289879e-02
385 2 9.343705654668e-03 1.474436005546e-02 1.206685317988e-02 -1.330413777401e+01 -1.755055734476e+00 -6.847814852553e+00 5.201908243462e+03 1.360485774767e+04 1.105254980336e+04 8.416666666667e-04 6.243800255760e-06 1.330435085499e-02 1.755083843700e-03 6.847924528139e-03
386 2 1.021890962557e-03 4.412141023232e-04 4.444767851626e-03 4.744776915998e+00 1.390536361829e+01 1.714922066425e+01 -9.629557599065e+03 1.299891125380e+04 4.318817435165e+03 8.416666666667e-04 6.243800255760e-06 -4.744852909026e-03 -1.390558632859e-02 -1.714949532863e-02
387 2 8.384809373460e-03 1.480393474554e-02 1.255366346867e-02 2.734757466591e+01 1.154864067584e+01 1.590743125272e+00 -1.804588745051e+04 -1.491984991269e+04 1.075231235576e+04 8.416666666667e-04 6.243800255760e-06 -2.734801266860e-02 -1.154882564052e-02 -1.590768602843e-03
388 2 3.005136644928e-03 7.330767494771e-03 1.093594210009e-02 5.772446722674e+00 -2.585875774618e+01 -5.716309138114e+00 -1.764244405432e+04 -2.353968408738e+04 -5.489029659640e+03 8.416666666667e-04 6.243800255760e-06 -5.772539175010e-03 2.585917190375e-02 5.716400691342e-03
389 2 8.091140513100e-03 1.327661038634e-02 7.814438889836e-03 -5.464679929636e+00 1.228093588264e+00 1.479123157190e+01 -5.110756617155e+03 1.200986198953e+04 2.915057757962e+03 8.416666666667e-04 6.243800255760e-06 5.464767452735e-03 -1.228113257587e-03 -1.479146847039e-02
390 2 1.497538623943e-02 1.058564621886e-02 5.473233630039e-03 -5.960309826439e+00 2.616165435605e+00 -1.044761582578e+01 -6.610634249432e+02 -7.602208519971e+01 -2.696567176435e+03 8.416666666667e-04 6.243800255760e-06 5.960405287617e-03 -2.616207336486e-03 1.044778315629e-02
391 2 3.923008134610e-03 1.393950535578e-02 6.283190691115e-03 -1.466115533031e+01 -1.325480308376e+01 -1.228232943010e+01 -4.489281989572e+03 -4.856755136829e+03 3.025024776659e+03 8.416666666667e-04 6.243800255760e-06 1.466139014548e-02 1.325501537459e-02 1.228252614565e-02
392 2 3.576042450526e-03 2.362630331619e-03 1.258416497530e-02 1.411508267008e+01 -1.614657495161e+01 -1.095799411561e+01 1.460870513116e+04 1.088170468642e+04 4.997892968057e+03 8.416666666667e-04 6.243800255760e-06 -1.411530873927e-02 1.614683355748e-02 1.095816962042e-02
393 2 1.111907847818e-02 2.550793016151e-03 5.055702748415e-03 -5.588619357272e+00 -9.386592465850e+00 5.524630256126e+00 3.515382125122e+03 2.057583358329e+02 -2.448941283248e+02 8.416666666667e-04 6.243800255760e-06 5.588708865402e-03 9.386742802863e-03 -5.524718739397e-03
394 2 1.650870969421e-03 1.481859907587e-02 1.432931417415e-02 -1.612309388192e+01 1.563866354827e+01 -1.201221255679e+01 1.865252342904e+04 1.982596438065e+04 4.867905904240e+03 8.416666666667e-04 6.243800255760e-06 1.612335211170e-02 -1.563891401935e-02 1.201240494611e-02
395 2 7.866192377642e-03 1.499303725298e-02 2.121015590379e-03 1.327015065290e+01 -1.065983314881e+01 3.534108463989e+00 1.815113560870e+04 8.919959617917e+02 -1.076185826031e+02 8.416666666667e-04 6.243800255760e-06 -1.327036318954e-02 1.066000387823e-02 -3.534165066778e-03
396 2 5.467274537158e-03 4.075497976356e-03 4.652446403157e-03 -2.971150871900e+01 -4.094494487568e+00 4.710251209788e+00 1.638662644375e+04 -1.478538619877e+04 2.992667126289e+03 8.416666666667e-04 6.243800255760e-06 2.971198458279e-02 4.094560065580e-03 -4.710326649848e-03
397 2 1.181577541666e-02 9.586837777324e-03 1.147063002495e-02 -1.213990032477e+01 -1.470053637457e+01 1.688721671393e+01 1.147459551757e+04 6.235440656874e+03 1.011999205250e+04 8.416666666667e-04 6.243800255760e-06 1.214009475916e-02 1.470077182047e-02 -1.688748718202e-02
398 2 4.737882437760e-03 1.008154514696e-02 1.422769853502e-02 -6.096971926942e+00 1.118481679500e+01 -4.911501638138e+00 1.337898792431e+04 6.977574995679e+03 6.880959510604e+03 8.416666666667e-04 6.243800255760e-06 6.097069576920e-03 -1.118499593263e-02 4.911580301454e-03
399 2 2.831012706883e-03 5.249534909668e-03 8.636659110803e-03 -6.662699875798e+00 -2.652800744916e+01 -6.450501524868e+00 -1.755072212990e+03 1.707465243431e+03 -5.586057532666e+03 8.416666666667e-04 6.243800255760e-06 6.662806586556e-03 2.652843232554e-02 6.450604837026e-03
400 2 6.547213653427e-03 1.317920110275e-02 3.154004937508e-03 1.650040911465e+01 -1.317128176899e+01 -8.011461075638e-01 1.124522967206e+04 4.060471374901e+03 1.015555507997e+04 8.416666666667e-04 6.243800255760e-06 -1.650067338758e-02 1.317149272213e-02 8.011589388350e-04
401 3 7.340778441459e-03 1.499716244500e-02 1.150876326649e-02 1.131513444450e+01 -3.714426125460e+00 7.786366264861e+00 1.667929432516e+03 3.288432840119e+03 -3.161300518517e+02 1.052083333333e-03 1.219492237453e-05 -1.131522723088e-02 3.714456584503e-03 -7.786430114633e-03
402 3 3.998725129886e-03 1.473818121270e-02 1.329950981109e-02 1.530207339553e+01 1.547592256049e+01 -3.972673531823e+00 9.781548294785e+03 -1.703447849912e+03 -3.384983209912e+03 1.052083333333e-03 1.219492237453e-05 -1.530219887561e-02 -1.547604946617e-02 3.972706108546e-03
403 3 8.237628477626e-03 8.579083740534e-03 7.811547497709e-03 -8.687395520819e+00 1.687974303940e+01 -1.531759290224e+01 2.368581918257e+03 1.552221428412e+03 2.609030359389e+03 1.052083333333e-03 1.219492237453e-05 8.687466759212e-03 -1.687988145670e-02 1.531771850959e-02
404 3 5.975237862328e-03 3.479602324420e-03 1.061250439040e-03 -4.491861949522e+00 1.195710881576e+01 1.687441140963e+00 -1.092675436776e+04 -4.488894381580e+03 3.605001124267e+03 1.052083333333e-03 1.219492237453e-05 4.491898783695e-03 -1.195720686646e-02 -1.687454978320e-03
405 3 6.672791659316e-03 1.531905077153e-02 7.980542854789e-03 -9.764372353099e+00 -2.961371437769e+00 2.772734832280e+00 6.834133482805e+03 2.136297059044e+03 -4.515795517990e+03 1.052083333333e-03 1.219492237453e-05 9.764452422920e-03 2.961395721611e-03 -2.772757569264e-03
406 3 1.245299973573e-02 1.143541115793e-02 1.391786507599e-02 -1.309880558484e+01 2.497891234049e+00 -4.969177995415e+00 -5.934365539719e+03 7.339459059156e+03 -1.112344342689e+04 1.052083333333e-03 1.219492237453e-05 1.309891299768e-02 -2.497911717260e-03 4.969218743675e-03
407 3 3.220266730709e-03 7.820184823385e-03 1.031692761068e-02 1.972232968066e+00 6.439398457462e+00 -8.783745149198e+00 -4.189461238460e+03 -9.149375062715e+03 8.790261430844e+03 1.052083333333e-03 1.219492237453e-05 -1.972249140773e-03 -6.439451261826e-03 8.783817177677e-03
408 3 1.287083484337e-02 1.009245918142e-02 1.438012989073e-02 2.255429409878e+00 7.939992423757e+00 7.450196184698e+00 -5.253357563205e+03 2.792003268239e+03 3.823420421202e+03 1.052083333333e-03 1.219492237453e-05 4.508533700016e-01 1.167603501671e+00 -2.854808547852e+00
409 3 1.408832894313e-02 1.364815602148e-02 1.569863229375e-03 -9.291192011082e+00 3.674318209715e+00 -1.413181266045e+00 -4.260357160325e+03 -3.441457181048e+03 9.287390315713e+02 1.052083333333e-03 1.219492237453e-05 9.291268200728e-03 -3.674348339865e-03 1.413192854416e-03
410 3 2.268267130735e-03 5.265077040972e-03 3.924332980451e-03 -1.319035933162e+01 -1.043907153480e+01 4.659036609245e+00 5.546678736664e+03 -2.467305089116e+02 4.300161983075e+03 1.052083333333e-03 1.219492237453e-05 1.319046749522e-02 1.043915713729e-02 -4.659074814284e-03
411 3 9.934648695975e-03 6.705629405378e-03 1.157474759976e-02 -1.403107922931e+01 -8.753171812466e+00 -4.775505948711e+00 6.949497437869e+03 3.092030829296e+03 8.016677433868e+02 1.052083333333e-03 1.219492237453e-05 1.403119428699e-02 8.753243590238e-03 4.775545108822e-03
412 3 4.860602958331e-03 7.993676237992e-04 9.512243400597e-04 2.788248458668e+00 1.721049812441e+01 5.924283852631e+00 -9.611806211713e+03 3.624655132076e+03 -5.841281795088e+03 1.052083333333e-03 1.219492237453e-05 9.600747898221e+00 -1.501394371471e-01 1.090593572772e+01
413 3 1.292301809460e-02 8.372713577473e-03 9.485251250531e-03 9.899076994460e+00 1.073488820520e+01 1.962463990898e+00 -1.036389751672e+03 1.533516068514e+04 4.633286181861e+03 1.052083333333e-03 1.219492237453e-05 -9.899158168885e-03 -1.073497623345e-02 -1.962480083498e-03
414 3 1.029594041736e-02 6.131865427481e-03 1.926754727928e-03 -7.409771007929e+00 -2.694614261318e+01 1.026418134242e+01 -3.924786916011e+03 9.305992562394e+03 6.412057587424e+03 1.052083333333e-03 1.219492237453e-05 7.409831769544e-03 2.694636357698e-02 -1.026426551078e-02
415 3 1.001574526317e-03 1.039923554095e-02 2.297587690133e-03 -6.774767299516e+00 -8.568078460457e+00 8.938103287422e-01 -7.819576911373e+02 -1.910959647853e+02 -3.974451522901e+02 1.052083333333e-03 1.219492237453e-05 6.774822853973e-03 8.568148720427e-03 -8.938176581669e-04
416 3 1.191858032057e-02 8.842874166236e-03 6.130032531494e-03 3.824155199352e+00 4.147745522838e+00 5.421559716152e+00 8.488646587854e+02 9.355678129847e+03 -3.319956618110e+03 1.052083333333e-03 1.219492237453e-05 -3.824186558195e-03 -4.147779535187e-03 -5.421604174034e-03
417 3 1.021696675556e-02 5.548477846606e-03 1.335333428493e-02 6.418158323983e+00 1.546879747471e+01 -1.443629565750e+01 -1.116155409193e+03 1.819965669882e+02 5.048145172154e+03 1.052083333333e-03 1.219492237453e-05 -6.418210954175e-03 -1.546892432196e-02 1.443641403803e-02
418 3 5.635714847221e-03 7.436354311806e-03 2.964955905350e-03 1.527429439442e+01 -1.946421051744e+00 -2.126029568227e+01 -1.823824459058e+03 -5.333417696946e+03 7.930273764253e+03 1.052083333333e-03 1.219492237453e-05 -1.527441964671e-02 1.946437012788e-03 2.126047002098e-02
419 3 4.193354738475e-03 5.707296371795e-04 1.057382662470e-02 1.878762854869e+01 -5.145897641390e+00 -1.857499096465e+00 5.353981539347e+03 -4.021376618437e+03 -3.578567882219e+03 1.052083333333e-03 1.219492237453e-05 -1.878778261103e-02 5.145939838788e-03 1.857514328332e-03
420 3 9.598025781436e-03 2.298418294107e-03 4.694907552469e-03 1.430916039981e+01 -2.458893784013e+00 -2.561479618623e+00 1.955130599645e+03 2.441806190839e+03 -1.737059367304e+03 1.052083333333e-03 1.219492237453e-05 -1.430927773781e-02 2.458913947437e-03 2.561500623272e-03
421 3 1.207668841752e-02 1.225370218119e-02 1.117987012706e-02 -3.825162908268e-01 -1.394377345601e+01 1.096251462084e+01 -7.032225271411e+03 -4.522791282365e+03 -9.096742728222e+03 1.052083333333e-03 1.219492237453e-05 3.825194275374e-04 1.394388779777e-02 -1.096260451567e-02
422 3 5.226895678343e-04 1.135376970480e-02 7.267116560306e-03 6.703403892209e+00 1.734363650529e+00 5.976890788765e+00 -3.218366996204e+03 2.614524440521e+03 -2.826974445483e+02 1.052083333333e-03 1.219492237453e-05 -6.703458861471e-03 -1.734377872660e-03 -5.976939800474e-03
423 3 7.451037786105e-03 6.051621848824e-03 1.197939105574e-02 1.975597213916e+00 -7.116661384358e+00 -7.061441368977e+00 -3.874878031772e+03 6.944021292037e+03 -1.805096661622e+03 1.052083333333e-03 1.219492237453e-05 -1.975613414212e-03 7.116719742415e-03 7.061499274219e-03
424 3 1.465983157094e-02 1.502642643462e-02 1.308341259525e-02 3.921797016897e+00 -8.985391139237e+00 2.929086865108e+00 -4.115638334351e+03 -8.215644196554e+03 5.221306094633e+03 1.052083333333e-03 1.219492237453e-05 -3.921829176423e-03 8.985464821254e-03 -2.929110884210e-03
425 3 2.635841771034e-05 1.505753721006e-02 7.711554089391e-03 1.372251500438e+01 8.932511415787e+00 -6.598038814740e+00 -5.741574750538e+03 -9.398024744478e+02 -2.147600379386e+03 1.052083333333e-03 1.219492237453e-05 -1.372262753176e-02 -8.932584664180e-03 6.598092919987e-03
426 3 9.528339838310e-03 7.345526789325e-03 7.659337712977e-03 -1.324476284263e+01 1.175796650190e+01 -1.441585913836e+01 4.495841352979e+03 1.985532710583e+03 7.533182547402e+03 1.052083333333e-03 1.219492237453e-05 1.324487145235e-02 -1.175806291960e-02 1.441597735131e-02
427 3 6.583099124769e-03 8.483432344187e-03 1.079889123712e-02 -8.133593447987e+00 4.633396460451e+00 -4.231918440010e+00 4.535816346346e+03 -4.997732628804e+03 -1.085723583142e+03 1.052083333333e-03 1.219492237453e-05 8.133660145092e-03 -4.633434455235e-03 4.231953142594e-03
428 3 8.751379470851e-03 1.302919096677e-03 9.809516251280e-03 -1.012447424724e+01 -3.862209209078e+00 -1.900569369254e+00 -1.056352358340e+03 1.837243793259e+03 3.260922410235e+03 1.052083333333e-03 1.219492237453e-05 1.012455726997e-02 3.862240879971e-03 1.900584954305e-03
429 3 4.514309941282e-05 6.873169424604e-03 5.033801204584e-03 6.491540729615e+00 2.047752340902e+01 -6.144880895036e+00 2.783522219518e+03 2.222581337501e+03 1.229976340338e+03 1.052083333333e-03 1.219492237453e-05 -6.491593961557e-03 -2.047769132884e-02 6.144931284297e-03
430 3 5.682522036055e-03 1.132664646108e-02 1.320712166435e-03 2.103817233070e+01 -1.346789494697e+01 -5.276728459691e+00 1.568414994273e+02 1.179441383663e+03 4.422221949532e+02 1.052083333333e-03 1.219492237453e-05 -2.103834484795e-02 1.346800538642e-02 5.276771729928e-03
431 3 5.935268056871e-03 8.343658066749e-03 2.647371297414e-03 -8.016238551973e+00 -2.331884590223e+01 -1.161811759773e+01 -7.435361240079e+03 4.088752624039e+03 -9.382420263042e+03 1.052083333333e-03 1.219492237453e-05 8.016304286744e-03 2.331903712146e-02 1.161821286864e-02
432 3 1.326558245199e-02 1.269286841964e-02 2.498435572077e-03 -9.500711796965e+00 -1.192188301130e+01 8.070411109481e+00 -1.360047407569e+03 -3.552100171424e+03 -3.027055702981e+03 1.052083333333e-03 1.219492237453e-05 9.500789704716e-03 1.192198077314e-02 -8.070477288478e-03
433 3 1.492808940641e-02 1.342577863392e-02 1.361696278245e-02 -1.826342036688e+01 7.675852990374e+00 4.075555526686e+00 -2.477478787273e+03 2.840025448123e+03 -9.733432650650e+03 1.052083333333e-03 1.219492237453e-05 1.826357013061e-02 -7.675915933914e-03 -4.075588947063e-03
434 3 7.914770770945e-03 4.153671476698e-03 6.068917029290e-03 -2.121312084083e+00 9.709616927418e+00 9.722746421531e+00 -2.886558304474e+03 -8.417966445059e+03 -2.513217451791e+03 1.052083333333e-03 1.219492237453e-05 2.121329479269e-03 -9.709696548232e-03 -9.722826150010e-03
435 3 1.793774223691e-03 1.328359540112e-02 6.215449006037e-03 -2.604693866560e+00 1.350572387814e+01 2.932541357941e+01 -4.791411153331e+03 1.484013205869e+03 1.447719797839e+03 1.052083333333e-03 1.219492237453e-05 2.604715225574e-03 -1.350583462780e-02 -2.932565405371e-02
436 3 5.929606259654e-03 5.435265693495e-03 8.289078310126e-03 6.495877098050e+00 -5.519693100215e+00 1.044091231256e+01 8.645217267051e+03 2.396739029196e+02 -3.533907086140e+03 1.052083333333e-03 1.219492237453e-05 -6.495930365551e-03 5.519738362810e-03 -1.044099793015e-02
437 3 1.008365960585e-02 7.905102023929e-03 1.159467936390e-03 -3.939116013688e+00 6.210902266882e+00 1.009482851545e-01 -2.695661994656e+03 1.174489943707e+03 -1.995789524768e+03 1.052083333333e-03 1.219492237453e-05 3.939148315233e-03 -6.210953197532e-03 -1.009491129507e-04
438 3 1.489774826359e-02 5.178711059533e-03 9.226458970557e-03 -1.536690672664e+00 3.810536232857e+00 -1.511066043263e+01 1.045768190966e+04 -3.304084652778e+03 1.464759567958e+03 1.052083333333e-03 1.219492237453e-05 1.536703273837e-03 -3.810567480022e-03 1.511078434309e-02
439 3 7.920993902639e-03 4.608130142014e-03 1.336009312062e-02 -1.222858660485e+00 -2.428926130030e+00 -1.026706714825e+01 -3.027028954877e+03 1.057528734822e+04 2.314338885769e+03 1.052083333333e-03 1.219492237453e-05 1.222868688173e-03 2.428946047713e-03 1.026715134027e-02
440 3 3.238632760249e-03 5.175768384464e-03 1.544702405852e-03 -4.186170082610e+00 1.688800106762e+00 2.755577122295e+00 -2.121201128584e+03 -2.012523230006e+02 8.500879967347e+03 1.052083333333e-03 1.219492237453e-05 4.186204410048e-03 -1.688813955263e-03 -2.755599718582e-03
441 3 3.140589599974e-03 9.429876827001e-03 1.430703641414e-02 6.789641696211e+00 -1.351221254789e+01 -2.403650914086e+00 1.850739396627e+03 3.256385802752e+02 -1.027519796574e+03 1.052083333333e-03 1.219492237453e-05 -6.789697372640e-03 1.351232335076e-02 2.403670624508e-03
442 3 1.488476372312e-02 2.072962621499e-03 1.744357292917e-03 -6.478376343995e+00 -1.106399708611e+01 -6.961039386566e-01 -1.926995506623e+03 -3.905985971037e+03 -1.147280315746e+04 1.052083333333e-03 1.219492237453e-05 6.478429467986e-03 1.106408781312e-02 6.961096468491e-04
443 3 1.297408149669e-02 1.522475797156e-02 3.185416975145e-03 -2.297805644929e+00 -1.163172056156e+01 -1.000324433677e+01 8.533936163184e+03 4.539857300708e+03 -1.153380460754e+03 1.052083333333e-03 1.219492237453e-05 2.297824487398e-03 1.163181594402e-02 1.000332636539e-02
444 3 1.067397825945e-02 1.154262967839e-02 1.359539112764e-02 1.232627526977e+01 6.211218265712e+00 6.177898097251e+00 2.894772041854e+03 1.065099566247e+04 -4.675426415797e+03 1.052083333333e-03 1.219492237453e-05 -1.232637634771e-02 -6.211269198953e-03 -6.177948757260e-03
445 3 5.462023746392e-03 8.813965722795e-03 1.418954911507e-02 -2.493796243874e+00 -1.606251386792e+01 1.361206268387e+01 3.040153878153e+03 8.529773877994e+03 -6.429838724202e+02 1.052083333333e-03 1.219492237453e-05 2.493816693506e-03 1.606264558377e-02 -1.361217430552e-02
446 3 2.204175619572e-03 1.109711439245e-02 8.921442425190e-03 5.963122050983e+00 -6.419850762547e+00 -3.990132702909e+00 2.327218563246e+03 2.199970474926e+03 -2.482717891601e+03 1.052083333333e-03 1.219492237453e-05 -5.963170949785e-03 6.419903406617e-03 3.990165422801e-03
447 3 6.524766821670e-03 2.635172600757e-03 1.402626788445e-03 9.906103015284e+00 1.051146202494e+01 1.679815380036e+00 3.886862941677e+03 4.844852241105e+03 5.258612547371e+03 1.052083333333e-03 1.219492237453e-05 -2.325262064482e+01 -1.637332161473e+00 1.588564439377e+01
448 3 9.434406397785e-03 4.857860748404e-03 1.056629115535e-03 -2.639197977423e+00 1.083716583078e+01 6.686667568836e-01 5.657642588706e+03 1.880220205112e+03 -6.185142138091e+02 1.052083333333e-03 1.219492237453e-05 2.639219619379e-03 -1.083725469772e-02 -6.686722400857e-04
449 3 1.157971769340e-02 3.385380339646e-03 3.568817307869e-03 -3.939683157485e+00 1.063616705441e+01 -7.552232252270e-01 -8.162099263585e+02 2.583312388213e+03 3.169654234237e+03 1.052083333333e-03 1.219492237453e-05 3.939715463680e-03 -1.063625427312e-02 7.552294182096e-04
450 3 9.262152880462e-03 1.170322730089e-03 1.132224732899e-02 1.233935396888e+01 -2.534985822700e+00 4.442709830055e+00 -5.888325196962e+03 4.849924135073e+03 -5.127578216987e+03 1.052083333333e-03 1.219492237453e-05 -1.233945515406e-02 2.535006610095e-03 -4.442746261171e-03
451 3 3.705644960531e-03 6.772963994510e-04 4.073202861250e-03 1.123945469260e+01 -7.086976964831e+00 6.093839408003e+00 -2.464953306312e+03 -5.761548035610e+03 7.464139631389e+03 1.052083333333e-03 1.219492237453e-05 -1.123954685840e-02 7.087035079469e-03 -6.093889378714e-03
452 3 7.911452825821e-05 7.972823460637e-03 4.091488048539e-03 -5.020942277382e+00 4.456944720443e+00 1.917050324229e+00 1.904825485964e+03 -6.480261841752e+03 -1.997135074996e+03 1.052083333333e-03 1.219492237453e-05 5.020983450120e-03 -4.456981268288e-03 -1.917066044428e-03
453 3 1.105429015801e-02 1.663294521040e-03 1.428674632192e-02 -4.498436112857e+00 1.115477544778e+00 -1.687352549760e+00 1.063609389631e+03 4.291815502049e+03 -7.478543470216e+03 1.052083333333e-03 1.219492237453e-05 4.498473000939e-03 -1.115486691919e-03 1.687366386391e-03
454 3 3.326566643918e-03 1.343171323722e-02 1.463078440823e-02 -4.652196251439e+00 -2.418617059940e+00 -2.275958763557e-01 -4.589576639046e+03 1.054244225541e+04 -4.916225542720e+03 1.052083333333e-03 1.219492237453e-05 -1.096765232521e+00 -6.886817112250e-01 -6.475306844372e+00
455 3 1.373503140977e-02 7.606454140626e-04 1.155487944889e-02 -3.940798022397e+00 1.120028918696e+01 -9.268921471151e-02 2.046486516609e+01 -3.770860406825e+03 -3.673167483350e+03 1.052083333333e-03 1.219492237453e-05 3.940830337735e-03 -1.120038103159e-02 9.268997478174e-05
456 3 1.374971447431e-02 7.619984245813e-03 1.022325960835e-02 -4.449500994223e+00 -1.981104899134e+01 -3.129001586498e+00 3.282686938545e+03 -8.776526134184e+03 -4.701508118669e+03 1.052083333333e-03 1.219492237453e-05 4.449537481027e-03 1.981121144593e-02 3.129027244941e-03
457 3 8.909026537806e-03 1.465485167045e-02 1.062774702185e-02 -6.890748052828e+00 1.600877096220e+01 3.571258580549e+00 -4.854011790296e+03 3.433675777388e+03 5.193763397676e+03 1.052083333333e-03 1.219492237453e-05 6.890804558351e-03 -1.600890223735e-02 -3.571287865589e-03
458 3 1.134315192361e-02 4.487567543719e-03 1.261394433767e-02 6.581206682515e+00 -7.071018842207e+00 6.271958322035e+00 -3.749641845117e+03 3.112674619400e+03 -9.781065052632e+03 1.052083333333e-03 1.219492237453e-05 -6.581260649735e-03 7.071076825986e-03 -6.272009753357e-03
459 3 9.951700704293e-03 1.312821367701e-02 1.339905982508e-02 -7.226626123324e+00 -5.340287630160e+00 2.392833238673e+00 -2.779721088302e+03 -1.211772131391e+04 6.903886461822e+01 1.052083333333e-03 1.219492237453e-05 7.226685383114e-03 5.340331421595e-03 -2.392852860387e-03
460 3 7.835016732199e-03 1.124976001756e-02 1.407647069312e-02 -1.163326431385e+01 5.195066688903e+00 -1.703573147364e+00 4.484939749607e+03 1.095585381075e+04 4.934636871592e+03 1.052083333333e-03 1.219492237453e-05 1.163335970896e-02 -5.195109289496e-03 1.703587117007e-03
461 3 1.762870482954e-03 1.241429535733e-02 8.208482135877e-03 3.492664398484e+00 -2.418456286236e+01 -5.087802697672e+00 -2.673287401559e+03 -1.619363776492e+03 1.460056686394e+03 1.052083333333e-03 1.219492237453e-05 -3.492693039036e-03 2.418476118065e-02 5.087844418679e-03
462 3 2.458073748810e-03 2.959079012973e-03 2.508361425976e-03 -2.063866298298e+00 1.036814764702e+01 1.063159527679e+01 -2.122419243078e+03 1.122226059930e+04 3.747538874441e+03 1.052083333333e-03 1.219492237453e-05 2.063883222417e-03 -1.036823266792e-02 -1.063168245801e-02
463 3 1.398270528629e-02 7.183498666173e-03 1.178089675813e-02 5.567673355833e+00 -2.961838779676e+00 8.792093724546e+00 7.831113566120e+03 2.655144496739e+03 -3.154898503289e+03 1.052083333333e-03 1.219492237453e-05 -5.567719011876e-03 2.961863067350e-03 -8.792165821486e-03
464 3 -1.434100631756e-05 1.007708165603e-02 1.307588437790e-02 -1.372139515613e+01 6.061830613679e+00 -2.276337411778e+00 -9.025018069490e+03 4.711203610230e+03 2.214129390177e+03 1.052083333333e-03 1.219492237453e-05 1.372150767434e-02 -6.061880321911e-03 2.276356078203e-03
465 3 1.098763377587e-02 8.913633256408e-04 8.766551539746e-03 1.077537096336e+01 8.724769179837e+00 -4.309011542388e+00 -1.976851919897e+03 9.057137894540e+02 -6.098031393504e+03 1.052083333333e-03 1.219492237453e-05 -1.077545932357e-02 -8.724840724702e-03 4.309046877151e-03
466 3 1.360083681906e-02 8.230680288577e-03 2.787285524867e-03 -1.054865171792e+01 8.787856077038e+00 -4.103657015511e+00 -3.351936457594e+03 -5.186284633650e+03 -2.770111296146e+02 1.052083333333e-03 1.219492237453e-05 1.054873821899e-02 -8.787928139228e-03 4.103690666325e-03
467 3 4.328388976534e-03 1.150943629486e-02 2.477746953011e-03 7.493851957954e+00 -5.500946944278e+00 -3.314167738579e+00 -4.186389872416e+03 -4.379196457220e+03 4.267815706129e+03 1.052083333333e-03 1.219492237453e-05 -7.493913409050e-03 5.500992053151e-03 3.314194915422e-03
468 3 1.266774014975e-02 1.670744915296e-03 6.654297683044e-03 1.675675594564e+01 7.056987088745e+00 1.515852756437e+01 -7.950171942418e+03 -5.577760501888e+03 -1.191134563992e+04 1.052083333333e-03 1.219492237453e-05 -1.675689335441e-02 -7.057044957461e-03 -1.515865186735e-02
469 3 1.533724225847e-02 7.466776351829e-03 1.315841049156e-02 1.367693629329e+01 2.168927378904e-01 -1.838874721012e+00 -7.660908825504e+03 2.661681420174e+03 2.725165997217e+03 1.052083333333e-03 1.219492237453e-05 -1.367704844692e-02 -2.168945164546e-04 1.838889800155e-03
470 3 7.054748683508e-03 7.363811702231e-03 4.592286855311e-03 -2.838629038774e+00 1.068230347366e+01 1.587660832243e+01 2.156177660765e+04 1.916306496617e+03 4.954639717104e+03 1.052083333333e-03 1.219492237453e-05 2.838652316104e-03 -1.068239107070e-02 -1.587673851382e-02
471 3 8.013504957524e-03 5.669737295340e-03 1.571862042007e-03 -1.089414194787e+01 6.683185790249e+00 2.065801600926e+01 4.515971035462e+03 -6.266179769994e+03 -1.730271574706e+03 1.052083333333e-03 1.219492237453e-05 1.089423128203e-02 -6.683240593719e-03 -2.065818540915e-02
472 3 1.249359977569e-02 1.479177125853e-02 1.146624871730e-02 -2.512798341038e-01 3.017740974953e+00 -3.503691939567e+00 -7.861248454712e+03 -5.208688127021e+01 -4.828700568232e+03 1.052083333333e-03 1.219492237453e-05 2.512818946490e-04 -3.017765721037e-03 3.503720670546e-03
473 3 1.691479932503e-03 7.280605200955e-05 1.311229317140e-02 -3.793208427664e+00 3.965088752851e+00 -1.550435050057e+00 5.617669012315e+03 -5.048941449508e+03 -1.340940936345e+03 1.052083333333e-03 1.219492237453e-05 3.793239532737e-03 -3.965121267378e-03 1.550447763936e-03
474 3 1.211051815241e-03 1.434688698636e-02 1.071789229919e-03 8.378695615757e+00 7.296005388691e+00 6.950764837687e-01 -4.065014240214e+03 9.069836332056e+02 3.890087031951e+03 1.052083333333e-03 1.219492237453e-05 -8.378764322748e-03 -7.296065217405e-03 -6.950821835359e-04
475 3 8.919051557924e-03 1.742684894729e-03 9.199598288713e-04 -3.358319220939e+00 -1.139173070151e+01 1.392616090421e+00 7.672865878109e+03 -2.472321802101e+03 2.067950898581e+03 1.052083333333e-03 1.219492237453e-05 1.472585977958e-01 6.430368826006e-01 1.294265911081e+00
476 3 2.474267606898e-03 9.334183028032e-03 1.032037430629e-02 5.853939538894e+00 1.283906588492e+01 -3.625120082759e+00 1.015505212813e+04 -9.025859468933e+03 -8.605182573477e+03 1.052083333333e-03 1.219492237453e-05 -5.853987542377e-03 -1.283917116785e-02 3.625149809474e-03
477 3 1.419033031488e-02 5.835840991895e-03 7.806607523113e-03 3.744802509457e+00 -8.548733468849e+00 -2.710682715391e+00 3.128044913095e+03 -6.384659845923e+02 -6.514480126703e+03 1.052083333333e-03 1.219492237453e-05 -3.744833217592e-03 8.548803570185e-03 2.710704943536e-03
478 3 4.305055484337e-03 5.904846046774e-03 1.169964081032e-03 -3.720929581297e+00 -5.029313886190e+00 5.915361242833e+00 1.836925206130e+03 -6.916777373958e+02 6.647823166508e+02 1.052083333333e-03 1.219492237453e-05 3.720960093669e-03 5.029355127577e-03 -5.915409749987e-03
479 3 1.246841746734e-02 5.892488965597e-03 1.139176683086e-02 -3.733772662369e+00 1.093040607989e+01 -1.286431268462e+01 3.865407697018e+03 -6.052069051242e+03 -5.979944697824e+03 1.052083333333e-03 1.219492237453e-05 3.733803280057e-03 -1.093049571142e-02 1.286441817458e-02
480 3 2.295497908179e-03 4.587690330644e-03 4.672345337041e-03 -3.370501059953e+01 -1.732386829402e+01 1.211778982046e+01 2.494056681499e+03 6.101147118934e+03 -3.468206986644e+03 1.052083333333e-03 1.219492237453e-05 3.370528698741e-02 1.732401035323e-02 -1.211788918878e-02
481 3 1.331877548490e-02 9.466669820884e-04 5.904966221098e-03 -2.390344710055e+00 -1.487233695522e+01 -1.706288256214e+01 -6.319854146656e+03 2.418430350473e+03 -8.137838803116e+02 1.052083333333e-03 1.219492237453e-05 2.390364311363e-03 1.487245891138e-02 1.706302248122e-02
482 3 4.984786363884e-03 1.019250130403e-02 1.164960679856e-03 9.158066018317e+00 -1.067029920149e+01 -7.299692824178e+00 1.360502029166e+04 -8.663855495638e+03 -4.875188056516e+03 1.052083333333e-03 1.219492237453e-05 -9.158141116303e-03 1.067038670009e-02 7.299752683129e-03
483 3 1.519251638766e-03 1.507587127853e-02 7.668783497467e-03 -1.001010725715e+01 1.091004411576e+01 9.585347471567e+00 5.432156307314e+03 3.427141765842e+03 6.497155543124e+02 1.052083333333e-03 1.219492237453e-05 1.001018934204e-02 -1.091013358032e-02 -9.585426073348e-03
484 3 1.511956233172e-02 1.299342995283e-02 2.644171171125e-03 1.805228459227e+01 1.591262484859e+01 -5.454497120546e+00 4.090812812621e+02 2.776633328619e+03 4.495817774572e+03 1.052083333333e-03 1.219492237453e-05 -1.805243262464e-02 -1.591275533532e-02 5.454541848521e-03
485 3 8.965513831037e-03 1.708768426992e-04 8.214237452153e-03 -1.566120300507e+00 6.213886642383e+00 2.099403948801e+00 2.070446314968e+03 7.352990851896e+03 -4.649041794211e+03 1.052083333333e-03 1.219492237453e-05 1.566133143009e-03 -6.213937597505e-03 -2.099421164337e-03
486 3 1.520475896543e-02 1.960505006514e-03 5.616071866428e-03 1.881348905365e+01 -9.749241411063e+00 1.292100247172e+01 1.956097129014e+03 6.968089839870e+03 -9.826222743667e+03 1.052083333333e-03 1.219492237453e-05 -1.881364332805e-02 9.749321356807e-03 -1.292110842655e-02
487 3 1.527555265603e-02 1.368956912882e-02 9.127089681087e-04 1.012230219757e+01 2.690346415005e-01 8.456554067202e+00 -2.411566127241e+02 9.807191294550e+03 7.195621076789e+03 1.052083333333e-03 1.219492237453e-05 2.412923750240e-02 -2.744753737525e-03 -1.212154775926e+00
488 3 2.033168218505e-03 3.834046062647e-03 1.423364643702e-02 -1.937382197285e+01 1.302087345642e+01 8.185937791861e+00 1.029716688433e+03 8.602894443506e+03 5.225432289915e+03 1.052083333333e-03 1.219492237453e-05 1.937398084210e-02 -1.302098023020e-02 -8.186004918200e-03
489 3 1.216340583972e-02 1.800406568049e-03 7.115541194891e-03 -2.137794832840e-01 1.952095357013e+00 1.025561946938e+01 5.548980006497e+02 -3.832129196601e+03 1.813315760790e+03 1.052083333333e-03 1.219492237453e-05 2.137812363188e-04 -1.952111364588e-03 -1.025570356753e-02
490 3 1.509439543168e-02 8.997236565736e-03 1.045243471139e-02 -6.787880589163e+00 -4.032015900056e+00 8.860884900724e-01 1.967779831483e+03 1.733799190116e+03 1.658744411685e+03 1.052083333333e-03 1.219492237453e-05 2.620766679900e+01 2.978289214703e+00 1.712467623554e+01
491 3 5.309317973598e-03 1.245510542597e-02 1.217437151748e-02 7.839004481122e+00 -3.959075188954e+00 -6.170184727067e+00 5.293165782643e+03 -7.703317638051e+03 -6.083020481118e+03 1.052083333333e-03 1.219492237453e-05 -7.839068762538e-03 3.959107654168e-03 6.170235323825e-03
492 3 8.325186808204e-03 5.256832938664e-03 3.134395291023e-03 -4.140977994181e+00 9.570932829156e-02 1.292534427867e+01 6.775486907844e+03 -1.508531289036e+02 -1.257704726904e+03 1.052083333333e-03 1.219492237453e-05 4.141011951034e-03 -9.571011312734e-05 -1.292545026909e-02
493 3 9.582054752015e-03 8.080452730533e-03 3.396552490192e-03 2.068755227919e-01 -5.079766385062e+00 -1.152384504330e+00 3.119949837476e+03 3.777245110200e+02 1.976427675527e+03 1.052083333333e-03 1.219492237453e-05 -2.068772192128e-04 5.079808040170e-03 1.152393954115e-03
494 3 1.408075273243e-02 1.315478335661e-02 3.674161632069e-03 6.304115229564e+00 -1.743668635114e+00 6.656690733005e+00 3.418933211202e+03 -1.345637193059e+04 3.514320060437e+03 1.052083333333e-03 1.219492237453e-05 -6.304166924579e-03 1.743682933548e-03 -6.656745319210e-03
495 3 4.256330830208e-03 5.951115805491e-03 5.065382690907e-03 3.095379278433e+00 4.808172504454e+00 2.141817078723e+01 1.148328211036e+04 -3.808117602096e+03 -6.952373139957e+03 1.052083333333e-03 1.219492237453e-05 -3.095404661167e-03 -4.808211932437e-03 -2.141834642055e-02
496 3 8.436541289380e-03 5.124940920342e-03 9.001594003361e-04 1.129475066231e+01 -1.923751211247e+01 -1.298663921969e+01 4.493072344546e+03 2.605555786161e+03 -2.745113791079e+03 1.052083333333e-03 1.219492237453e-05 -1.801025607538e+00 2.826478865819e+00 7.211004823653e+00
497 3 5.369538248629e-03 4.754836595176e-03 2.919109382718e-03 -2.256436394324e+01 -1.098047812799e+01 -1.434268088055e+00 -8.547970575896e+03 2.668179381184e+03 -2.517752751165e+03 1.052083333333e-03 1.219492237453e-05 2.256454897557e-02 1.098056817013e-02 1.434279849342e-03
498 3 9.982181445045e-05 1.091471306710e-02 1.413791580717e-02 -1.238408327445e+01 -1.191115242241e+01 -6.306480717934e+00 -1.132445865603e+04 1.175173922028e+04 -5.001546564998e+03 1.052083333333e-03 1.219492237453e-05 1.238418482643e-02 1.191125009626e-02 6.306532432346e-03
499 3 4.983408695842e-04 1.339871144102e-02 9.701961030855e-03 -2.243003876024e+00 8.737231643288e+00 -5.448838043965e-01 -9.759775106379e+03 1.187073294982e+04 -6.062762161507e+03 1.052083333333e-03 1.219492237453e-05 2.243022269108e-03 -8.737303290347e-03 5.448882725535e-04
500 3 1.357573535950e-02 1.992951035996e-03 1.090905897458e-02 1.439407453904e+01 9.714873311423e+00 8.258936652037e+00 1.124407234002e+03 3.446661918049e+03 -1.804780158430e+03 1.052083333333e-03 1.219492237453e-05 -1.439419257335e-02 -9.714952975341e-03 -8.259004376982e-03
