ITEM: TIMESTEP
175000
ITEM: NUMBER OF ATOMS
500
ITEM: BOX BOUNDS pp pp ff
0.0000000000000000e+00 1.5370634520482899e-02
0.0000000000000000e+00 1.5370634520482899e-02
0.0000000000000000e+00 1.5370634520482899e-02
ITEM: ATOMS id type x y z vx vy vz omegax omegay omegaz radius mass fx fy fz
1 1 5.911677704857e-03 1.239176941027e-03 1.492488054858e-03 3.079479883165e-05 7.765516799952e-05 -1.191968375283e-04 -2.358820821021e+00 2.564944704456e+00 1.043540456003e+00 7.500000000000e-04 4.417864669111e-06 -2.107218683832e-08 -5.164478386044e-08 7.796046034463e-08
2 1 5.584554264802e-03 4.028747580758e-03 1.461571954266e-02 -1.979451040001e-290 3.303226298936e-290 1.711240221623e-292 -7.383888520185e+01 1.340356251913e+02 -1.560420119521e+01 7.500000000000e-04 4.417864669111e-06 1.983941765530e-291 -3.310720236583e-291 -1.715122464727e-293
3 1 1.470832990916e-02 1.346423711416e-02 1.473847454651e-02 -1.998355873343e-08 9.609410287210e-09 1.694251489741e-08 3.115435275144e-05 1.448004467190e-05 -3.866391326298e-05 7.500000000000e-04 4.417864669111e-06 1.148260841710e-11 6.345374510865e-12 -1.478285833272e-11
4 1 1.513377514751e-02 9.205367218454e-04 1.328123327991e-02 -1.491904499584e-08 -8.070545397532e-09 1.491093310721e-08 3.176370244995e-06 -1.078853645535e-05 1.331744703975e-05 7.500000000000e-04 4.417864669111e-06 1.340176121507e-11 2.066199983427e-12 -2.631251145699e-12
5 1 1.570123758268e-03 7.155737079476e-03 1.472224494030e-02 7.820957681880e-09 -3.966496378498e-09 9.216687971070e-09 1.961974666783e-06 -2.243718947594e-06 -1.700321467137e-05 7.500000000000e-04 4.417864669111e-06 -4.538044116654e-12 5.020170314042e-12 -5.109320956615e-12
6 1 4.697716750217e-03 1.052306799234e-02 1.094543225510e-02 -4.581273978716e-08 -2.579491951036e-08 2.785951527324e-08 2.508769686809e-05 3.630159352156e-05 -4.026069206000e-06 7.500000000000e-04 4.417864669111e-06 2.176607075686e-11 1.865928599452e-11 -1.694806072143e-11
7 1 8.283724368181e-03 1.169935030636e-02 2.999365373859e-03 -8.200187567680e-08 9.005161117758e-08 6.188997657378e-08 5.228150471404e-05 3.090320818343e-04 5.003252675389e-05 7.500000000000e-04 4.417864669111e-06 4.130868481901e-11 -3.947145474731e-11 -1.987658187301e-11
8 1 1.902320774985e-03 6.549688196025e-03 1.159562156813e-02 1.161379248581e-08 -1.258410149455e-08 1.344204746378e-08 -1.676676363128e-06 -5.084069399932e-06 1.043583834761e-05 7.500000000000e-04 4.417864669111e-06 -7.857798645115e-12 5.161239584744e-12 -5.582346072811e-12
9 1 6.202302847908e-03 7.213019898023e-03 1.213654676224e-02 -2.051081214406e-08 4.324971354365e-08 1.663839023064e-08 5.606134815075e-05 7.342023510540e-05 2.643303947516e-05 7.500000000000e-04 4.417864669111e-06 1.317180217178e-11 -2.017594644200e-11 -7.414905867738e-12
10 1 1.636610741182e-03 7.477829307322e-03 1.050895975485e-02 -1.171373357411e-08 -6.584369966843e-10 3.249156209091e-08 4.339706780440e-05 2.534842842659e-05 1.635519460057e-05 7.500000000000e-04 4.417864669111e-06 2.016897087849e-11 -2.157097455903e-12 -1.000542726393e-11
11 1 6.061617810169e-04 5.983278299915e-03 1.143083140098e-02 1.219340751479e-08 -5.210143240588e-10 4.553993368699e-09 -1.270072385261e-05 -1.490061737795e-05 -2.433238663473e-05 7.500000000000e-04 4.417864669111e-06 -3.474047419012e-12 4.737969068120e-12 -3.623595422981e-12
12 1 3.080804721642e-03 6.042662341337e-03 2.609271523236e-03 -3.004470316394e-09 -5.974481617107e-08 1.121716274463e-08 3.650903936786e-05 -6.318509848989e-06 5.550742943247e-05 7.500000000000e-04 4.417864669111e-06 2.033894747576e-11 4.177069750278e-11 -9.454047735606e-12
13 1 9.606331407886e-03 6.925405727987e-03 6.682468830402e-03 -2.635001294519e-08 1.007910088489e-08 2.200277790497e-08 1.432555354265e-05 -8.909282540264e-06 -8.870134037101e-06 7.500000000000e-04 4.417864669111e-06 1.559408217973e-11 -6.228961207450e-12 -1.204080883292e-11
14 1 3.653444898892e-03 9.183381113922e-03 6.974514003564e-03 -4.575437817003e-08 -4.903098346018e-08 8.790247753456e-09 -9.138720983118e-06 -3.440606081001e-05 -9.565690504140e-06 7.500000000000e-04 4.417864669111e-06 2.840281350530e-11 3.869702579041e-11 4.194585607612e-12
15 1 4.075342054913e-03 1.178841178811e-02 1.468931174135e-02 -5.672541174353e-09 1.564955398993e-09 2.785396678614e-09 2.195389281413e-06 2.042028153997e-06 7.330783449282e-06 7.500000000000e-04 4.417864669111e-06 8.519135735341e-12 -4.232995977864e-12 -2.516386342090e-12
16 1 1.447101920062e-02 5.196840151864e-03 6.513769506053e-03 -3.729606022825e-08 -2.840413430555e-08 -7.397598123901e-09 1.967319889161e-05 2.325392815367e-05 3.397587668748e-06 7.500000000000e-04 4.417864669111e-06 2.278940620743e-11 1.646921614046e-11 8.950675575306e-12
17 1 3.814162674676e-03 2.866253428234e-03 6.478366112712e-04 -7.341642751142e-07 3.127354803330e-07 1.728839714607e-07 -5.861280123488e-04 -1.055347087490e-03 -4.576743596029e-04 7.500000000000e-04 4.417864669111e-06 4.862632284416e-10 -2.050846526970e-10 -1.060678672762e-10
18 1 6.067095543524e-03 1.631669288357e-03 9.622293355730e-03 -2.649166004127e-08 -9.981377256341e-09 1.012521065159e-08 -5.732134473460e-06 2.026307211831e-05 6.381399952439e-05 7.500000000000e-04 4.417864669111e-06 1.768412964601e-11 1.028391797293e-11 -4.987290203568e-13
19 1 8.538237594027e-03 6.736575632866e-03 1.468293958023e-02 -2.814722772263e-08 -1.600844397748e-07 -2.479460986437e-08 -2.079029615030e-04 5.280979378434e-05 5.464560972317e-04 7.500000000000e-04 4.417864669111e-06 1.719111916704e-11 7.184852593030e-11 1.898672919636e-11
20 1 9.867088342456e-03 1.506573017735e-02 1.509301958485e-03 -8.266609059701e-07 -5.807338100101e-07 3.622234594675e-07 3.708712870506e-04 -9.369881205109e-04 2.605047736050e-03 7.500000000000e-04 4.417864669111e-06 5.356778728372e-10 3.842339929097e-10 -2.451174711043e-10
21 1 1.110180550300e-02 1.454334645358e-03 4.708793186330e-03 -8.546226920861e-08 -2.961237628766e-08 -9.393848470329e-10 -3.152391226658e-05 1.533730075801e-05 -5.683283387707e-05 7.500000000000e-04 4.417864669111e-06 7.018070632269e-11 2.165499643825e-11 6.633960430840e-12
22 1 5.589705336354e-03 9.335998700159e-03 6.785465007405e-04 -2.611686799725e-08 -1.784345723542e-08 3.203608483740e-09 2.613374669620e-05 -2.777151434365e-05 4.538623554346e-05 7.500000000000e-04 4.417864669111e-06 1.862172173783e-11 1.231144114818e-11 -2.775177354017e-12
23 1 1.257749602681e-02 6.398303468707e-03 8.607631801180e-03 -6.303171501930e-09 -3.012561581586e-08 1.676287713891e-08 -1.421401477968e-05 4.446673137221e-05 1.448075219463e-05 7.500000000000e-04 4.417864669111e-06 1.693708731039e-12 3.096614901688e-11 -2.205587389701e-12
24 1 2.693299308393e-03 1.507764126465e-02 1.315123124845e-02 -1.269420792786e-08 -1.558393429090e-09 8.047963592342e-09 -3.206441026582e-06 5.946982332245e-06 -2.655563768382e-06 7.500000000000e-04 4.417864669111e-06 -5.502505902021e-12 -4.353155545539e-12 -2.375104629599e-11
25 1 2.618321329868e-03 1.503733940666e-02 4.036518371198e-03 1.106707046684e-321 -1.101766390226e-321 1.106707046684e-321 -2.895655014510e+02 4.030772948193e+03 5.535434622080e+03 7.500000000000e-04 4.417864669111e-06 -1.086944420851e-322 1.086944420851e-322 -1.086944420851e-322
26 1 8.754439026581e-03 1.052107339490e-02 2.308118306408e-03 -7.435006598770e-08 9.846126977467e-08 5.298375050051e-09 -1.998276753004e-05 -7.374990812109e-05 4.284359083638e-05 7.500000000000e-04 4.417864669111e-06 4.915368635590e-11 -7.236549921721e-11 -3.080094799642e-12
27 1 3.897410212057e-03 1.500563857838e-02 9.913007254381e-03 -2.294166032275e-270 -2.525094407463e-270 2.180967229400e-270 -5.212634733471e+00 -2.060635224776e+00 2.595519974007e+00 7.500000000000e-04 4.417864669111e-06 2.299370742956e-271 2.530823018926e-271 -2.185915129104e-271
28 1 4.952586323846e-03 8.897319515693e-03 4.798308825984e-03 -3.300069403570e-08 -2.992565695644e-08 1.769029990484e-08 1.766786913616e-05 -1.777009155044e-05 1.951804966098e-05 7.500000000000e-04 4.417864669111e-06 2.400258216214e-11 1.723203051624e-11 -7.347933096288e-12
29 1 5.957869746267e-03 7.906819938654e-03 1.085392558005e-02 -4.742685228356e-08 3.241492688030e-08 1.348482427505e-08 -7.447572889466e-05 -3.260624387908e-05 -2.531103160100e-05 7.500000000000e-04 4.417864669111e-06 2.453336283280e-11 -8.472355800244e-12 -5.687533690682e-12
30 1 7.864493197927e-03 2.343862867499e-03 9.785808368568e-03 -1.513676809752e-09 -1.431117646488e-09 1.824788204985e-08 -2.104408267002e-06 -2.541444234426e-05 7.153307281184e-06 7.500000000000e-04 4.417864669111e-06 -1.495897647168e-12 4.877145620898e-12 -9.764688490427e-12
31 1 1.391661409359e-02 8.139824844763e-03 5.401480608296e-03 -1.859031767237e-08 -1.439627206157e-08 2.895990984474e-08 1.956725854635e-05 -1.338892284947e-05 4.495155308079e-06 7.500000000000e-04 4.417864669111e-06 3.957610536200e-12 1.009808675458e-11 -1.314765164527e-11
32 1 1.262140726254e-03 3.391003011960e-03 1.174540167319e-02 -2.677090692006e-08 -5.078771167003e-09 1.077528026798e-08 1.204996493797e-05 1.710066402858e-05 -3.154229449817e-06 7.500000000000e-04 4.417864669111e-06 2.101416684446e-11 1.035792386136e-11 -5.416756379648e-12
33 1 3.560922771607e-04 1.121166083677e-02 6.313163039246e-04 -2.972200586061e-08 -3.197618875186e-08 2.146783642126e-09 2.395770699539e-05 -2.566257426313e-05 -5.030117807757e-06 7.500000000000e-04 4.417864669111e-06 3.034751703088e-11 3.541339533242e-12 1.531368534647e-11
34 1 4.754670349365e-03 5.624221388858e-03 1.097192130117e-02 -3.300511287230e-09 -1.071249068244e-08 1.647542530239e-08 -1.402628190504e-05 2.417685415478e-05 -5.089125433536e-06 7.500000000000e-04 4.417864669111e-06 -2.823698704410e-11 5.488772205595e-12 -9.696637583476e-12
35 1 5.617889058448e-03 3.724727987049e-03 7.702496144214e-03 -3.008200239429e-08 5.050838033776e-09 -3.756393996270e-08 9.465650440949e-05 1.417457282128e-05 -5.938697015778e-05 7.500000000000e-04 4.417864669111e-06 9.766640631545e-12 5.829429304725e-12 1.240759398965e-11
36 1 1.404526387645e-02 1.511070454331e-03 8.413548027155e-03 -5.558110341504e-08 -2.575449089349e-08 2.944950879985e-08 -2.939518562237e-05 4.120273987205e-06 2.161413078990e-05 7.500000000000e-04 4.417864669111e-06 2.325300073956e-11 3.225038494064e-11 -2.147796017252e-11
37 1 1.411955037690e-02 5.597478742484e-03 1.993451819078e-03 -4.454719337597e-10 -1.942099093514e-08 2.735743897579e-08 2.031029733025e-05 -3.081445680895e-06 -5.304152020163e-06 7.500000000000e-04 4.417864669111e-06 -1.217374939167e-12 1.465904212688e-11 -1.664358673294e-11
38 1 8.547735570585e-03 1.246046079045e-02 1.053828268118e-02 -2.906719098325e-09 1.332383477104e-09 2.592155242392e-09 2.699535659399e-06 -5.785059339204e-05 -3.286680657922e-05 7.500000000000e-04 4.417864669111e-06 -9.536461452090e-12 1.075657176299e-11 -2.151639382750e-12
39 1 3.286440362494e-03 1.300142173007e-02 1.006845161983e-02 -3.593230769071e-08 -2.152487454110e-08 2.077636253590e-08 -1.085255405793e-05 1.633385299283e-05 7.391500363378e-06 7.500000000000e-04 4.417864669111e-06 2.164579738688e-11 1.334181733781e-11 -6.695613617674e-12
40 1 9.488637590635e-03 1.052901826441e-02 1.467922504790e-02 -9.155682699035e-09 -8.664834686117e-09 -1.765969016708e-08 -3.462214926646e-05 3.265789150943e-05 1.041559182303e-04 7.500000000000e-04 4.417864669111e-06 1.144718765027e-11 -4.561350705951e-12 8.219412887301e-12
41 1 7.376341923250e-03 6.906320741953e-03 1.121833634726e-02 -9.111543408955e-09 2.568156666581e-09 1.534211189660e-08 -5.272765397643e-07 4.204981132588e-06 4.554380505784e-06 7.500000000000e-04 4.417864669111e-06 8.458806933900e-12 9.265098102999e-13 -7.184988447491e-12
42 1 6.945093802973e-03 1.431015603141e-02 3.770427199837e-03 -1.117016782354e-07 4.991068420885e-08 3.230051960586e-07 2.500699139823e-04 1.114665125428e-04 -1.544344195221e-04 7.500000000000e-04 4.417864669111e-06 6.792820188761e-11 -4.108768458218e-11 -1.929347459648e-10
43 1 2.262140726405e-03 4.577048359981e-03 9.172292989606e-03 -2.860027708373e-08 -1.416185210263e-08 2.808362583198e-08 8.561680495990e-06 1.992586583197e-05 6.109923260628e-06 7.500000000000e-04 4.417864669111e-06 1.890632461388e-11 1.439786244955e-11 -1.572868723227e-11
44 1 1.323736376417e-02 1.673645451127e-03 6.766143569531e-04 6.271831536062e-09 -2.149648120928e-08 -6.054415021271e-09 1.294964364252e-05 1.553571508272e-05 -1.499254164251e-05 7.500000000000e-04 4.417864669111e-06 -1.324781750447e-11 3.080090911994e-11 3.778230817539e-12
45 1 8.644760548674e-03 9.103758090694e-03 1.976071945751e-03 -2.823290239949e-08 6.659655871539e-08 3.507222128390e-08 -8.091034018147e-06 -3.307136114870e-07 2.177094018231e-05 7.500000000000e-04 4.417864669111e-06 3.365796175448e-11 -6.080316146438e-11 -8.938380913748e-12
46 1 2.086265823072e-03 7.705778061574e-03 1.331471098166e-02 -1.280065325315e-09 -2.341794970000e-09 9.608640845340e-09 4.427705202997e-06 4.076809197277e-06 2.218330681018e-05 7.500000000000e-04 4.417864669111e-06 4.642546458756e-12 1.636218101768e-12 -3.011426111457e-12
47 1 1.486536232817e-02 3.237483795528e-03 9.358005631087e-03 -1.106707046684e-321 -1.106707046684e-321 -1.106707046684e-321 -2.225336016832e+03 -2.168334929616e+03 -6.473661247452e+03 7.500000000000e-04 4.417864669111e-06 1.086944420851e-322 1.086944420851e-322 1.086944420851e-322
48 1 8.954196271802e-03 1.405501747476e-02 7.455563744913e-04 -2.422281828614e-07 -1.284419999594e-07 -1.873279452540e-07 1.094075984038e-04 -3.075877166405e-04 2.849784767642e-03 7.500000000000e-04 4.417864669111e-06 1.583478857166e-10 8.618083262811e-11 1.254224504040e-10
49 1 2.201226938641e-05 5.251584983598e-03 1.468698228098e-02 -5.490405901230e-09 -7.548862576168e-09 3.403511294972e-09 -1.512779381642e-06 4.161930636038e-06 1.049241896924e-05 7.500000000000e-04 4.417864669111e-06 7.288249219651e-12 -2.911419793920e-13 -1.461412704988e-12
50 1 1.164048101794e-02 7.306902704117e-03 7.997639807516e-03 -3.315127135735e-08 -2.458548321900e-08 8.652961635900e-08 9.368636670203e-05 -5.459492325264e-06 2.480459364777e-05 7.500000000000e-04 4.417864669111e-06 2.579607083170e-11 2.003253548250e-11 -3.050949823389e-11
51 1 1.448147546407e-02 6.340873163149e-03 7.558655407460e-04 1.367585282451e-08 -1.827759574036e-08 1.162472149632e-08 -1.737975263200e-05 2.066618022980e-05 -2.661774628960e-05 7.500000000000e-04 4.417864669111e-06 -1.155214720253e-11 1.293950896150e-11 -7.420612078822e-12
52 1 1.000024723007e-02 1.048613080768e-02 1.276209806860e-02 -3.012876058799e-07 1.272416623930e-06 -2.932062190852e-07 2.656606580538e-03 -3.957629236404e-05 -1.819132262959e-04 7.500000000000e-04 4.417864669111e-06 1.480496692038e-10 -6.063184435195e-10 1.383268218577e-10
53 1 1.502466875957e-02 1.343215105670e-02 1.182053913556e-02 -1.360017900648e-08 1.675553270575e-08 1.531221533448e-08 -7.029389738397e-05 1.145805962046e-04 -5.716862778960e-05 7.500000000000e-04 4.417864669111e-06 1.182490870844e-11 -5.366967139511e-12 -1.889574094011e-11
54 1 2.666183655694e-03 1.532441864758e-02 2.552513467025e-03 -1.232817256102e-07 -1.883522763630e-07 -1.009529967141e-07 3.418993787354e-05 2.553524576448e-04 -2.757447210217e-05 7.500000000000e-04 4.417864669111e-06 8.332266790167e-11 1.254180501530e-10 6.503225043099e-11
55 1 1.388301098761e-02 1.419044410062e-02 7.835542764485e-03 -4.765022232175e-08 -2.974973862324e-09 7.989474191726e-09 -1.342099618949e-05 1.372438148647e-05 -2.021375622069e-06 7.500000000000e-04 4.417864669111e-06 3.034171315253e-11 1.502769143866e-11 -1.640860829736e-12
56 1 3.993950392833e-03 2.271732938458e-03 7.555633164884e-03 -1.959931572149e-08 -7.758515374145e-09 4.296051905669e-08 4.861311744574e-05 -6.450415057010e-05 -1.629136817512e-05 7.500000000000e-04 4.417864669111e-06 1.196483318626e-11 2.532087218720e-12 -2.381306562075e-11
57 1 7.455807926558e-03 8.878848951127e-03 1.440289438492e-02 5.305003312339e-300 7.435449672274e-300 6.635288244485e-300 -7.605634170850e+03 -2.608992579472e+03 1.278439354630e+03 7.500000000000e-04 4.417864669111e-06 -5.317038625831e-301 -7.452318270178e-301 -6.650341538409e-301
58 1 1.133935212005e-02 4.566033118664e-03 1.397695636340e-02 1.101766390226e-321 1.106707046684e-321 1.106707046684e-321 -9.658792729049e+02 -2.688292425673e+03 -3.755103404466e+03 7.500000000000e-04 4.417864669111e-06 -1.086944420851e-322 -1.086944420851e-322 -1.086944420851e-322
59 1 1.456598034044e-02 1.002144794020e-02 7.830290786955e-03 -3.700712052732e-08 -1.336802080132e-08 6.186757959128e-09 2.072005373242e-05 1.586530464094e-05 -1.638267641038e-05 7.500000000000e-04 4.417864669111e-06 2.317865764067e-11 2.302799581855e-12 4.399136309054e-12
60 1 8.058011980477e-03 4.569615971949e-03 1.241835844604e-02 3.667986295372e-08 -1.441638117266e-08 2.759134717899e-08 -6.059138752860e-06 -6.600257276664e-05 -4.404935451183e-05 7.500000000000e-04 4.417864669111e-06 -1.980623867271e-11 5.649281456164e-12 -1.600711562366e-11
61 1 5.278866679432e-03 6.206938569952e-03 9.861657894465e-03 -1.385829774495e-08 -2.292681210184e-08 7.678381013392e-09 -4.437808898213e-07 -3.075079032649e-06 5.173075105805e-06 7.500000000000e-04 4.417864669111e-06 1.115889836999e-11 1.880860300177e-11 -8.033525254990e-12
62 1 3.765487486001e-03 4.633109744371e-03 5.374309720718e-03 -2.474874023735e-08 -1.366338570816e-07 6.630367051771e-08 -1.118853223218e-04 1.556218379343e-05 -9.430998504183e-05 7.500000000000e-04 4.417864669111e-06 1.379006577698e-11 9.106785522975e-11 -4.076782774367e-11
63 1 1.041309402815e-02 1.372510925527e-02 7.453956238779e-04 3.273041668591e-07 1.050307865244e-06 3.276227027088e-07 -1.448850545337e-03 4.340011104654e-04 -1.312631933144e-03 7.500000000000e-04 4.417864669111e-06 -2.186286607667e-10 -6.944236735906e-10 -2.174215649969e-10
64 1 1.447931200128e-02 6.656464986921e-03 1.325664017712e-02 1.236398712030e-08 -1.278422686213e-08 8.649250530180e-09 -3.727616114610e-05 2.053270349740e-05 3.719465620854e-05 7.500000000000e-04 4.417864669111e-06 -1.087953292729e-11 7.363837121741e-12 -9.648991920773e-12
65 1 1.364544985259e-02 1.252405277275e-02 1.472571248469e-02 -2.166558539597e-08 -3.644925245577e-08 1.554662980278e-08 -4.326561106519e-05 2.203266976837e-05 9.768242327238e-05 7.500000000000e-04 4.417864669111e-06 1.682548582459e-11 1.717961503551e-11 -6.526494494100e-13
66 1 1.761571438730e-03 9.571046209272e-03 6.700441255501e-04 -5.102821503046e-09 -1.550944614066e-08 7.176650860449e-10 5.465483510257e-06 -2.322640326881e-06 1.261495036115e-05 7.500000000000e-04 4.417864669111e-06 -1.601123676280e-12 2.019082958497e-11 -1.743470803783e-12
67 1 1.216515618444e-02 1.036795858557e-03 8.876620438008e-03 -1.106707046684e-321 -1.106707046684e-321 1.106707046684e-321 -3.902536519156e+03 1.497687331423e+03 -5.574865175916e+02 7.500000000000e-04 4.417864669111e-06 1.086944420851e-322 1.086944420851e-322 -1.086944420851e-322
68 1 3.164692833620e-03 1.115542343680e-02 2.375907421076e-03 -6.458378424197e-08 -2.047638108407e-08 2.212878335937e-08 -1.399827703756e-06 -3.232235485143e-05 5.422210974869e-05 7.500000000000e-04 4.417864669111e-06 4.340734146755e-11 1.161636049796e-11 -1.588635376697e-11
69 1 8.776572300798e-03 1.578214377135e-04 6.987635694659e-04 -1.419799053415e-07 -1.322597774392e-07 -5.766669848536e-08 1.856623710524e-04 -1.680909042756e-04 -3.044523196562e-03 7.500000000000e-04 4.417864669111e-06 8.348199071519e-11 8.417134152699e-11 4.191785682141e-11
70 1 3.832605412487e-03 8.765096483789e-03 8.376184705226e-03 -4.880232806684e-08 -2.891327779185e-08 3.744999634977e-08 -5.911836727045e-06 3.656491228358e-05 -1.729693008767e-05 7.500000000000e-04 4.417864669111e-06 2.630357932366e-11 1.707451238664e-11 -1.775662344829e-11
71 1 7.900999579643e-03 1.083581186447e-02 6.972437237479e-04 -1.484383121222e-08 1.648495713088e-08 1.469640107180e-08 -8.394689827574e-06 7.874085335248e-06 7.075469982394e-05 7.500000000000e-04 4.417864669111e-06 6.364414742252e-12 -4.862457078137e-12 -1.168682379652e-11
72 1 1.308991805183e-02 1.007320775772e-02 4.406439323455e-03 -4.170307769327e-08 -2.827836155320e-08 4.205219916066e-08 -5.868572195652e-05 1.742084368445e-05 6.971183198874e-05 7.500000000000e-04 4.417864669111e-06 2.378878101688e-11 2.116653455361e-11 -4.539674176757e-11
73 1 1.482727138955e-02 6.529787471453e-03 1.467363567085e-02 6.347365329452e-09 -2.079890037955e-08 2.105867458668e-08 1.682317580309e-05 1.411153064017e-05 -2.116991113380e-05 7.500000000000e-04 4.417864669111e-06 9.945673067748e-13 7.588537118534e-12 -6.255534194253e-12
74 1 7.224486054470e-03 5.983964810403e-03 1.239495233860e-02 -1.496293589256e-07 1.917748999994e-07 -1.258837930756e-07 -2.030914815446e-04 -2.213909922492e-05 3.140599578114e-04 7.500000000000e-04 4.417864669111e-06 6.835806512014e-11 -8.207028331869e-11 5.825002440506e-11
75 1 8.388635255545e-03 3.656261868304e-03 1.357373537140e-02 4.495536128870e-09 5.228801955902e-09 3.165360866829e-10 4.584282951031e-06 1.724945880934e-05 -1.319577232250e-05 7.500000000000e-04 4.417864669111e-06 -2.289076337221e-11 2.795517658394e-11 2.514605975563e-11
76 1 1.008845753497e-02 2.214322839838e-03 3.988217908469e-03 -8.420587324588e-08 6.128035669902e-09 -4.043320842086e-08 -1.046987519660e-04 3.713094858976e-05 -4.642021641531e-05 7.500000000000e-04 4.417864669111e-06 4.849480181435e-11 -5.800884892760e-12 2.078217433264e-11
77 1 8.049437447501e-03 1.022874576859e-02 1.467750728307e-02 6.456682580056e-09 -1.736298680200e-08 2.914127492854e-09 -1.891440270050e-05 -1.643887194023e-05 -7.576830394279e-05 7.500000000000e-04 4.417864669111e-06 -3.269154865454e-12 4.545152639049e-12 -2.709770778955e-12
78 1 1.413360665702e-02 7.785662118580e-03 7.377714779102e-04 1.501055654830e-08 -4.692323918308e-09 -7.206643294898e-10 -5.186846538011e-06 1.474444310770e-05 1.954338985409e-05 7.500000000000e-04 4.417864669111e-06 -1.124221780015e-11 1.613149722399e-12 9.188780685284e-13
79 1 6.389598402210e-03 1.409197769141e-02 1.460019002505e-02 -1.715704340161e-08 6.942711099563e-09 8.547992987580e-09 -1.309636395189e-05 -7.936216537856e-06 2.288390553652e-06 7.500000000000e-04 4.417864669111e-06 4.056497743384e-12 9.591113533225e-12 9.822191820835e-13
80 1 1.074675350539e-02 1.097240322136e-03 1.030358574634e-02 -2.614541410269e-08 -2.605467053052e-08 2.180756282241e-09 2.179103109750e-05 -4.607235529469e-05 1.943842325195e-06 7.500000000000e-04 4.417864669111e-06 1.124775414129e-11 1.728075691367e-11 -2.823374794532e-12
81 1 3.070013766290e-03 6.344167923170e-04 6.987156148574e-04 7.253204235499e-08 -2.484948339406e-08 2.445342652228e-08 5.742468796119e-05 5.868766368095e-05 1.298992426902e-04 7.500000000000e-04 4.417864669111e-06 -4.884760047893e-11 1.924342589006e-11 -1.397564864486e-11
82 1 4.335291496339e-03 1.345005125636e-03 7.022453346462e-04 -5.649359920550e-08 4.416205393071e-07 -1.690116583558e-07 -7.065527908370e-04 -3.111576590154e-05 5.371368431298e-04 7.500000000000e-04 4.417864669111e-06 2.980706748041e-11 -2.950608497604e-10 1.104518949513e-10
83 1 4.496649285148e-03 1.437990290892e-02 3.421605418052e-03 2.666954318408e-149 -1.443092517075e-148 -2.822827026591e-149 -3.727426645284e-04 2.591756498830e-03 -6.897640909826e-04 7.500000000000e-04 4.417864669111e-06 -2.673004763507e-150 1.446366420939e-149 2.829231095769e-150
84 1 8.503997177720e-03 1.535220087195e-02 8.001660543999e-03 -2.399198407752e-08 -6.775613266438e-09 -1.084820224740e-09 9.221154050693e-06 9.157941808599e-06 -5.765812447743e-06 7.500000000000e-04 4.417864669111e-06 1.116431722755e-11 7.680046394369e-12 3.251675323959e-12
85 1 1.450285813025e-02 4.872966400682e-03 4.899702943087e-03 -1.719399811784e-08 -3.602780611409e-08 -9.046955099578e-09 -9.182315938743e-06 -3.584673025249e-05 5.691374466226e-06 7.500000000000e-04 4.417864669111e-06 9.789785505355e-12 2.472391631224e-11 6.739432203312e-12
86 1 2.185789972219e-03 8.127471127015e-03 7.150352245303e-03 -1.969017142505e-08 -4.038448642105e-08 1.080902304716e-08 1.858860631629e-05 8.802098725735e-06 -4.037024700365e-05 7.500000000000e-04 4.417864669111e-06 1.481645774259e-11 2.927990482731e-11 -6.279820248724e-12
87 1 7.698062227325e-04 7.024457173951e-03 5.920251969133e-04 -1.623048071872e-09 -1.306716657787e-08 1.490281245376e-08 -3.284392626493e-06 -3.602269065654e-07 4.711007345106e-05 7.500000000000e-04 4.417864669111e-06 -5.668099167430e-12 2.585586844031e-11 6.167246258608e-12
88 1 8.092718033281e-03 6.646317650203e-03 1.333418363609e-02 -1.643367232570e-08 -3.671531972048e-08 -4.866115864323e-08 3.030036546694e-04 -8.240307033693e-05 -7.722999728249e-04 7.500000000000e-04 4.417864669111e-06 9.563415905929e-12 1.630229737016e-11 3.740217040474e-12
89 1 7.455322447680e-03 1.110788769895e-02 4.311029760696e-03 -7.705069565371e-08 5.688693980901e-09 -3.463298734415e-08 -3.373086853595e-05 1.991792311984e-04 4.165619254338e-05 7.500000000000e-04 4.417864669111e-06 5.967532191369e-11 9.235531971494e-12 3.029249204726e-11
90 1 6.134317368695e-03 6.396214416182e-03 6.532447366280e-03 -6.741913983385e-09 -7.021150938282e-08 1.355909881881e-09 -3.730345543789e-05 -3.272868239727e-06 2.653162603902e-05 7.500000000000e-04 4.417864669111e-06 -1.601437624014e-12 4.402827370076e-11 -7.580635032890e-12
91 1 6.641002780061e-03 1.753258415099e-03 6.332177370667e-03 -4.216981703278e-08 -4.855486556315e-08 -3.509277444612e-08 4.089908096389e-05 5.696852044796e-05 7.097482274423e-05 7.500000000000e-04 4.417864669111e-06 -1.384924454578e-11 1.773508858730e-11 1.562664240053e-11
92 1 5.487825674625e-03 1.285221919368e-02 1.134685917300e-02 1.101766390226e-321 1.106707046684e-321 1.106707046684e-321 1.322965260710e+03 -3.397704098716e+03 1.546867952080e+03 7.500000000000e-04 4.417864669111e-06 -1.086944420851e-322 -1.086944420851e-322 -1.086944420851e-322
93 1 7.287216702378e-03 1.434928403073e-02 2.281027261116e-03 -9.761305537549e-07 2.875429620161e-07 7.872527288649e-08 1.295041975905e-04 1.535490741844e-03 7.217705589623e-04 7.500000000000e-04 4.417864669111e-06 6.547742629079e-10 -1.913011516095e-10 -5.163081995680e-11
94 1 1.359631040427e-02 4.960157123964e-03 1.186784326330e-02 -4.884296924612e-09 4.716526087544e-09 1.469828318919e-08 8.937423322256e-06 -3.567813609725e-05 -1.454417866521e-05 7.500000000000e-04 4.417864669111e-06 -2.080096911789e-12 1.984941837820e-11 5.150376545111e-12
95 1 1.007661245546e-02 1.343644633840e-02 6.769016080001e-03 -4.690668677910e-08 2.016372170739e-08 7.445893923430e-08 1.976512570775e-04 3.315648871385e-05 6.353473891218e-06 7.500000000000e-04 4.417864669111e-06 2.416227075498e-11 -1.080129115804e-11 -3.801550886071e-11
96 1 5.629798884126e-03 1.216057171534e-02 1.471299430784e-02 5.395679674589e-09 -1.328943715738e-08 2.324711758900e-09 -1.980313112817e-05 -7.483197183729e-06 6.712818842794e-05 7.500000000000e-04 4.417864669111e-06 -2.354221479133e-13 3.056114187950e-12 3.280785293116e-12
97 1 8.585990269320e-03 6.710820298418e-03 1.199318446107e-02 2.467111493895e-08 8.946872688777e-09 -8.037290864629e-09 -7.937869407158e-06 4.413393920617e-05 1.709683384579e-05 7.500000000000e-04 4.417864669111e-06 -6.612613567010e-12 1.203085243689e-11 1.938146091597e-11
98 1 1.635925761043e-03 1.061631853339e-02 9.505295543954e-03 -1.049445598900e-07 -2.267213757239e-08 3.477209120810e-08 -3.879708270426e-05 -3.968549913065e-05 -5.419894195865e-05 7.500000000000e-04 4.417864669111e-06 4.784650884186e-11 2.033931997405e-11 -2.572881785161e-11
99 1 4.902943598565e-03 1.405143242838e-02 1.285723216063e-02 -1.812269779334e-08 5.158051360439e-09 1.286484057188e-08 1.516730463448e-05 5.686077379546e-06 -1.209190247812e-06 7.500000000000e-04 4.417864669111e-06 9.495359879026e-12 -1.006768345171e-12 -4.898274317774e-12
100 1 1.228190343410e-02 8.096260043512e-04 4.265767510100e-03 -9.567140365135e-08 -5.302846699997e-08 3.806800378138e-10 -3.007876730126e-05 -1.385206861546e-06 -2.944514509633e-06 7.500000000000e-04 4.417864669111e-06 4.615622950373e-11 5.738421067509e-11 1.964894329371e-11
101 2 6.437694007938e-03 5.564773292545e-03 1.089467262656e-02 -5.007224194023e-09 -7.444798752487e-09 4.354656327787e-09 -3.990099184343e-06 -4.073721558960e-06 5.876222835264e-06 1.000000000000e-03 1.047197551197e-05 6.464185063987e-12 2.708011594212e-11 -2.215250339456e-11
102 2 1.522533185923e-02 8.592475251715e-03 4.457628741521e-03 -9.760015388135e-09 -3.740198678179e-08 9.761400970917e-09 -9.712465259179e-06 1.625814364901e-05 -2.038192284378e-05 1.000000000000e-03 1.047197551197e-05 2.742930984022e-11 5.342815580583e-11 -1.130868996480e-11
103 2 1.319042419495e-02 3.719519536124e-03 4.114450139815e-03 -2.696466662455e-08 -2.961659117541e-08 4.222475079493e-09 1.186115703482e-05 -6.921957436306e-06 1.804159254254e-05 1.000000000000e-03 1.047197551197e-05 3.818324110098e-11 6.264084644025e-11 -1.567637966631e-11
104 2 1.010083542675e-02 4.829396797536e-03 1.157179394510e-02 1.519072070233e-08 3.684483659662e-08 5.260572650835e-08 2.305569856371e-05 -2.750366121562e-05 2.881755943457e-05 1.000000000000e-03 1.047197551197e-05 -1.360636276906e-12 -4.846757145202e-11 -6.692609884784e-11
105 2 1.151818160288e-02 1.110585608946e-02 4.104966793225e-03 -2.735779292161e-08 -9.958733156678e-09 2.145572174079e-07 1.463150878809e-04 -1.886992150773e-04 -2.530057631084e-05 1.000000000000e-03 1.047197551197e-05 3.479027522260e-11 2.568393280426e-11 -2.974904390367e-10
106 2 1.863688180150e-04 7.283914491927e-03 9.703512732781e-03 -1.428636595137e-08 -3.235654562518e-08 2.462740065484e-08 -5.721784852791e-05 -1.647057829562e-05 3.114662124192e-05 1.000000000000e-03 1.047197551197e-05 2.354622072288e-11 4.941290448458e-11 -5.571062089050e-11
107 2 4.744616932405e-03 5.553715205916e-03 1.443820324810e-02 1.480866532897e-09 9.973208582728e-10 2.208626801772e-09 1.304163825343e-06 1.923092982176e-06 -5.001157447351e-06 1.000000000000e-03 1.047197551197e-05 -2.214781841330e-13 -6.248542341630e-12 -5.258837901551e-12
108 2 9.300455419566e-03 7.358312781414e-03 8.695410506733e-04 2.126362796389e-08 6.064275116192e-08 -5.188316602976e-09 -4.632192354293e-05 1.948646448845e-05 1.251632748145e-05 1.000000000000e-03 1.047197551197e-05 -3.333474011840e-11 -9.350605848736e-11 8.961856486031e-12
109 2 2.881035854287e-03 6.100155997217e-03 1.438608795267e-02 1.163447061350e-09 -5.472563407993e-09 7.806920667192e-09 -3.985466125083e-06 3.019721721119e-06 8.129554220160e-06 1.000000000000e-03 1.047197551197e-05 7.544633173062e-13 1.394814140135e-11 -1.016805633531e-11
110 2 4.386857762280e-03 6.866653934886e-03 2.797514754859e-03 -2.013884361594e-08 -6.274956909493e-08 -4.406453976646e-10 3.391829020905e-05 2.667276457090e-05 -9.923234788615e-06 1.000000000000e-03 1.047197551197e-05 1.857452912553e-11 5.253831741707e-11 1.957705961415e-11
111 2 5.475738072369e-03 1.520168034713e-04 1.438757329205e-02 -6.393570535299e-09 4.454179198092e-09 3.136169294635e-09 3.852823244947e-06 2.959696623723e-07 -2.938127640073e-06 1.000000000000e-03 1.047197551197e-05 5.757535895316e-12 -6.089467939802e-12 -2.740890670096e-12
112 2 9.120919898754e-03 2.287548609727e-03 8.574784803925e-03 -3.571685006147e-08 -2.569886494082e-08 -1.384473310782e-08 1.368952730286e-07 6.824753734709e-05 -4.393569104555e-05 1.000000000000e-03 1.047197551197e-05 2.253023473649e-11 3.140808310936e-11 1.650334561727e-11
113 2 4.121976711269e-03 1.395401359236e-02 1.138737932530e-02 -2.304763569397e-08 1.410766672553e-08 2.076125452119e-08 7.800988310173e-06 -2.387799438049e-07 1.877057975627e-05 1.000000000000e-03 1.047197551197e-05 4.557953961637e-11 -1.811688014040e-11 -1.953233435059e-11
114 2 1.135050925450e-02 4.416347935605e-03 8.811397134297e-03 -2.970885002618e-08 -8.401766745546e-09 1.812679664525e-08 -4.736155890118e-05 -1.338619189797e-05 9.018399224183e-06 1.000000000000e-03 1.047197551197e-05 3.796915708464e-11 1.459277647572e-11 -1.575902970498e-11
115 2 8.864420580357e-03 2.423576965554e-03 1.443532684645e-02 -4.678424445681e-09 -4.836157008146e-09 -3.755756514748e-10 -6.462478125640e-06 3.755108295893e-06 -1.298722700013e-05 1.000000000000e-03 1.047197551197e-05 3.673418681630e-12 2.287622801468e-11 -4.593107407829e-12
116 2 3.006905317494e-03 1.234780145335e-02 1.161177942601e-02 -1.736931452894e-08 -3.662556074447e-09 1.953538683876e-08 -5.409613738595e-06 3.021108636445e-06 -1.723213719950e-06 1.000000000000e-03 1.047197551197e-05 2.078977333732e-11 3.505238746588e-12 -2.521119703215e-11
117 2 1.363784056674e-02 5.563614727473e-04 1.260484679357e-02 -9.540675947171e-09 -1.910912296464e-08 -1.407834485377e-09 1.989213531323e-06 -8.317818967724e-06 -1.971964748823e-07 1.000000000000e-03 1.047197551197e-05 1.450866184031e-11 2.342090537643e-11 8.789155003271e-12
118 2 1.472416746522e-02 3.426075570712e-04 2.735701247205e-03 -4.615146989126e-08 -2.504906157479e-08 2.669871002399e-08 1.336676952733e-06 -1.910819260975e-05 -9.677084319891e-06 1.000000000000e-03 1.047197551197e-05 6.600789590915e-11 4.079100703395e-11 -3.692351326067e-11
119 2 1.410567862229e-02 9.868985418430e-03 9.438431087019e-03 -1.363148818963e-08 -5.613392953514e-08 6.217565003495e-09 2.859311953250e-05 1.542674895598e-05 5.618071273649e-05 1.000000000000e-03 1.047197551197e-05 1.722035210847e-11 6.969898932341e-11 -1.058278038873e-11
120 2 3.309596375144e-03 2.360333133566e-03 1.181087055745e-02 -1.748371311524e-08 -3.703028923555e-09 2.042626340630e-08 -7.436277990383e-06 8.551593126329e-06 4.794790013133e-06 1.000000000000e-03 1.047197551197e-05 2.591023333113e-11 1.538616747324e-11 -3.514930354435e-11
121 2 2.384310235141e-03 8.092313923937e-05 9.032477261607e-03 -4.201815755256e-08 -1.638311919262e-08 2.806441682377e-08 -3.165384657457e-06 7.296083165361e-06 -4.720985294476e-06 1.000000000000e-03 1.047197551197e-05 6.345041066092e-11 2.690095699990e-11 -4.885304681320e-11
122 2 3.571144634543e-04 9.201756116375e-03 8.795478506107e-03 -4.475014284862e-08 -2.992485193348e-08 -3.225098914665e-08 1.047832669493e-05 2.768203024659e-05 -3.194661238331e-05 1.000000000000e-03 1.047197551197e-05 8.807208972049e-11 4.105627374541e-11 4.016276092247e-11
123 2 9.738712698576e-03 8.770414650779e-03 9.369785674356e-03 -4.175313998458e-09 7.361201829773e-09 9.569260171048e-08 5.608840071944e-05 -8.827695216323e-05 -2.150973541019e-05 1.000000000000e-03 1.047197551197e-05 1.338314183470e-11 4.730971959267e-13 -1.343719687595e-10
124 2 1.365107624566e-02 5.286907780028e-03 1.446276102032e-02 -1.433794710079e-08 -9.312463983038e-09 -1.038414466585e-09 -8.393269750620e-06 7.389763056375e-06 1.458804282809e-05 1.000000000000e-03 1.047197551197e-05 1.833870607782e-11 1.410032730635e-11 1.034612289809e-11
125 2 2.455328372659e-03 6.459463685910e-03 6.739918807392e-03 -3.513895449363e-08 -4.655854711463e-08 -9.068100373884e-11 4.267397021227e-06 -7.825877356914e-06 -5.292771457351e-06 1.000000000000e-03 1.047197551197e-05 4.878347128171e-11 7.304026264051e-11 3.579804782940e-14
126 2 4.158977695019e-03 7.610526865697e-03 9.889554694205e-04 -3.271883607621e-08 -1.059087615923e-08 2.502198755886e-09 3.536588371554e-06 -3.307353860955e-07 -5.256650998524e-05 1.000000000000e-03 1.047197551197e-05 4.449253834683e-11 2.206437083990e-11 -1.843095657681e-12
127 2 1.754853728556e-03 1.980750751453e-03 4.461704728477e-03 2.742505204290e-08 -9.153640308511e-08 -5.585200267631e-09 6.345493329610e-05 3.419048518425e-05 7.209424624775e-05 1.000000000000e-03 1.047197551197e-05 -3.477856569969e-11 1.309357066826e-10 1.339198338387e-11
128 2 3.151920835416e-03 8.065105407149e-03 3.682881420253e-03 -4.308898279176e-09 -9.056123121786e-08 1.254692011619e-08 3.314062524546e-06 2.842651778492e-07 2.511547645987e-05 1.000000000000e-03 1.047197551197e-05 3.748958326381e-13 1.487948379794e-10 -1.901377600547e-11
129 2 1.075522603448e-02 7.581117505698e-03 4.005708340600e-03 -1.559863570976e-08 1.182877891850e-08 8.190247811678e-09 2.886791575542e-05 -4.001651816697e-05 -2.369504863730e-06 1.000000000000e-03 1.047197551197e-05 -2.515059120995e-12 -1.033279700429e-10 -5.290961968295e-11
130 2 1.286908562732e-02 6.252320829172e-03 1.103468675906e-02 1.205117540876e-08 -3.618961742460e-08 -1.922029995241e-08 -7.023489147695e-05 -8.660771823282e-06 4.139172944349e-05 1.000000000000e-03 1.047197551197e-05 -1.185864630189e-11 7.556282752502e-11 -4.037168814718e-12
131 2 9.094588239038e-03 1.402607565497e-02 8.863821069457e-03 -4.366913699676e-08 -1.621131726537e-08 -3.556297497147e-09 -3.627866998617e-06 -1.215173843709e-05 -2.004827594732e-05 1.000000000000e-03 1.047197551197e-05 5.788010759968e-11 3.528996724132e-11 1.168071031085e-11
132 2 1.345541555318e-02 7.469580955679e-03 1.448181173026e-02 4.098850431365e-08 -5.128773745567e-08 -2.503263592336e-09 -5.868984416841e-05 -6.068676573015e-05 -5.993234532938e-06 1.000000000000e-03 1.047197551197e-05 -3.890789989501e-11 6.066745708832e-11 6.464940010263e-12
133 2 2.000045398754e-03 1.425393869962e-02 1.444505821221e-02 -9.243089777367e-09 1.336750679891e-09 9.680355536199e-09 -2.454087042961e-06 7.227610580024e-06 -3.607541141126e-06 1.000000000000e-03 1.047197551197e-05 9.162497902608e-12 -2.125050229084e-12 -1.134389123503e-11
134 2 8.113814135685e-04 1.902313952624e-03 9.180424407148e-04 3.596986519423e-08 -5.483232034939e-08 8.488337413851e-09 4.910813023850e-05 3.085837054685e-05 -1.312295650085e-04 1.000000000000e-03 1.047197551197e-05 -5.108082352370e-11 8.900478135747e-11 -1.532468086729e-11
135 2 2.108959144559e-03 4.847083393964e-03 1.185269761939e-02 -1.179026086793e-08 -1.387542590018e-08 1.483777010721e-08 3.768802321553e-06 2.715764937135e-06 -1.293881740090e-05 1.000000000000e-03 1.047197551197e-05 2.170214626770e-11 1.573079301125e-11 -2.545870866044e-11
136 2 1.203151584014e-02 6.225929845874e-03 1.453090028804e-02 -9.724866507339e-12 8.671492156741e-09 -2.108340045966e-09 1.410695663443e-05 3.187909663869e-06 -3.767154214306e-05 1.000000000000e-03 1.047197551197e-05 -1.267126487917e-11 7.853788220006e-14 3.969050403757e-12
137 2 1.057240580181e-02 9.044044000025e-03 6.905486074255e-03 -2.533359961934e-08 -2.668802488389e-08 3.112410809454e-08 8.053364233249e-05 3.062890335621e-05 5.048499555313e-06 1.000000000000e-03 1.047197551197e-05 4.960444510065e-11 4.818741306624e-11 -7.699346416180e-12
138 2 4.223732749264e-03 7.237441669913e-03 1.068947612023e-02 -9.691622689802e-09 -1.108108253583e-08 1.202578008957e-08 -2.076967817181e-05 3.005189911407e-05 1.020467345535e-06 1.000000000000e-03 1.047197551197e-05 8.507399349347e-12 3.032059388029e-11 -9.944576467553e-12
139 2 1.370263346228e-02 1.316935627686e-02 2.335724777295e-03 -5.535502236894e-08 -3.180089628530e-08 5.407974205358e-10 -1.595729414609e-05 -1.605226017918e-05 -1.685380728080e-05 1.000000000000e-03 1.047197551197e-05 8.997094565168e-11 7.333724999755e-11 -3.927773102096e-11
140 2 3.979287638143e-03 3.965675581988e-04 1.244887404419e-02 -9.857173945611e-09 1.888440547502e-09 1.498330930482e-08 5.157289806995e-06 -1.125681188267e-05 3.250424198800e-06 1.000000000000e-03 1.047197551197e-05 1.951892136241e-11 2.460491151989e-12 -1.592108669948e-11
141 2 1.535394733766e-03 5.889404570222e-03 1.002368623502e-02 -1.098556656527e-08 -1.598484284518e-08 2.711362249145e-08 -9.080956155628e-06 2.422134939905e-05 -8.188606834883e-06 1.000000000000e-03 1.047197551197e-05 2.129871569991e-11 2.445144732218e-11 -4.287867932563e-11
142 2 7.977173240638e-04 1.899174574165e-03 1.238362446981e-02 -1.888280403443e-08 -6.971553593660e-09 1.653706602627e-08 -8.503360252697e-06 1.118528428493e-05 2.138077395658e-06 1.000000000000e-03 1.047197551197e-05 3.425765238001e-11 1.440560330977e-11 -8.501533086377e-12
143 2 7.752773798967e-03 9.694656929661e-03 5.151174689757e-03 -1.261909661951e-08 1.271481274136e-08 1.606401069268e-08 -2.833910275740e-05 -1.456189464206e-05 -2.685396044124e-05 1.000000000000e-03 1.047197551197e-05 2.423994452955e-11 -1.123863235851e-11 -1.135165875601e-11
144 2 9.405284731906e-03 7.734099249079e-03 1.300892947978e-02 6.845529859637e-09 6.708496685944e-08 -3.010173332656e-08 6.615826274168e-05 6.564345967608e-05 1.164987596010e-04 1.000000000000e-03 1.047197551197e-05 8.260437335801e-12 -1.043728532718e-10 -1.581946446027e-11
145 2 2.526791596405e-03 3.519434600774e-03 1.048909245640e-02 -1.781624349837e-08 -1.560297395008e-08 2.177777480200e-08 -5.678837669366e-06 -6.884083156818e-06 -2.414348852023e-06 1.000000000000e-03 1.047197551197e-05 3.256763060816e-11 2.790829561738e-11 -1.709851872766e-11
146 2 1.350794157422e-03 3.155865714335e-03 9.028383969620e-03 -2.983031587463e-08 -1.440105214019e-08 2.911840125436e-08 6.521302640669e-06 1.289095435824e-05 -4.374705334545e-06 1.000000000000e-03 1.047197551197e-05 4.169392731161e-11 3.067462398709e-11 -4.909900487969e-11
147 2 4.400325844487e-03 6.225376392745e-03 6.956052947477e-03 -2.015706632407e-08 -5.641810720245e-08 -6.250628640542e-09 -6.159370273841e-06 9.275884380927e-06 1.354847551714e-07 1.000000000000e-03 1.047197551197e-05 3.791690957797e-11 1.063650902504e-10 -1.696916256197e-13
148 2 4.741711015655e-03 2.400408072982e-03 1.938480473999e-03 -4.314438199150e-07 5.461460012111e-07 -6.144068481859e-08 1.402458171637e-03 9.654513830010e-04 1.420643083532e-03 1.000000000000e-03 1.047197551197e-05 6.623689391871e-10 -8.501638808324e-10 9.340255556080e-11
149 2 1.102360542426e-02 1.385127892915e-02 1.198871488728e-02 -2.523568868783e-08 -5.019976521128e-08 8.782605455271e-09 1.869747979121e-05 -5.383213277123e-06 -5.782493563193e-05 1.000000000000e-03 1.047197551197e-05 1.981310132192e-11 8.239569973526e-11 -1.062483355762e-11
150 2 2.047795725116e-03 4.841540087694e-04 1.195596239836e-02 -2.265550560029e-08 -9.942554732393e-09 1.475616917708e-08 -6.982645844735e-06 1.017071393295e-05 -1.827651675386e-06 1.000000000000e-03 1.047197551197e-05 1.691611467139e-11 3.242073455896e-11 -5.152953835610e-11
151 2 5.245959060770e-03 5.503640455922e-03 5.397065662740e-03 -1.541208111292e-08 -1.103778053097e-07 -2.314087683021e-08 -5.711164231483e-06 -3.234339353404e-05 -6.273992725704e-05 1.000000000000e-03 1.047197551197e-05 2.666877118881e-11 2.019697479444e-10 7.132053826399e-11
152 2 1.452779107702e-02 1.070730251293e-02 5.647518014907e-03 -6.332583070566e-08 -2.741162700606e-08 1.543700829557e-08 -1.166872319931e-05 4.908009817706e-05 2.351493325692e-05 1.000000000000e-03 1.047197551197e-05 8.600967758153e-11 3.552557671323e-11 -3.241210031892e-11
153 2 2.969652265196e-03 1.581498977095e-03 2.116607475519e-03 4.806300282680e-08 -2.350945197914e-07 6.903335491124e-08 1.035066466723e-04 -1.946186079145e-04 -3.044864350135e-04 1.000000000000e-03 1.047197551197e-05 -7.738885526434e-11 3.719012565630e-10 -1.120603011623e-10
154 2 4.533024002498e-03 2.341180340487e-04 8.361584639474e-03 -4.978567352039e-08 -1.929851721869e-08 4.919496176219e-08 1.159339423799e-05 8.892853360152e-06 -8.336284623771e-06 1.000000000000e-03 1.047197551197e-05 5.376319647393e-11 2.623136300137e-11 -9.730852415866e-11
155 2 9.356937843706e-04 2.766466406635e-04 1.048190116582e-02 -3.416184951821e-08 -1.367389612702e-08 2.150076323647e-08 6.360713812265e-07 2.957041813165e-06 -4.459816706736e-06 1.000000000000e-03 1.047197551197e-05 6.148052744423e-11 2.255881418144e-11 -2.261728545846e-11
156 2 1.237995419516e-02 5.285416754401e-03 7.331893588314e-03 -2.867245334690e-08 -2.671695031711e-08 1.598676288094e-08 1.064674687249e-05 -4.900291265621e-06 -1.414407205117e-05 1.000000000000e-03 1.047197551197e-05 3.463373656362e-11 4.117102441850e-11 -1.653557537234e-11
157 2 3.169134361019e-03 1.081489557117e-02 1.025482518627e-02 -8.754567804243e-08 -3.357872727913e-08 3.390694242771e-08 4.113317952909e-06 -2.314410932136e-05 2.334801875761e-05 1.000000000000e-03 1.047197551197e-05 1.269328400156e-10 5.166205965684e-11 -3.311300895030e-11
158 2 1.529774103332e-02 9.876782888780e-03 1.097441613970e-02 -1.654945971288e-07 3.105662929289e-08 1.305651134325e-07 -4.721559439249e-05 -1.975058421884e-04 2.860185954972e-05 1.000000000000e-03 1.047197551197e-05 1.846138909417e-10 -2.106823439525e-11 -1.495467114438e-10
159 2 9.412448244660e-03 1.825221930781e-03 1.098682763549e-02 -1.869023165187e-08 -2.512359101534e-08 -1.599289585955e-09 5.252211406744e-06 2.069147514219e-05 -5.967895616371e-06 1.000000000000e-03 1.047197551197e-05 3.050066078831e-11 3.997356326563e-11 -8.483547455008e-13
160 2 1.143564273849e-02 1.360397400460e-02 1.445410316861e-02 -2.200859960129e-09 -1.858828992676e-08 -7.146573022367e-09 -4.077675961532e-06 6.165059520403e-06 2.352823136213e-05 1.000000000000e-03 1.047197551197e-05 -3.811866657877e-12 3.052743517655e-11 1.295798744795e-11
161 2 1.329806380706e-02 4.534729410514e-03 8.883888265542e-03 -3.528932737048e-08 -2.459775000168e-08 2.423405576563e-08 -1.820606367774e-05 2.550462976774e-06 -1.908825672196e-05 1.000000000000e-03 1.047197551197e-05 2.957478140334e-11 8.815934240888e-12 -3.711602103654e-11
162 2 1.028124292022e-04 1.070829724533e-02 1.437070089444e-02 3.454255683696e-05 8.723167929799e-06 -3.491051302955e-06 8.831645721091e-03 -3.481414495402e-02 -2.196334182631e-01 1.000000000000e-03 1.047197551197e-05 -2.951061191331e-08 -6.699783325492e-09 2.899547107853e-09
163 2 9.239066054466e-03 1.304759810866e-02 1.199164620388e-02 -3.547155509342e-08 1.767680366831e-08 1.024386279510e-08 -3.563633841061e-05 -9.660596920976e-06 7.632278474055e-06 1.000000000000e-03 1.047197551197e-05 9.213573703278e-11 -2.998775835406e-11 -1.965137603839e-11
164 2 7.583361284555e-04 1.240530585933e-02 3.914012875906e-03 -7.980428290533e-08 -4.686965247133e-08 3.360637105533e-08 3.156618687291e-05 5.403328564680e-06 2.518848704443e-05 1.000000000000e-03 1.047197551197e-05 1.214465019353e-10 7.687429530336e-11 -5.034162341283e-11
165 2 1.331317822658e-02 3.573768982610e-03 2.274911889446e-03 -2.333464304646e-08 -1.410314610227e-08 1.332317016740e-08 -8.110552946311e-07 3.981784154691e-06 -6.009296940380e-06 1.000000000000e-03 1.047197551197e-05 2.696547233477e-11 2.266316440566e-11 -2.739020036255e-12
166 2 6.189992056535e-03 1.458735715755e-02 8.234506996108e-03 -4.982308948389e-08 -2.631169717694e-08 4.259799188282e-08 1.721131657377e-05 -1.417463775304e-05 1.866518394133e-05 1.000000000000e-03 1.047197551197e-05 8.103233923406e-11 4.594659298211e-11 -5.367203572617e-11
167 2 1.009592676145e-02 1.055309130614e-02 8.599558231939e-03 -2.070882196593e-08 -2.752785655003e-08 8.242131588848e-08 -2.984526385904e-05 8.287443017857e-05 1.395009631264e-05 1.000000000000e-03 1.047197551197e-05 2.877308108821e-11 3.521891963052e-11 -1.068462835164e-10
168 2 1.243436261913e-02 1.217094692930e-02 1.369315381807e-02 -2.172895172981e-08 -2.443917580371e-08 -4.094380895526e-08 7.969596802877e-05 -8.279489976491e-05 -7.838479824784e-05 1.000000000000e-03 1.047197551197e-05 2.427075666532e-11 1.638762042220e-11 3.157675788961e-11
169 2 1.220301056208e-02 2.946383178016e-03 8.960363810327e-04 -1.541299257454e-08 -1.814343210925e-08 6.425716484553e-09 1.200470815023e-05 -1.264965396833e-05 2.233242701584e-05 1.000000000000e-03 1.047197551197e-05 1.140694616201e-11 2.613935714752e-11 -9.504244212268e-12
170 2 7.952093083672e-03 8.495782003652e-03 6.722076102633e-03 -4.856559932224e-08 4.931568737892e-09 1.646774771600e-08 9.035437498087e-06 -1.468349985058e-05 1.106322070864e-05 1.000000000000e-03 1.047197551197e-05 6.295227893447e-11 3.063769195341e-11 -1.636976722413e-12
171 2 7.470923335190e-03 2.989867800790e-03 1.224348680677e-02 -1.484392945400e-09 2.303887756857e-09 1.125462725832e-08 -2.147940592390e-06 -9.813047412660e-07 -1.428831797752e-05 1.000000000000e-03 1.047197551197e-05 7.492194931185e-12 1.544917937423e-11 -1.629352881066e-11
172 2 8.461165574738e-03 9.767409305304e-03 1.311368427672e-02 9.682335254534e-08 3.743878730746e-08 7.097380708208e-09 7.084502372056e-05 -6.918246908926e-05 6.916678089356e-05 1.000000000000e-03 1.047197551197e-05 -1.059762184516e-10 -3.587141718587e-11 -1.419923663364e-11
173 2 1.258901902790e-03 1.272330988652e-02 5.776305906519e-03 -5.321668872277e-08 -3.294310915456e-08 2.589601116560e-08 -3.274734597723e-05 8.176827661635e-06 -8.914504323399e-06 1.000000000000e-03 1.047197551197e-05 1.051070287819e-10 7.272953204825e-11 -5.446017773530e-11
174 2 9.179293754692e-03 7.275892385360e-03 8.284748677223e-03 -1.081972963782e-08 2.344214126926e-08 2.792341795711e-08 -1.372012098876e-05 1.423618109163e-05 -3.042090401872e-05 1.000000000000e-03 1.047197551197e-05 2.400133028672e-11 -1.309345487301e-11 -2.939151642573e-11
175 2 8.147119524773e-03 6.893628045984e-03 5.756422986795e-03 -1.344094985902e-08 5.033851598385e-09 2.022648357498e-08 -1.463471165301e-05 1.626872137407e-06 1.841622022592e-05 1.000000000000e-03 1.047197551197e-05 2.579800264273e-11 -3.193130042360e-11 -4.122728648608e-11
176 2 1.447480291802e-02 2.080559662135e-03 6.831265607924e-03 -6.469103332613e-08 -4.015212071614e-08 2.506206166164e-08 -9.034757414530e-06 -2.118670214790e-05 1.040165234960e-05 1.000000000000e-03 1.047197551197e-05 8.750829464908e-11 6.817534833559e-11 -3.805774095079e-11
177 2 1.077485215373e-02 2.782722656554e-03 5.620893874082e-03 -4.657725706340e-08 -1.767651724994e-08 -6.743642421054e-09 1.165850224277e-05 1.006025876900e-05 1.118172064776e-05 1.000000000000e-03 1.047197551197e-05 9.742412203130e-11 9.409387983127e-12 1.560788677436e-11
178 2 8.377962022141e-03 1.352280104103e-03 1.283742535643e-02 -1.188946939935e-08 -1.250047221345e-08 7.091595126563e-10 6.197316585860e-06 5.204934176782e-06 -4.130553791977e-06 1.000000000000e-03 1.047197551197e-05 2.349102296349e-11 2.217090097867e-11 -5.046346200067e-12
179 2 7.233200373260e-03 9.878434839872e-03 1.167959591599e-02 6.235810014475e-09 1.676377982456e-08 1.761815015024e-08 -1.305849221326e-05 7.194228023067e-05 2.878455923130e-05 1.000000000000e-03 1.047197551197e-05 5.417918260287e-12 -2.491139643341e-12 -2.128830402697e-11
180 2 9.455196290379e-03 5.472016400772e-04 9.376855562344e-03 -3.644192997906e-08 -1.818271407103e-08 -1.877452773613e-08 -3.279134607489e-06 2.736052306400e-05 -7.109272969207e-06 1.000000000000e-03 1.047197551197e-05 5.369419260352e-11 3.575784666793e-11 2.595490130341e-11
181 2 2.567875715902e-03 1.246591919685e-02 1.449952361941e-02 -1.139524416530e-08 3.867563377582e-10 9.620797683577e-09 -1.145066434368e-06 9.310851246479e-06 -2.946676166591e-06 1.000000000000e-03 1.047197551197e-05 1.883359775391e-11 -4.912031536283e-13 -8.115283341558e-12
182 2 2.133851322085e-03 9.631507292480e-03 6.269695763078e-03 -3.821420659453e-08 -4.147464573111e-08 4.130818889962e-09 -2.681263323653e-05 2.929204147924e-05 -4.717105773388e-07 1.000000000000e-03 1.047197551197e-05 6.711058656027e-11 7.004105998798e-11 -5.887810399662e-12
183 2 9.492769773122e-03 4.019665921252e-03 9.208749243962e-03 -8.842357262542e-09 -2.891168014257e-08 1.634304644714e-10 1.333286343545e-05 -1.130858437235e-05 2.444990119912e-05 1.000000000000e-03 1.047197551197e-05 1.592591138363e-11 5.183464498258e-11 6.376873835010e-12
184 2 1.399025118576e-03 2.534543591136e-04 6.941611798033e-03 -5.676007911943e-08 -3.562508001947e-08 3.508259252134e-08 -2.496296792393e-06 -2.424364422950e-05 -1.596247233462e-05 1.000000000000e-03 1.047197551197e-05 9.064236819702e-11 6.385199331196e-11 -4.665328094971e-11
185 2 9.208828965794e-03 3.217621912300e-03 6.553059349533e-03 -5.142699592577e-08 -4.842718086436e-08 -8.481310382317e-11 2.515315697272e-05 -1.279507434804e-05 4.674833979552e-07 1.000000000000e-03 1.047197551197e-05 1.011614738539e-10 9.704028203075e-11 2.686161246505e-11
186 2 9.835004970119e-03 1.240987447038e-02 8.115945497520e-03 -4.292554071376e-08 -4.165699044834e-08 4.064692361333e-08 -3.637090577212e-05 -2.813308100170e-05 -5.885397068638e-07 1.000000000000e-03 1.047197551197e-05 6.149311960353e-11 7.666293750436e-11 -4.630871466254e-11
187 2 1.361939598897e-02 7.195924184343e-03 9.702240801484e-03 1.184514166733e-08 -6.430111826089e-08 3.606393175904e-09 5.320498305877e-05 -4.944128801082e-06 -2.751401253334e-05 1.000000000000e-03 1.047197551197e-05 -1.864191728370e-11 1.086180809982e-10 -1.123310458858e-11
188 2 1.212480664627e-02 1.837602763216e-03 1.265390330116e-02 -1.296818981786e-08 -1.329767108488e-08 4.827032363968e-10 2.856978826356e-06 1.223697602056e-05 -1.781207471198e-06 1.000000000000e-03 1.047197551197e-05 2.430617146828e-11 5.811384004267e-12 -4.618933199731e-12
189 2 6.152467097229e-03 1.061367945273e-02 1.431812957818e-02 7.324378745227e-09 -1.486113425660e-08 1.690814619453e-08 2.522786873760e-06 1.091611247773e-05 -4.581584322326e-05 1.000000000000e-03 1.047197551197e-05 -7.847486624316e-12 1.068096829376e-11 -1.708988014239e-11
190 2 1.482542644055e-02 4.070525324915e-03 1.371425838846e-02 -1.347307674257e-08 -1.160231254442e-08 9.744944966056e-09 -8.922109160659e-06 -3.152731468524e-06 -1.241086607235e-05 1.000000000000e-03 1.047197551197e-05 1.883434277552e-11 4.398686214898e-11 -2.820118236277e-11
191 2 2.073929930721e-04 1.195074619559e-02 1.227764007234e-02 -3.237196794218e-08 2.166956346837e-08 3.766224210864e-08 -2.039213877271e-05 2.316492882298e-05 -1.335552264746e-05 1.000000000000e-03 1.047197551197e-05 3.519710414110e-11 -1.531874724633e-11 -6.082088754177e-11
192 2 1.191395588805e-02 9.390846599212e-03 3.373748378957e-03 -1.970261108147e-08 2.544085426284e-08 2.167224236355e-08 8.420285156466e-05 -1.989555911900e-05 -5.674358987982e-05 1.000000000000e-03 1.047197551197e-05 6.965139280981e-11 -5.827611755307e-11 -4.863096739247e-11
193 2 1.155321468928e-02 8.843545675535e-03 8.502696097692e-03 -6.556696957915e-08 -3.472898822252e-09 6.253190402370e-08 -1.134579732408e-04 -7.536875909677e-05 -1.707806432321e-05 1.000000000000e-03 1.047197551197e-05 7.050661691693e-11 3.514760498245e-11 -7.175250311763e-11
194 2 1.120244075339e-02 8.975953982592e-03 5.089576936267e-03 -3.801847512108e-08 1.306645060452e-08 1.093512957758e-08 -3.528841663283e-05 -1.005251736527e-05 -2.342505449860e-05 1.000000000000e-03 1.047197551197e-05 7.326153215661e-11 5.390746253814e-11 4.415260313437e-11
195 2 3.847976210183e-04 8.122018129065e-03 1.676021663177e-03 -4.237967337783e-08 -3.187964706018e-08 1.921136981416e-08 1.449611904350e-05 -2.335532459982e-06 2.066247228930e-05 1.000000000000e-03 1.047197551197e-05 7.310480427556e-11 3.543116646851e-11 -3.953589067435e-11
196 2 1.419906206486e-02 1.289511212132e-02 1.316552496079e-02 3.395172950317e-09 2.796366898376e-08 4.068795473854e-08 7.602593811271e-05 -3.350198269722e-05 -2.200401777106e-05 1.000000000000e-03 1.047197551197e-05 -8.080241460374e-12 -3.893420557306e-11 -4.529152900550e-11
197 2 7.837098372394e-03 4.224247957688e-03 3.420917138712e-03 8.625186213003e-08 1.420677413277e-07 3.392229323066e-08 2.003420272561e-05 2.151363138017e-05 -8.875842390593e-05 1.000000000000e-03 1.047197551197e-05 -1.402682994476e-10 -2.242682332238e-10 -5.536740194495e-11
198 2 5.037601660110e-03 1.349278607207e-02 9.772375443319e-03 -3.415306173045e-08 -2.210238313282e-08 3.947563369564e-08 -3.925656324229e-05 2.097395491367e-06 -4.581082825209e-05 1.000000000000e-03 1.047197551197e-05 5.876334466763e-11 5.136209968738e-11 -5.407023846119e-11
199 2 1.352805324780e-02 1.526536509426e-02 9.010069065842e-03 -3.125109988545e-08 -7.173898506157e-09 1.099051028053e-08 7.931522895632e-06 1.522887593604e-05 1.140120692513e-05 1.000000000000e-03 1.047197551197e-05 6.259112352725e-11 2.616511233012e-11 -9.941105036832e-13
200 2 4.678793881064e-03 1.372901229357e-02 1.446937860065e-02 -9.008363945174e-09 -3.725798160854e-10 4.701752072587e-09 -3.635699001354e-06 7.113997954806e-06 -3.543140520093e-06 1.000000000000e-03 1.047197551197e-05 1.831484205673e-11 2.311367187136e-12 -1.480205874573e-11
201 2 1.296236597697e-02 4.047987684271e-03 1.313996968854e-02 -1.507273708146e-08 -9.164990002342e-09 8.310038731553e-09 7.145584187169e-06 1.004245882110e-05 7.358896011846e-06 1.000000000000e-03 1.047197551197e-05 1.927818316251e-11 1.491808631587e-11 -4.583807601134e-12
202 2 1.071351532850e-02 1.498281342346e-02 8.329275289628e-03 -4.562011148934e-08 -3.691926000456e-08 -3.357907524180e-09 -6.327186734268e-05 -1.236078628259e-05 2.642834069113e-05 1.000000000000e-03 1.047197551197e-05 7.503006799778e-11 3.771855564280e-11 1.091583542086e-11
203 2 1.518767577916e-03 1.100119053854e-02 1.118429782978e-02 -8.757437011470e-08 -4.823747611174e-09 5.368701391308e-08 -2.390796514805e-05 6.753398825436e-05 -5.001010854123e-05 1.000000000000e-03 1.047197551197e-05 9.648955836214e-11 1.182340723391e-11 -5.289486984845e-11
204 2 7.027981924103e-03 2.904209922142e-03 1.414714213087e-02 -8.248101399928e-10 1.215093777072e-08 4.924556726863e-09 -9.315293535624e-07 1.316515735775e-06 -5.768256715478e-06 1.000000000000e-03 1.047197551197e-05 -2.754214838743e-12 -1.187380885867e-12 -4.910389146116e-12
205 2 8.563273612974e-04 7.399773812885e-03 7.906373744104e-03 -2.272416275483e-08 -3.713445964422e-08 7.870367292457e-09 3.137403959388e-05 2.262417348948e-05 1.138210242058e-05 1.000000000000e-03 1.047197551197e-05 3.673715977881e-11 5.431623599091e-11 1.235474223025e-11
206 2 3.736121231011e-03 1.978694644441e-03 1.363570394253e-02 -7.185702659001e-09 4.114591644374e-09 1.252893808056e-08 -3.359408840431e-07 2.853125475247e-06 -1.106387221929e-06 1.000000000000e-03 1.047197551197e-05 1.903391653302e-11 -5.005119043164e-12 -6.898538428029e-12
207 2 1.285718077471e-02 1.100065263084e-02 1.020162182337e-02 2.832210670421e-08 -6.198598460915e-08 1.151196516064e-07 -8.783138321026e-05 2.097491540704e-04 1.702974475044e-05 1.000000000000e-03 1.047197551197e-05 -1.575449849890e-12 1.028358457901e-10 -9.392075735433e-11
208 2 1.237572198229e-02 2.244685568490e-03 1.078717112056e-02 -5.841805238241e-08 -2.254806555847e-08 -3.939594972482e-09 -1.646299879100e-05 1.836745665595e-05 3.225117605075e-05 1.000000000000e-03 1.047197551197e-05 7.310191957394e-11 -4.206718706451e-12 6.393906020592e-12
209 2 1.111704330071e-03 1.073873614624e-03 2.883130016681e-03 -1.129436604888e-08 -7.074255308205e-08 1.180655922093e-08 -3.715923081931e-05 2.178740882437e-05 -4.873338757189e-05 1.000000000000e-03 1.047197551197e-05 2.206488672286e-11 1.355489086355e-10 -6.820731017181e-12
210 2 3.173029608766e-03 4.841930966374e-04 7.195136057372e-03 -6.645860300938e-08 -2.339375131061e-08 7.137920799399e-08 3.836441981208e-06 4.436556487868e-06 3.139092156663e-05 1.000000000000e-03 1.047197551197e-05 1.142149252844e-10 4.888149647446e-11 -9.976844764608e-11
211 2 9.375796078553e-03 5.064357104998e-03 1.335603665856e-02 1.176250917606e-08 3.607757949689e-08 4.302888829487e-08 -5.423411757778e-05 1.507501708731e-05 5.503395308506e-05 1.000000000000e-03 1.047197551197e-05 -4.532526999505e-12 -3.158994493498e-11 -4.802248723196e-11
212 2 7.492631698268e-03 9.541302142445e-03 8.270767339280e-03 -5.752922862614e-08 -3.247069562007e-09 2.800397002514e-08 -2.594330322399e-06 2.582853041561e-05 5.291507891673e-06 1.000000000000e-03 1.047197551197e-05 7.471561344800e-11 5.828130540346e-12 -2.703141018950e-11
213 2 6.115420751462e-03 1.121936901291e-03 7.994615307694e-03 -4.055734760633e-08 -3.313808010210e-08 2.306658055813e-08 -2.421131360759e-05 1.990165505068e-05 -1.562312720686e-05 1.000000000000e-03 1.047197551197e-05 7.048021397089e-11 4.473086133343e-11 -2.849368544879e-11
214 2 5.186293042723e-03 9.660562419829e-03 8.190687689878e-03 -4.158418592991e-08 -3.952045407470e-08 1.552690633155e-08 -6.308577648911e-06 2.962882370908e-06 3.207483307564e-06 1.000000000000e-03 1.047197551197e-05 5.403862368147e-11 9.529083837517e-11 -3.266152623146e-11
215 2 7.912812311717e-03 1.474390174919e-03 7.383809084709e-03 -4.832219464333e-08 -9.775306420566e-09 2.453640162140e-09 2.943112107375e-06 -3.601435472629e-05 2.863495283083e-05 1.000000000000e-03 1.047197551197e-05 9.155743557953e-11 2.556967988631e-11 2.520763964435e-11
216 2 6.360729728139e-03 3.108310803805e-03 9.567234668958e-04 2.108498476257e-07 -1.882161888986e-08 -9.460671882839e-08 4.479462686808e-05 1.833656089313e-04 -6.841279233846e-05 1.000000000000e-03 1.047197551197e-05 -3.354243389083e-10 4.114339958704e-11 1.510639469041e-10
217 2 1.019521028151e-02 6.523123426447e-03 1.427906497998e-02 2.674094927095e-08 1.018539909281e-07 -3.806826138389e-08 -7.775509833586e-05 -3.024804897884e-05 -7.939579350126e-05 1.000000000000e-03 1.047197551197e-05 -2.153800338171e-11 -1.068954287818e-10 5.276533699368e-11
218 2 5.384057885598e-03 8.862350094337e-03 1.452225300961e-02 -1.564728469944e-08 -3.506682746099e-09 9.551261890603e-09 5.028121067719e-08 1.089397402621e-05 1.400151034845e-05 1.000000000000e-03 1.047197551197e-05 2.694946012721e-11 -1.174288240449e-11 4.716746058815e-12
219 2 1.256743919752e-02 1.402019228364e-02 9.406907390439e-04 -2.224031855227e-08 -2.319399416355e-09 -1.719056274171e-08 1.761210000577e-05 -2.484234037819e-05 -2.348333427567e-05 1.000000000000e-03 1.047197551197e-05 2.519787733480e-11 -6.310578100476e-12 2.543656147713e-11
220 2 4.295216579573e-03 9.072731331869e-03 1.177170329771e-02 -1.720917395214e-08 -4.439744916921e-09 1.276696664082e-08 -7.346481670044e-06 2.816849411582e-05 -7.091053537692e-06 1.000000000000e-03 1.047197551197e-05 2.601620600273e-11 1.619426831624e-11 -2.371410979141e-11
221 2 4.240220008399e-03 7.082076354758e-05 1.847008383658e-03 2.347222234363e-08 2.593946366167e-08 -8.607616222779e-09 4.210409094194e-04 -2.969410608664e-04 1.589418711962e-04 1.000000000000e-03 1.047197551197e-05 -4.445067270285e-11 -2.291715619209e-11 1.691868471850e-11
222 2 1.146990502786e-02 4.791399401003e-03 5.370809038264e-03 -3.355577570906e-08 -1.487231269648e-08 8.392397191601e-09 2.684336282736e-07 -1.991402624170e-05 -3.120908600405e-05 1.000000000000e-03 1.047197551197e-05 3.561358062943e-11 3.443561520940e-11 -1.714485109174e-11
223 2 2.012109128176e-03 3.324609646718e-03 9.554860130060e-04 -5.010586470523e-09 -8.059656948165e-09 -2.088282684540e-08 4.031254573639e-06 6.913151304172e-05 2.211126272162e-04 1.000000000000e-03 1.047197551197e-05 2.859157303601e-11 3.198856772253e-11 1.481827943477e-11
224 2 9.453245888438e-03 3.718114165369e-03 4.678748699167e-03 -4.137065457378e-08 -1.277545423422e-08 1.609168461326e-08 -1.037975488329e-05 1.146926306739e-05 -2.215755249206e-05 1.000000000000e-03 1.047197551197e-05 5.268507147694e-11 4.453679174943e-11 -2.647878761374e-11
225 2 8.606332136332e-03 3.542604104403e-03 1.081939218683e-02 -1.131934175283e-09 -1.785008825866e-08 7.068427813956e-09 -6.532843468241e-06 1.520200759859e-05 -2.046961247637e-05 1.000000000000e-03 1.047197551197e-05 1.317279201222e-12 2.351979338730e-11 -4.751715071962e-12
226 2 1.371199251065e-02 1.772144373494e-04 1.109764673964e-03 -1.815767525092e-08 -3.014398462475e-08 1.230481653413e-08 -1.677130645394e-05 -1.737131695413e-05 -5.858639897813e-06 1.000000000000e-03 1.047197551197e-05 4.067566830042e-12 4.078116770710e-11 -1.323244258999e-11
227 2 1.119770937493e-02 3.511143495676e-03 1.258032134046e-02 -1.218140827113e-08 -1.720358794868e-08 1.612035359341e-08 9.368009438999e-06 -1.198333859523e-06 6.574434776709e-06 1.000000000000e-03 1.047197551197e-05 -5.008930257155e-12 3.447553214112e-11 -1.104724170668e-11
228 2 3.509585226987e-03 4.476643917559e-03 8.606950367104e-04 -8.651036585784e-08 6.067069928090e-08 -7.314386231755e-08 8.663426031730e-05 -2.632128649744e-06 -1.794467441407e-04 1.000000000000e-03 1.047197551197e-05 1.200265626546e-10 -5.818614566333e-11 1.284729258800e-10
229 2 1.407853772981e-02 1.484985061708e-03 1.443829020214e-02 -1.053095297989e-08 -9.656812392449e-09 6.767773558531e-09 -8.188129932279e-06 7.169673875547e-06 -7.759569225178e-06 1.000000000000e-03 1.047197551197e-05 1.610508470445e-11 6.171887927862e-12 -6.395829126106e-12
230 2 7.653744515855e-03 1.174785708811e-02 1.173685200454e-02 -3.716668523895e-08 2.186161664793e-08 -1.108370441284e-08 4.274473441126e-06 2.491547972930e-05 4.397738859975e-06 1.000000000000e-03 1.047197551197e-05 5.673333310425e-11 -1.292920493771e-11 1.569049006331e-11
231 2 8.047971044202e-03 1.369917258305e-02 1.445667907149e-02 -2.257887776221e-08 -1.720641969183e-09 7.906097029008e-09 -2.219674467023e-06 1.552571783860e-05 -2.153931559140e-05 1.000000000000e-03 1.047197551197e-05 3.182087030137e-11 1.418891541876e-11 -1.512403671796e-11
232 2 1.135532202621e-02 8.895599306608e-03 1.035484851649e-02 2.525414096065e-10 -8.968187856114e-08 1.000767166171e-07 2.454893605549e-04 1.625868264699e-04 8.558780375635e-05 1.000000000000e-03 1.047197551197e-05 3.588627582791e-11 1.217425172657e-10 -1.293639832915e-10
233 2 6.081068953959e-04 4.853023176383e-03 8.719488110852e-03 -1.701143624340e-08 -2.148467369184e-08 2.818551271096e-08 -1.447342231959e-06 -2.367541010209e-05 7.263682153690e-06 1.000000000000e-03 1.047197551197e-05 2.943370567078e-11 4.280930051451e-11 -6.142350260198e-11
234 2 7.175394903779e-04 2.229362742335e-03 1.053097896462e-02 -2.942112679721e-08 -1.462277233495e-08 2.300252177882e-08 1.188788859068e-06 -3.596483146467e-06 -5.877168704091e-06 1.000000000000e-03 1.047197551197e-05 4.687117071308e-11 3.261036134015e-11 -3.955310058528e-11
235 2 5.649614767907e-03 2.768241439323e-03 1.284189490788e-02 -6.183298456308e-09 1.227047633795e-08 6.874713666958e-09 -5.261717417872e-07 1.838265908438e-07 8.728615275217e-06 1.000000000000e-03 1.047197551197e-05 5.501870922356e-12 -2.608493302492e-12 -3.991494911076e-11
236 2 2.945052178425e-03 8.127927878271e-04 5.324888571938e-03 3.362653622982e-08 -6.356797571988e-08 5.776803983722e-08 -5.456708562511e-05 -1.653405270376e-04 1.430660258655e-06 1.000000000000e-03 1.047197551197e-05 -6.296502589093e-11 1.104566624170e-10 -8.077164197280e-11
237 2 2.727401070637e-03 8.012729198955e-03 1.164853626843e-02 -1.479285299670e-08 -3.067440028083e-09 2.142500549238e-08 -5.286795762679e-06 -1.229223315882e-05 1.457138866790e-05 1.000000000000e-03 1.047197551197e-05 2.296523841171e-11 1.933791972250e-11 -2.179048892894e-11
238 2 5.810905964925e-03 1.121845027073e-02 1.199408205926e-02 -2.102632891554e-08 -8.837014157669e-09 1.437783714303e-08 -2.374176987641e-05 -9.017731801401e-07 2.771572801601e-05 1.000000000000e-03 1.047197551197e-05 3.534060676278e-11 1.977638441582e-11 -1.170578458967e-11
239 2 4.294326387761e-03 3.729216184711e-03 6.775498760609e-03 -5.640288860334e-08 -9.642507002737e-09 2.445722102455e-08 -7.239955480477e-05 7.776875133563e-05 5.859541705422e-05 1.000000000000e-03 1.047197551197e-05 8.539770508822e-11 2.086771612827e-11 -3.406119319483e-12
240 2 1.441958142356e-02 1.974948904795e-03 1.691722885989e-03 1.073525071143e-10 -1.857900967405e-08 4.049888124087e-09 -7.312147071014e-06 -3.669908050789e-05 2.129287852204e-05 1.000000000000e-03 1.047197551197e-05 -5.625110115389e-12 3.442109354595e-11 -2.935934355419e-13
241 2 1.246953219512e-02 1.040036370919e-02 1.227216604210e-02 6.549997413728e-07 -5.071859632391e-08 2.539520282735e-09 6.823518447463e-05 1.096670375029e-03 -9.724285064535e-05 1.000000000000e-03 1.047197551197e-05 -7.311785826592e-10 6.260717874209e-11 2.729847684217e-13
242 2 1.021042314280e-02 1.236246485125e-02 1.049772275435e-02 1.510467863609e-09 -1.978502253334e-08 6.425753788975e-08 -4.269395753116e-05 -1.563996501122e-05 2.035887018515e-05 1.000000000000e-03 1.047197551197e-05 2.837414207070e-11 4.201815896021e-11 -8.783070852419e-11
243 2 6.953803984849e-03 1.536571471022e-02 9.610888693252e-04 -3.371933878395e-07 7.713376208881e-07 -4.922054299582e-07 -1.055501211981e-03 -8.633392269370e-04 -3.218633105673e-03 1.000000000000e-03 1.047197551197e-05 5.005537080435e-10 -1.215930423090e-09 7.666880084946e-10
244 2 3.386956869643e-03 1.062175821093e-02 1.239030415867e-02 -2.034010260390e-08 -1.898118358587e-09 1.822481344485e-08 5.159570300839e-06 -5.683244299369e-06 2.256758325240e-06 1.000000000000e-03 1.047197551197e-05 3.722180677907e-11 1.535261326684e-11 -2.181249318348e-11
245 2 7.949708695232e-03 1.189039613738e-02 9.011931987954e-03 -1.206277711564e-08 -2.871663792341e-08 7.484391485067e-09 -3.589336277197e-05 7.069830574213e-05 1.312886691337e-05 1.000000000000e-03 1.047197551197e-05 3.297960462063e-11 5.467984785276e-11 1.010875176095e-12
246 2 5.629757835681e-03 1.491350699205e-02 4.643835978378e-03 -3.422241741550e-08 -8.773169539961e-08 1.205442103364e-07 -7.364969676233e-05 -1.953307270831e-04 6.022569540336e-05 1.000000000000e-03 1.047197551197e-05 5.034364946403e-11 1.237176352853e-10 -1.701814714198e-10
247 2 1.979854892426e-03 1.472624587989e-02 9.133793628686e-04 -2.228710489729e-08 -2.264781326640e-08 8.891470574503e-09 1.972750151874e-05 -2.588821982293e-05 -1.117441285149e-04 1.000000000000e-03 1.047197551197e-05 5.225496226652e-11 1.301888108474e-11 1.567720522476e-12
248 2 5.659536991604e-03 1.529150891048e-02 1.025480495446e-02 -1.961432787589e-08 -6.808046298547e-09 1.800645805600e-08 1.371338231177e-05 7.505286768616e-06 3.643536009048e-05 1.000000000000e-03 1.047197551197e-05 3.233030769667e-11 9.187440035863e-12 -2.427445452424e-11
249 2 8.675677754366e-03 1.474878095654e-02 1.302757334803e-02 -1.466757261532e-08 -1.160406265212e-08 3.288070117723e-09 3.705917976774e-06 2.590536106271e-06 -1.521277987781e-05 1.000000000000e-03 1.047197551197e-05 1.519102339732e-11 5.547913924114e-12 1.183648035583e-11
250 2 1.441172700020e-02 1.411020515633e-02 3.851048254561e-03 -7.261184757907e-08 -3.996051106307e-08 1.080902237100e-08 1.359108621690e-05 -1.119658439669e-05 -4.828126142312e-06 1.000000000000e-03 1.047197551197e-05 1.143971053565e-10 7.060146849682e-11 -7.478256541442e-12
251 2 3.912408403189e-03 9.745717582670e-03 3.254007722936e-03 -3.920112767678e-08 -5.566316964406e-08 2.074558780280e-09 2.679492827501e-06 7.904486885410e-06 1.002334348249e-05 1.000000000000e-03 1.047197551197e-05 4.874957175446e-11 8.596383707023e-11 -3.391242715983e-12
252 2 9.492210051468e-03 4.394780929110e-06 6.628783117462e-03 -9.384365775668e-08 -5.132973180597e-08 -7.769658398537e-08 -5.243461550231e-06 1.073024246323e-04 -4.914777679065e-05 1.000000000000e-03 1.047197551197e-05 1.631156507592e-10 1.050553950744e-10 1.274618929781e-10
253 2 5.410760426934e-03 2.055718333154e-03 1.455196704392e-02 -2.366740222049e-09 6.441148043750e-09 4.635253621999e-09 4.427787242019e-06 2.309440737061e-06 4.318345004839e-06 1.000000000000e-03 1.047197551197e-05 -1.126230146441e-11 -1.343738610822e-11 1.403804268806e-11
254 2 3.208093699954e-03 8.022190241552e-03 5.808346233716e-03 -2.477440084284e-08 -6.679683579650e-08 6.371012757973e-09 -1.717323976089e-05 -2.519471894549e-06 -2.425817421349e-06 1.000000000000e-03 1.047197551197e-05 2.858370053381e-11 1.018630023476e-10 -1.492852123865e-11
255 2 1.816764185644e-03 1.161852521034e-02 1.298337188150e-02 -1.986310425132e-08 4.552980211147e-09 2.219953848278e-08 -2.800628741829e-06 -7.267082786323e-07 -8.574879819757e-06 1.000000000000e-03 1.047197551197e-05 5.033187172950e-11 -2.779003697104e-11 -4.866996803904e-12
256 2 9.413141409899e-03 3.226183082976e-03 2.794416185860e-03 -5.768372762394e-08 6.250353704714e-08 -9.436352015622e-09 1.265039254542e-04 -1.475083217612e-05 -8.788571656355e-05 1.000000000000e-03 1.047197551197e-05 8.908102632659e-11 -8.944973759278e-11 1.030742195886e-11
257 2 1.505988691957e-02 1.019837482885e-02 3.418471173060e-03 -4.918104202044e-08 -1.914361919823e-08 9.096797901070e-09 7.482681354399e-06 1.402789567880e-05 3.823293314713e-05 1.000000000000e-03 1.047197551197e-05 7.007845860797e-11 4.954965005520e-11 -2.386967694228e-11
258 2 9.213198069013e-03 9.847215909460e-03 7.885993722621e-04 -1.898279842974e-08 4.576809441536e-08 2.757953838783e-08 -2.276937241897e-05 -1.511307221711e-05 -1.467887743712e-05 1.000000000000e-03 1.047197551197e-05 -2.363414976085e-11 -5.198160760381e-11 -7.520013232254e-11
259 2 6.654379743998e-03 2.815872753474e-03 8.584659110923e-03 -6.731666172836e-08 -5.834176267847e-09 -1.660483247692e-08 -4.146099864230e-05 -6.319048710517e-05 4.147909853522e-05 1.000000000000e-03 1.047197551197e-05 1.124445756629e-10 5.220903646346e-12 4.181795548314e-11
260 2 1.248806479164e-02 2.614451267880e-03 1.441412658660e-02 -2.989654118922e-09 -7.545049931338e-09 1.967132475123e-09 -6.225629008390e-06 -5.443673361658e-08 4.931435112334e-07 1.000000000000e-03 1.047197551197e-05 9.264419309274e-12 1.085876785606e-11 -1.823997067886e-12
261 2 1.396806283996e-03 1.279363036264e-02 1.048384964563e-02 -3.028956392302e-08 -1.130196422641e-08 3.328211598010e-08 -1.033794546134e-05 1.832640147841e-05 -2.352664787813e-05 1.000000000000e-03 1.047197551197e-05 2.945245014850e-11 1.491831011106e-11 -3.563641522255e-11
262 2 2.364490761085e-03 1.060680246159e-02 1.441643954332e-02 -8.730104064016e-09 2.405648270151e-10 1.338459332835e-08 2.112691965680e-06 1.098844155583e-05 9.695918043605e-06 1.000000000000e-03 1.047197551197e-05 2.035157939679e-11 2.512024974467e-11 -4.409630307236e-11
263 2 1.362796008835e-02 6.578227609286e-03 6.043034801036e-03 -2.861556049125e-08 -1.606297368260e-08 2.092547410052e-08 -1.030205608379e-06 2.911497643665e-05 -2.767858549763e-05 1.000000000000e-03 1.047197551197e-05 4.358892352044e-11 3.231387979721e-11 -2.595645699355e-11
264 2 1.273486427517e-02 1.377260303739e-02 9.905102682429e-03 -1.856706225364e-08 -1.581604125837e-08 5.161923769915e-09 -9.660715330986e-06 -2.213492414226e-05 -3.691194120794e-06 1.000000000000e-03 1.047197551197e-05 3.957791439955e-11 3.272948776156e-11 -2.781039812848e-11
265 2 7.541136094813e-03 7.266961815382e-04 9.183174086622e-03 -3.283177519687e-08 -1.949099619083e-08 6.994556087085e-09 -1.260984216267e-06 4.175275777688e-06 1.594900094132e-05 1.000000000000e-03 1.047197551197e-05 6.161779120520e-11 3.222667419970e-11 -6.241365310740e-12
266 2 5.447022435600e-06 3.517691374340e-03 2.109631085972e-03 5.284404394211e-09 -4.375490680932e-08 1.804952011436e-09 3.105977085887e-05 3.789318929426e-05 -2.290320122593e-05 1.000000000000e-03 1.047197551197e-05 1.702044781300e-11 8.977047304955e-11 -3.796683002513e-11
267 2 4.059751298775e-03 1.169648957260e-02 8.706371835039e-04 -5.694613324417e-08 1.544783744613e-08 2.377153938102e-08 -6.928556900560e-06 -3.391144909936e-05 8.734416724112e-05 1.000000000000e-03 1.047197551197e-05 6.514191331525e-11 -2.645606491910e-11 -2.861236598197e-11
268 2 1.721013665727e-04 1.514876766230e-02 1.212458770118e-02 -2.411821341720e-08 -3.928615180186e-09 1.731209874201e-08 -7.134921461575e-07 1.003058448053e-05 -1.056381114191e-05 1.000000000000e-03 1.047197551197e-05 3.763757323299e-11 1.095353655879e-11 -3.493803015152e-11
269 2 7.915409787337e-04 1.285731737747e-02 9.455868034329e-04 -4.042603067113e-08 -3.695975084817e-08 5.936070562896e-09 1.473361999731e-05 -1.760643254125e-05 -7.529815105765e-06 1.000000000000e-03 1.047197551197e-05 5.661696772930e-11 5.265187185992e-11 -7.410991681648e-12
270 2 5.081578367100e-03 1.617838620956e-03 1.154667531363e-02 -1.076821552910e-08 3.830872327216e-09 1.569042444880e-08 -7.611764751919e-06 9.911875416928e-06 3.774144914946e-07 1.000000000000e-03 1.047197551197e-05 1.744619424455e-11 2.884726738022e-11 -3.498316085537e-12
271 2 8.931842461302e-03 5.508106707051e-03 7.263417894623e-03 -8.789015735032e-09 -1.292384690781e-08 1.522523262344e-08 1.176453442633e-05 3.197921678109e-05 2.115329956727e-05 1.000000000000e-03 1.047197551197e-05 1.287762801282e-11 2.467008453065e-11 -1.873351756243e-11
272 2 1.382593059408e-02 1.286593453550e-02 8.732607520984e-03 -3.424034490995e-09 -3.877815973685e-09 -1.037829027355e-09 2.167162540528e-05 3.235158474541e-05 2.592813394308e-05 1.000000000000e-03 1.047197551197e-05 9.453796621840e-13 1.005024501471e-11 4.849120286420e-12
273 2 1.257357440065e-02 7.732732572328e-03 4.491735983205e-03 -1.915088958289e-08 -4.495009434403e-09 3.026900179302e-08 -9.610151791544e-06 1.680500142114e-05 -7.948794938594e-06 1.000000000000e-03 1.047197551197e-05 -9.802100505675e-12 1.594615767406e-11 -5.362617500716e-12
274 2 9.470112376170e-03 8.887136954816e-03 1.447372340692e-02 1.825519101227e-08 -1.640936380521e-09 9.601606987331e-09 3.407469916935e-06 -1.912101379626e-05 -6.132110376100e-05 1.000000000000e-03 1.047197551197e-05 -2.197496213295e-11 2.860303560594e-11 7.962048069727e-12
275 2 7.702914879960e-03 9.164491118134e-03 3.280845427896e-03 -3.406480426203e-08 2.918287398576e-08 3.452498344659e-08 1.960586581770e-05 5.139658742369e-06 2.697477745483e-05 1.000000000000e-03 1.047197551197e-05 3.620068989745e-11 -5.057227591620e-11 -3.477275199439e-11
276 2 7.043825378012e-04 1.288886541889e-02 1.395505394875e-02 -2.019385327073e-08 6.506902761785e-09 1.432276080906e-08 7.756804358743e-06 -8.714705387001e-06 5.055445303741e-07 1.000000000000e-03 1.047197551197e-05 2.685524041552e-11 -6.594357318360e-12 -2.088392527907e-11
277 2 1.384464022554e-02 3.584939597928e-04 4.844587031092e-03 -7.267051333917e-08 -4.164255640732e-08 2.627056109747e-09 3.812045984778e-06 -1.189358814101e-05 1.249605640204e-06 1.000000000000e-03 1.047197551197e-05 1.120028101945e-10 6.267513038560e-11 1.620493114462e-13
278 2 4.451199750213e-03 1.206337908120e-02 1.305404375391e-02 -1.943658367117e-08 -2.718507126991e-09 8.742959034080e-09 -8.430364396248e-06 1.267773287497e-05 -4.487040299016e-06 1.000000000000e-03 1.047197551197e-05 3.053994581952e-11 1.071406197774e-11 -9.030618934413e-12
279 2 2.914305172892e-03 1.215800808995e-02 6.863042471372e-03 -5.530468877345e-08 -4.229526822363e-08 3.077067322729e-08 -1.797484224606e-05 8.800411453384e-06 -1.062567871083e-05 1.000000000000e-03 1.047197551197e-05 7.799254110147e-11 6.848151138661e-11 -4.105631183218e-11
280 2 9.908110079557e-03 9.175151732672e-03 1.163198244661e-02 2.024926628201e-07 3.733241472479e-07 2.708543355370e-07 -7.593061492711e-04 9.228075390061e-04 -4.182636991513e-04 1.000000000000e-03 1.047197551197e-05 -2.532839634905e-10 -3.966563062486e-10 -3.377270175628e-10
281 2 7.445793593494e-03 4.439358358053e-03 9.565465220120e-03 2.167382323778e-09 -8.608240227701e-09 1.554717553975e-08 -4.624248614823e-06 5.816148288230e-06 -4.693482710384e-06 1.000000000000e-03 1.047197551197e-05 1.215431611617e-11 2.494160712959e-11 -1.037437091437e-11
282 2 1.148638577463e-02 1.689773549798e-05 5.499649555599e-03 -6.751840979530e-08 -5.235163074605e-08 4.409409545909e-08 -6.261674601969e-07 6.403400617341e-05 3.156878286057e-05 1.000000000000e-03 1.047197551197e-05 8.650514644941e-11 8.464923568386e-11 -8.195791996566e-11
283 2 1.333360063140e-02 8.616624231443e-03 1.302547842699e-02 5.473472878364e-08 -7.823051868568e-08 1.555994400706e-08 6.387149044352e-05 1.489751642704e-04 2.898259185425e-05 1.000000000000e-03 1.047197551197e-05 -6.102232037188e-11 7.484220979638e-11 -6.909383056334e-11
284 2 1.106158041825e-02 1.070543465927e-02 1.093927952779e-02 -2.942340630885e-08 -3.559591552214e-08 3.393640357176e-07 -1.158086228520e-04 -2.111363829330e-04 -3.567405863642e-05 1.000000000000e-03 1.047197551197e-05 3.449713358132e-11 4.677788425162e-11 -3.856785612745e-10
285 2 1.170607298021e-02 8.223134923348e-03 1.443826557922e-02 -2.628728969856e-08 -5.977101916644e-08 -1.197861979877e-08 -6.326536144863e-05 8.087291932095e-05 -2.167491573717e-05 1.000000000000e-03 1.047197551197e-05 2.720575114581e-11 7.618491548512e-11 -7.226177619496e-12
286 2 8.787860015869e-03 1.352878356586e-02 2.392298824581e-03 -4.247173230801e-07 1.435716058346e-07 -1.855011326815e-07 1.105909242619e-04 -4.862027880351e-04 1.857150426695e-04 1.000000000000e-03 1.047197551197e-05 6.577370395588e-10 -2.293871339214e-10 2.865501757031e-10
287 2 1.066320175792e-02 6.002150222346e-03 7.959969795598e-03 -2.449969459978e-08 -1.932006545333e-08 7.369620322077e-10 3.452062448906e-05 -1.498999628101e-05 -7.193920568774e-06 1.000000000000e-03 1.047197551197e-05 3.214818504356e-11 2.730991149137e-11 -2.623396077162e-12
288 2 2.100797149989e-03 3.007372870012e-03 1.322891785428e-02 -1.162795777068e-08 2.037718591429e-09 4.838197252081e-09 -5.994430465734e-06 -1.595448971868e-06 3.300818065034e-06 1.000000000000e-03 1.047197551197e-05 1.540903998836e-11 -2.098575553857e-12 -8.036763695747e-12
289 2 7.289941576656e-03 8.866654253216e-04 1.439829407900e-02 -4.660717555959e-09 -5.789765143229e-09 1.524565653811e-09 -5.188696082018e-06 3.350949765734e-06 -7.158166808765e-06 1.000000000000e-03 1.047197551197e-05 5.193008354341e-12 1.002760548818e-11 3.308636287111e-12
290 2 4.168996438014e-05 9.938369252890e-03 1.593438089520e-03 -6.070696689672e-08 -2.777765906959e-08 1.086028976689e-08 -1.923776664157e-05 3.579249176577e-06 -8.657839637483e-06 1.000000000000e-03 1.047197551197e-05 9.979201178566e-11 6.471074784748e-11 -1.941384526861e-11
291 2 7.652942720053e-03 8.137050484989e-03 1.236217683193e-02 -5.732912502887e-09 2.788837756797e-08 1.520210720911e-08 -8.588925125049e-06 -3.489239831692e-05 -3.516551264365e-05 1.000000000000e-03 1.047197551197e-05 1.406141514118e-11 -1.287135111973e-11 -1.931918974333e-11
292 2 2.521130827571e-04 9.559461452287e-05 9.881664549727e-04 -2.214336153914e-08 -3.869127958971e-11 6.706723108469e-09 -1.601721171182e-05 1.666101604700e-05 5.627345663140e-05 1.000000000000e-03 1.047197551197e-05 3.610705021069e-11 5.436263792587e-12 -8.280451113361e-12
293 2 1.423104805787e-02 1.450670038764e-02 1.086383188460e-02 -3.585385953241e-08 -3.907589605387e-09 1.762258950882e-08 -6.953687485899e-06 3.400480340703e-07 5.374688411881e-06 1.000000000000e-03 1.047197551197e-05 5.397804027823e-11 2.659537272371e-11 -2.929734261557e-11
294 2 8.615102209775e-03 7.611189335620e-03 4.000592506376e-03 -6.466136703663e-09 2.405873291690e-08 1.238390256124e-08 2.058593689011e-05 -2.034105050776e-05 5.868381179068e-06 1.000000000000e-03 1.047197551197e-05 4.062096092701e-12 -4.251796995049e-11 -1.785975902120e-11
295 2 4.365502238660e-03 1.320453523973e-03 9.859449932195e-03 -2.569554589584e-08 -1.478253122461e-08 3.431351768215e-08 -1.435625121392e-05 1.244233650485e-06 -2.095939811748e-05 1.000000000000e-03 1.047197551197e-05 1.441170992696e-11 3.893530663803e-11 -5.819861756943e-11
296 2 5.853207498108e-03 9.452471265630e-03 1.282513404953e-02 5.348157320774e-09 -1.745674124047e-09 2.415043660791e-08 2.333118115203e-06 -4.538222450782e-05 2.835094255767e-06 1.000000000000e-03 1.047197551197e-05 1.297131358017e-11 1.474101484714e-11 -4.418260056350e-11
297 2 8.372665715877e-03 5.433705894509e-03 1.093842988100e-02 5.607106465872e-09 9.578312981570e-10 1.131991825960e-08 -5.563169460789e-06 9.426992866373e-07 7.524347156433e-06 1.000000000000e-03 1.047197551197e-05 -3.422646285675e-12 5.177211495118e-13 -1.495948935173e-11
298 2 1.151737270129e-02 1.246079258284e-02 1.220769046242e-03 -5.813596073094e-08 4.933761911621e-08 -6.235604800648e-08 -1.957308639027e-05 -3.613397107190e-05 -1.555723220663e-05 1.000000000000e-03 1.047197551197e-05 9.195460713633e-11 -5.920602716644e-11 9.727303208677e-11
299 2 6.998377133913e-03 1.151100083459e-02 7.455639618767e-03 -4.044451751249e-08 -2.512473329542e-08 3.047690538290e-08 3.945008397457e-05 -3.774417496259e-05 -1.641498676520e-05 1.000000000000e-03 1.047197551197e-05 7.157596091696e-11 5.464561264981e-11 -3.968173093787e-11
300 2 9.538408620161e-03 7.407160595239e-03 1.074483303890e-02 -1.918684298412e-08 -6.111052626458e-09 -2.522934191469e-08 1.508197669029e-05 4.933427802346e-05 1.343495956364e-05 1.000000000000e-03 1.047197551197e-05 2.347757755494e-11 1.935099956902e-11 2.672515972090e-11
301 2 3.506044924369e-03 2.642098488733e-03 5.459447669826e-03 -7.009056497079e-08 -3.616956495108e-08 1.324271170631e-07 8.592988227531e-05 4.175405711885e-05 6.388361999170e-05 1.000000000000e-03 1.047197551197e-05 9.959620438935e-11 1.217654650260e-11 -1.643966104112e-10
302 2 1.137659569170e-02 6.994708779048e-03 9.970586839886e-03 1.122292821700e-08 -7.365573151487e-08 -9.235209116760e-08 -2.983428649383e-05 4.584881909840e-06 -5.527721473377e-05 1.000000000000e-03 1.047197551197e-05 -5.107188464071e-12 8.673812294841e-11 1.031446145844e-10
303 2 4.570221517320e-03 5.218078310808e-03 3.630481397337e-03 8.047690538654e-08 -1.630436258600e-07 -7.747764018219e-08 3.297870039416e-05 -2.600845727582e-05 1.392220613419e-04 1.000000000000e-03 1.047197551197e-05 -1.248922021544e-10 3.138701750607e-10 9.642266379204e-11
304 2 6.910941388405e-03 1.000685231484e-03 4.846051455992e-03 -1.990621299069e-07 -4.285218795790e-08 -5.876669607370e-08 -9.661824063929e-05 1.734707633383e-04 4.827219780681e-05 1.000000000000e-03 1.047197551197e-05 3.050758224184e-10 8.812567721041e-11 8.630473399714e-11
305 2 1.063810959467e-02 1.413705934254e-02 2.689589322686e-03 -2.047775478357e-07 5.622361870176e-08 2.676550662816e-07 7.018713242749e-05 2.853747055631e-04 -1.960434366308e-04 1.000000000000e-03 1.047197551197e-05 3.235300233574e-10 -8.702590623508e-11 -4.220877767221e-10
306 2 1.317076205344e-02 9.217615635669e-03 9.056145995218e-04 -1.873675886391e-08 -2.666866467748e-08 9.434088131285e-09 2.693152329991e-05 -1.503144490395e-05 2.550318041612e-05 1.000000000000e-03 1.047197551197e-05 1.519303866359e-11 5.338227800534e-11 -5.001836484697e-11
307 2 6.381827503271e-03 1.147230994875e-02 5.490418656506e-03 -2.094014602465e-08 -3.030260982618e-08 3.825290210161e-08 3.815414799482e-05 -5.057476434746e-05 -9.141818470352e-06 1.000000000000e-03 1.047197551197e-05 2.197857837950e-11 3.822217236591e-11 -5.416045137525e-11
308 2 1.086408057400e-02 4.070787077230e-03 7.037429642881e-03 -4.021952576119e-08 -3.661069204564e-08 1.354110288522e-08 2.340569321413e-05 2.523636295509e-05 1.847319554668e-05 1.000000000000e-03 1.047197551197e-05 5.931210011253e-11 4.613088731143e-11 -1.653892988668e-11
309 2 1.095566705454e-02 2.548444927691e-03 9.385664462350e-03 -2.832840889481e-08 -1.542501548555e-08 4.861087350969e-08 2.327637814463e-05 4.559275990274e-05 -1.897081710126e-05 1.000000000000e-03 1.047197551197e-05 4.419438149766e-11 2.377613971338e-11 -5.993469639339e-11
310 2 6.483290188523e-03 2.707490429382e-04 2.949665561001e-03 -5.538776942078e-07 -3.353591866897e-08 4.001317343607e-07 -6.172642435633e-04 9.051228748782e-04 4.553932938323e-05 1.000000000000e-03 1.047197551197e-05 8.684327477783e-10 3.361792178933e-11 -6.306321212482e-10
311 2 9.567745817707e-03 8.159970052008e-03 5.524894826527e-03 -3.606083904880e-08 2.295077461293e-08 1.928426941724e-08 -9.530119897392e-07 8.123346183416e-07 2.001328804455e-05 1.000000000000e-03 1.047197551197e-05 6.476502058721e-11 -1.608417208123e-11 -4.047293942826e-11
312 2 2.324044037725e-03 1.206927295085e-02 8.959031106843e-03 -5.217554391587e-08 -3.310066077490e-08 2.370392720226e-08 3.424747203787e-06 -2.196545189638e-06 -7.727456659104e-06 1.000000000000e-03 1.047197551197e-05 6.647677522681e-11 4.777163127914e-11 -3.339167169461e-11
313 2 2.425511950981e-03 4.587693215437e-03 2.362799618265e-03 3.826960129697e-08 -7.060461414611e-08 1.662464145144e-10 9.720244503569e-05 1.174271649851e-04 -1.346459561057e-05 1.000000000000e-03 1.047197551197e-05 -4.945419580741e-11 1.059625944435e-10 -9.153143408839e-12
314 2 8.431600388487e-03 3.671991409681e-05 2.662398987260e-03 -2.464659127108e-07 6.036933412221e-08 -8.328850383319e-08 1.112093893277e-04 -6.818441040297e-04 -9.110511346417e-04 1.000000000000e-03 1.047197551197e-05 3.547954872119e-10 -8.361528989118e-11 1.206715161528e-10
315 2 7.521290901341e-03 6.411274372908e-03 9.504192165204e-03 -1.189186819198e-08 -2.521409750061e-09 1.073626457136e-08 4.747294656638e-06 3.469503613993e-06 1.373140345208e-05 1.000000000000e-03 1.047197551197e-05 1.436007102884e-11 2.642300520813e-11 -2.399964686395e-11
316 2 7.437306574715e-03 1.358839091484e-02 1.216978421354e-02 -2.823864817774e-08 8.770035524777e-09 2.521809233603e-09 7.859293935790e-06 8.795429063939e-06 -3.175932819961e-06 1.000000000000e-03 1.047197551197e-05 2.708367256612e-11 1.243529887158e-11 -2.468135309845e-11
317 2 1.452975643997e-02 1.388651574135e-02 8.389141556122e-04 -1.490709949022e-08 -2.944125585667e-08 8.807729290514e-09 2.951429787326e-05 -1.083344926769e-05 -9.790862462580e-06 1.000000000000e-03 1.047197551197e-05 9.822701463066e-12 1.708341464523e-11 5.017084860003e-12
318 2 1.893899159932e-03 1.116314197623e-02 1.164974619853e-03 -4.480609338289e-08 -3.563334136528e-08 1.630746944140e-08 1.602449377018e-05 -2.983834886245e-06 1.979229863685e-05 1.000000000000e-03 1.047197551197e-05 5.890696437966e-11 5.521077596876e-11 -2.279573547214e-11
319 2 4.570902498113e-03 7.200639626566e-03 4.732355904457e-03 8.438315344700e-09 -6.835001607288e-08 -6.962860405987e-09 1.175638668333e-05 -1.611882691933e-06 5.341738322491e-05 1.000000000000e-03 1.047197551197e-05 -3.802142488308e-11 1.062051562846e-10 1.113646879455e-11
320 2 6.107000770341e-03 1.296118955054e-02 1.334286542058e-02 -1.669176354507e-08 -7.493602373117e-10 7.178671915487e-10 8.748104683777e-06 6.562124042016e-07 2.870348987933e-06 1.000000000000e-03 1.047197551197e-05 7.478430667824e-12 -1.979467009140e-12 1.250091587213e-11
321 2 2.818457884573e-04 1.482936944154e-02 1.399404739955e-02 -1.052882202051e-08 7.328432492536e-09 1.885777680130e-08 -9.871959782575e-06 7.110583277416e-06 -8.842712813027e-06 1.000000000000e-03 1.047197551197e-05 1.110398369785e-11 -1.493123354599e-11 -3.391424423269e-12
322 2 1.314058843059e-03 4.905677636011e-03 7.046522245915e-03 -4.517251503497e-08 -2.817611102968e-08 2.949168067546e-08 -1.088415832995e-05 5.169410975100e-05 -1.046066605347e-05 1.000000000000e-03 1.047197551197e-05 7.774593050653e-11 3.761692947219e-11 -5.688468574368e-11
323 2 1.351710792594e-03 1.357394386145e-02 1.226009835114e-02 -1.798404306436e-08 7.813852664151e-09 2.011360854804e-08 -7.860567790604e-06 -6.793195308303e-06 1.249978708376e-05 1.000000000000e-03 1.047197551197e-05 2.998088460652e-11 -2.337299020279e-12 -1.672570184701e-11
324 2 3.588532818501e-03 1.531425111575e-02 1.448554136198e-02 -5.581891641526e-09 1.446600106432e-09 2.575057557644e-09 -1.234241739038e-07 2.204047645192e-06 1.824004794745e-06 1.000000000000e-03 1.047197551197e-05 2.204243628535e-11 8.149633124813e-12 2.598097484170e-11
325 2 1.292272568305e-02 6.039499059839e-03 1.290156832566e-02 2.450402923499e-09 2.047935433747e-08 -3.966361250057e-09 2.454647581531e-05 -2.177459518231e-05 -6.689063788800e-05 1.000000000000e-03 1.047197551197e-05 -4.034488326213e-12 -1.834262263583e-11 8.373191517806e-12
326 2 1.264346358126e-02 1.121615248961e-02 2.179060549892e-03 -4.262829897376e-08 3.230768837958e-08 -5.328994763261e-08 5.248196951819e-05 -2.687791657342e-05 3.963170232686e-05 1.000000000000e-03 1.047197551197e-05 5.842153399553e-11 -3.040947813202e-11 9.245475339111e-11
327 2 1.343721929983e-02 9.592295239706e-03 1.453218951803e-02 1.106739084425e-07 -6.764751625184e-08 -4.669938913662e-09 -7.855213625178e-05 -1.228731864309e-04 -9.904793832006e-05 1.000000000000e-03 1.047197551197e-05 -1.198458846299e-10 1.007476715317e-10 3.925534063983e-11
328 2 5.097029902441e-03 5.940838674376e-03 1.252494022836e-02 5.726710398023e-09 6.033543619457e-09 1.050261552469e-08 -2.199220198801e-06 -1.230231618366e-05 1.098819326272e-05 1.000000000000e-03 1.047197551197e-05 1.472849847150e-11 -4.270475897529e-11 -4.374132193876e-11
329 2 3.269610597208e-03 1.357231889835e-02 1.310570479708e-02 -1.564333455207e-08 -5.102489682344e-10 1.080844568984e-08 4.599356796076e-07 -1.709631282134e-06 9.627209170107e-07 1.000000000000e-03 1.047197551197e-05 2.733168895281e-11 -2.399001469724e-12 -9.225939543506e-12
330 2 6.932012664509e-03 1.576568676987e-03 1.104645653804e-02 -1.125641671181e-08 2.695506682986e-09 7.278873820255e-09 6.935295502040e-06 -9.892487632833e-07 -5.010135188817e-06 1.000000000000e-03 1.047197551197e-05 1.195720395688e-11 1.226818013495e-11 -1.016263142134e-11
331 2 1.325350631207e-02 4.259966601815e-03 5.941737554609e-03 -3.545719628846e-08 -3.427815151368e-08 3.284493749721e-09 -1.057300607807e-06 1.456205210554e-05 1.024248715484e-05 1.000000000000e-03 1.047197551197e-05 6.122889339654e-11 5.620209682253e-11 -8.596668654066e-12
332 2 1.410630007394e-03 4.316506663995e-03 1.445012766643e-02 -7.839480193962e-09 5.423368465785e-11 1.909501827751e-09 6.255219952251e-07 7.710310622168e-06 7.173459439644e-07 1.000000000000e-03 1.047197551197e-05 7.125500657819e-12 1.016659993429e-12 2.735387888162e-12
333 2 1.140900925972e-02 8.788215206375e-03 1.265938767639e-02 3.002169783232e-07 9.715727247259e-08 -5.221000148700e-08 1.997184226019e-04 -4.068740957570e-04 -2.543682956160e-04 1.000000000000e-03 1.047197551197e-05 -3.048544263384e-10 -1.208787295756e-10 9.682123783175e-11
334 2 2.811830908746e-03 6.209453865152e-03 9.818010381320e-04 4.835479215688e-09 1.346676534868e-08 6.640762555802e-09 8.337025927959e-06 -6.461769287166e-06 7.796281538920e-05 1.000000000000e-03 1.047197551197e-05 5.500949552633e-12 -5.448180016775e-11 -1.868999805411e-11
335 2 2.168672976226e-03 7.991800380635e-03 9.411604561717e-04 -2.243909697630e-08 -1.518848621824e-08 7.081386230032e-09 6.634375260452e-06 -1.672231770091e-07 -2.164810959649e-05 1.000000000000e-03 1.047197551197e-05 3.756635263738e-11 2.502927947581e-11 -1.242423288668e-11
336 2 1.193678870499e-02 1.064236420248e-02 8.667231949842e-03 -4.831551743186e-08 -3.868417516162e-08 7.959171439821e-08 7.753509385094e-05 -7.992916646798e-05 -1.652431813670e-05 1.000000000000e-03 1.047197551197e-05 4.850502932110e-11 3.846858900714e-11 -1.166814052138e-10
337 2 3.155226270382e-04 2.524982532986e-03 1.414500761289e-02 -1.611471426000e-08 -9.499699638590e-09 1.332291007149e-08 9.542224478254e-06 -7.463959315049e-06 1.259543029444e-05 1.000000000000e-03 1.047197551197e-05 6.978200675189e-11 -4.399443656994e-11 -1.897237952488e-11
338 2 6.323567739849e-03 4.553929717871e-03 1.250941756446e-02 2.230797674674e-08 1.788147094779e-08 1.366491682946e-08 -9.061048812622e-06 2.148198912969e-05 4.327888411074e-06 1.000000000000e-03 1.047197551197e-05 -1.747907313726e-11 -1.536007934337e-11 -1.537146320389e-11
339 2 8.938488255778e-03 1.160198898471e-02 4.477227835348e-03 -8.420145366186e-08 2.430444984331e-08 1.682909823704e-08 3.500846551893e-05 -2.125017126121e-04 -1.693914465864e-05 1.000000000000e-03 1.047197551197e-05 9.152037527736e-11 -5.293360708718e-11 -5.078692360771e-11
340 2 1.236588490751e-02 1.390887211117e-02 4.580787204267e-03 -9.276243478979e-08 -5.197582274298e-08 8.847791751854e-09 -3.175516322111e-05 1.002715148884e-05 -3.026599461876e-05 1.000000000000e-03 1.047197551197e-05 1.253473706711e-10 6.041854372470e-11 -3.189561007018e-12
341 2 1.846763589211e-03 7.051120275129e-03 2.590060494911e-03 -2.612855739161e-08 -5.141610923373e-08 6.431951593228e-09 5.896896705731e-06 -5.404185268065e-06 -1.381785533832e-05 1.000000000000e-03 1.047197551197e-05 2.833956924661e-11 8.902915498795e-11 -7.323094620965e-12
342 2 3.307378325525e-03 5.260572090919e-03 1.036174161173e-02 -1.057342119854e-08 -1.624787757496e-08 2.047028754304e-08 -9.037935881346e-07 -9.515200883536e-06 2.950920995468e-06 1.000000000000e-03 1.047197551197e-05 4.350557202248e-11 3.637973137153e-11 -1.339951734955e-11
343 2 1.082584198059e-02 1.410824945240e-02 1.003755185803e-02 -2.447011564409e-08 -1.118635489196e-08 2.041325280295e-08 1.883543276819e-05 3.005058898391e-05 3.264959655890e-07 1.000000000000e-03 1.047197551197e-05 3.365439414593e-11 2.305620212320e-11 -2.449930734042e-11
344 2 1.382086263246e-02 1.813002418440e-03 3.550973218682e-03 -5.082803905499e-08 -3.432537954915e-08 7.188571233588e-09 4.036482082792e-06 2.695843744244e-07 -7.344389403502e-07 1.000000000000e-03 1.047197551197e-05 7.170706466400e-11 4.323147714996e-11 -1.436613743560e-11
345 2 8.509240417086e-03 1.710153984050e-03 3.677241828824e-03 -3.309308655592e-08 -1.664222590241e-07 -3.045499948082e-08 -3.838665650574e-05 -4.082702227300e-05 2.283343241218e-04 1.000000000000e-03 1.047197551197e-05 5.773315527596e-11 2.666342292350e-10 5.187175957861e-11
346 2 1.192187804148e-02 1.273361876056e-02 3.140699202225e-03 -1.410686527116e-07 -5.446538324494e-08 -4.725938272107e-09 5.963905022196e-05 3.379592334427e-06 6.706180300319e-05 1.000000000000e-03 1.047197551197e-05 2.147297030281e-10 8.717164175614e-11 1.554294408357e-11
347 2 7.625301331981e-03 1.184423205775e-02 1.433298148142e-02 -1.666840543544e-09 -8.714659456300e-09 8.402061646947e-09 1.479911636074e-05 1.303092857580e-05 5.672157168614e-05 1.000000000000e-03 1.047197551197e-05 6.081474033898e-12 6.155894054892e-12 -1.253856395784e-11
348 2 4.450828284735e-03 9.186901569599e-03 9.891122142543e-03 -4.001926596599e-08 -2.515313813839e-08 1.542504369331e-08 -8.969892188701e-06 -7.667095542158e-06 5.007646352590e-06 1.000000000000e-03 1.047197551197e-05 5.199676746674e-11 4.714361713201e-11 -1.123043897809e-11
349 2 9.291689756891e-03 1.570449509923e-03 5.461765350208e-03 -6.394031508499e-08 -2.713248232995e-08 -4.467280187960e-08 1.546111999241e-05 -3.318128368653e-05 -7.560990806987e-06 1.000000000000e-03 1.047197551197e-05 9.144826221240e-11 4.411053383905e-11 6.788366130218e-11
350 2 8.298168654140e-03 1.338607257793e-02 4.173632591439e-03 -1.699729721324e-07 6.933848088968e-08 -7.692177339307e-08 -1.481186030588e-04 4.384735674249e-04 2.930395604507e-05 1.000000000000e-03 1.047197551197e-05 2.680222839398e-10 -9.118190836497e-11 1.447893322996e-10
351 2 2.646011529831e-03 3.746236312488e-03 7.715849044765e-03 -4.034042931015e-08 -2.572903189523e-08 3.791536109290e-08 -1.401289717024e-05 -2.407622961139e-05 -7.784320599748e-06 1.000000000000e-03 1.047197551197e-05 6.592135030058e-11 3.844269025988e-11 -6.891921852967e-11
352 2 1.153766891659e-02 1.248151182535e-02 9.107101918359e-03 -2.233724400176e-08 -3.916496309680e-08 6.654553688312e-08 -3.028013396454e-05 1.792245891225e-05 -1.359807218377e-05 1.000000000000e-03 1.047197551197e-05 2.964008973085e-11 6.133058696427e-11 -6.163677066091e-11
353 2 9.860013915732e-03 5.814197995123e-03 9.698445610676e-03 -2.885010238921e-08 -2.151435370945e-08 -1.718649093289e-08 -3.589345500428e-05 1.824748007337e-05 -9.997862276746e-07 1.000000000000e-03 1.047197551197e-05 3.658395712859e-11 3.356761179473e-11 2.253749216709e-11
354 2 3.564532844823e-03 9.753804356962e-03 5.071775721421e-03 -4.433255350336e-08 -5.504215363182e-08 1.495129980968e-09 6.553791940694e-06 -1.634419699861e-05 1.111392152385e-05 1.000000000000e-03 1.047197551197e-05 3.896321261526e-11 1.107554772132e-10 3.000704657516e-12
355 2 4.969770771355e-03 1.177028427766e-02 8.944115550910e-03 -6.625657094638e-08 -3.078319483870e-08 4.521390678519e-08 3.161780906250e-05 -4.426382146442e-06 1.477182404504e-05 1.000000000000e-03 1.047197551197e-05 8.145323237334e-11 4.922210774649e-11 -7.745970527144e-11
356 2 9.331188241240e-04 1.037409552574e-02 4.925776803743e-03 -5.932856841026e-08 -3.178978964201e-08 -9.685843055395e-10 1.250996427130e-05 -1.629983208628e-05 -2.138862647170e-05 1.000000000000e-03 1.047197551197e-05 7.261955873851e-11 4.905747056931e-11 2.326493912788e-12
357 2 1.477937741706e-03 1.327903758737e-02 7.605510819277e-03 -3.769014903411e-08 -5.861752650964e-09 1.565354383321e-08 -2.247430784601e-06 -6.451337565931e-06 -2.657872440802e-05 1.000000000000e-03 1.047197551197e-05 4.523318282694e-11 1.874828564173e-11 -1.089156718793e-11
358 2 2.486585504743e-03 1.506826422298e-03 1.032756635351e-02 -2.911883318614e-08 -9.814593403182e-09 2.613873250290e-08 5.573556010625e-06 4.547405668937e-07 5.813748654010e-06 1.000000000000e-03 1.047197551197e-05 5.186766389970e-11 2.073104481413e-11 -3.945951541403e-11
359 2 1.407312320126e-02 1.117259326815e-02 9.317691979850e-04 -2.286880129274e-08 2.152399425208e-08 -1.795446589520e-08 -1.658249645994e-05 -1.562927292436e-05 -6.524095596059e-05 1.000000000000e-03 1.047197551197e-05 3.786892642421e-11 -2.611719155248e-11 2.048687837628e-11
360 2 3.516664520744e-03 1.061786348944e-02 8.389326935391e-03 -5.560406786612e-08 -3.842314067402e-08 2.862612956064e-08 -1.314878724496e-05 2.482969662225e-07 -4.549670947582e-06 1.000000000000e-03 1.047197551197e-05 7.744413223220e-11 6.358872832825e-11 -4.579694346536e-11
361 2 4.163217201439e-03 1.018842895767e-02 1.415692019121e-02 -1.622289307058e-08 -4.508160917461e-09 9.740797766583e-09 -9.663997678421e-06 9.766678239027e-07 -1.488054562974e-05 1.000000000000e-03 1.047197551197e-05 -4.614159053772e-12 1.784570945028e-11 -6.476079750441e-12
362 2 1.018729494714e-02 5.604888700710e-03 9.642876178570e-04 -1.580912369928e-08 3.089904656466e-08 -1.131012996565e-09 -1.074696023195e-05 -1.073987058600e-05 -5.660032039409e-05 1.000000000000e-03 1.047197551197e-05 2.231984859550e-11 -4.240551343562e-11 1.097675902766e-11
363 2 6.088397040308e-03 4.183029255328e-03 4.323838536855e-03 1.621532971212e-07 1.725055326068e-08 -1.001573664573e-07 1.658155782774e-04 -1.572753359260e-04 1.847304451148e-04 1.000000000000e-03 1.047197551197e-05 -2.715199573174e-10 -2.583414071997e-11 1.391903660229e-10
364 2 6.532727972509e-03 9.898491711198e-03 6.646842912306e-03 -4.167111380667e-08 -3.183691650500e-08 9.725106603088e-09 -1.911622834439e-05 -6.176332636776e-07 5.599142905695e-06 1.000000000000e-03 1.047197551197e-05 6.821390637444e-11 4.199777133702e-11 -2.293160495251e-11
365 2 9.710186746443e-03 8.060882330802e-03 2.543868691763e-03 1.194282275496e-08 7.101399894739e-08 1.106759784241e-08 3.286245256733e-05 2.503917373359e-06 2.311038915405e-05 1.000000000000e-03 1.047197551197e-05 -2.487836677162e-11 -9.978399837535e-11 -7.787980271403e-12
366 2 1.665637866706e-03 2.889559201887e-03 2.763265463029e-03 3.122208802854e-08 -8.167915029102e-08 2.428592759143e-10 8.984291452867e-07 -7.733836656485e-05 1.220338549983e-05 1.000000000000e-03 1.047197551197e-05 -5.953125158342e-11 1.220393483883e-10 1.534209116774e-11
367 2 7.320626053091e-03 1.345916306581e-02 8.909450862434e-04 -3.828176889245e-07 3.782906892281e-07 2.911261172337e-07 -6.019727605211e-05 -3.103257049281e-04 1.630430915483e-03 1.000000000000e-03 1.047197551197e-05 6.007150619959e-10 -5.785410573438e-10 -4.524618848831e-10
368 2 6.663567437211e-03 1.335191624779e-02 5.106224845722e-03 -3.515512474912e-08 -2.751013904093e-08 1.556606370852e-07 6.369761517426e-05 -3.276047408318e-05 5.102772850023e-05 1.000000000000e-03 1.047197551197e-05 5.990403652626e-11 4.447708255755e-11 -2.504009437200e-10
369 2 6.075729300312e-03 3.446958213056e-03 6.105804923713e-03 -2.676562642365e-08 -2.698680279789e-09 -4.496100309324e-08 -7.953579959499e-05 -3.837519067601e-05 1.556323650843e-05 1.000000000000e-03 1.047197551197e-05 3.224608290731e-11 8.774523862021e-12 8.101816019882e-11
370 2 2.420872900650e-03 1.442195160700e-02 1.064899388474e-02 -2.731714038950e-08 -1.256228295937e-08 2.099777522948e-08 1.969405791166e-06 -1.269947775535e-06 1.523982176773e-05 1.000000000000e-03 1.047197551197e-05 2.693173694327e-11 3.388638380193e-11 -2.982819261770e-11
371 2 1.498500900678e-02 1.526052080967e-02 7.133848301434e-03 -5.671749648516e-08 -1.298421445451e-08 1.066992345551e-08 1.513154658025e-05 3.225306745300e-06 -5.792110377663e-06 1.000000000000e-03 1.047197551197e-05 9.684266437138e-11 3.216441887825e-11 -1.634700866201e-11
372 2 7.211393395307e-03 9.296211787318e-03 1.214658007507e-03 -3.286544422449e-08 1.691721039686e-08 2.419263514603e-08 2.203353104068e-05 -1.222917601884e-05 4.229876679319e-05 1.000000000000e-03 1.047197551197e-05 2.900145913600e-11 -3.699535887812e-11 -1.702432151465e-11
373 2 2.657837139619e-03 1.881627207405e-03 8.432798057801e-03 -4.730020224437e-08 -1.777727553352e-08 2.476090995301e-08 -1.681210420001e-05 1.648386883280e-05 -2.675168258892e-06 1.000000000000e-03 1.047197551197e-05 9.314513652504e-11 3.527877823002e-11 -6.149385345838e-11
374 2 1.680173359590e-03 9.169656044103e-03 1.039503365883e-02 -5.886119048448e-08 3.161433106592e-09 8.286139404823e-08 2.674429615671e-06 1.696874333424e-04 1.682139651079e-05 1.000000000000e-03 1.047197551197e-05 7.670882236341e-11 1.257225585871e-11 -9.127569601572e-11
375 2 5.368489544435e-03 1.297712520226e-02 7.540384580821e-03 -5.230283901784e-08 -4.403476822115e-08 5.561415493740e-08 -3.270438585880e-05 9.813509393615e-07 -3.145901415011e-05 1.000000000000e-03 1.047197551197e-05 7.284526559432e-11 7.031808171769e-11 -8.257880721490e-11
376 2 2.746386298075e-03 8.785038914736e-03 1.448604262650e-02 -2.276361169882e-09 -1.096503494931e-09 8.215958916750e-09 -3.950639737704e-06 1.086369806824e-06 -2.510710386854e-06 1.000000000000e-03 1.047197551197e-05 9.367357216763e-12 1.295085590752e-11 -7.889440453999e-12
377 2 1.512344467850e-02 1.229088224623e-02 6.563221162785e-03 -5.398307759677e-08 -1.902813487586e-08 1.221117029618e-08 1.781830331643e-05 -1.636370581464e-05 1.283002551803e-06 1.000000000000e-03 1.047197551197e-05 8.609048083979e-11 3.860681706109e-11 -2.360549930314e-11
378 2 1.442154465362e-02 1.036203439418e-02 1.270538967422e-02 8.756100575973e-06 5.155069589152e-05 -1.515180327978e-06 -7.427884537818e-02 2.453946032835e-02 3.334213380220e-02 1.000000000000e-03 1.047197551197e-05 -7.531193697502e-09 -4.336177780805e-08 1.150384034546e-09
379 2 1.246018839579e-02 1.231749823898e-02 5.575617500802e-03 -9.912766580238e-08 -2.292861466410e-08 3.982674797234e-08 1.245955617064e-05 5.499657085946e-05 -4.053114515082e-05 1.000000000000e-03 1.047197551197e-05 1.409262034046e-10 3.461740273581e-11 -3.077240089184e-11
380 2 1.032390066548e-02 3.338376432021e-03 1.035881277356e-03 -1.076849497574e-08 9.090598445067e-08 3.106299692695e-08 4.608109309038e-05 2.013860413236e-05 -1.333078841036e-04 1.000000000000e-03 1.047197551197e-05 2.027071236580e-11 -1.467055798740e-10 -4.845412739994e-11
381 2 7.731187685060e-03 2.629319633053e-03 5.588487366437e-03 -5.898414115100e-08 3.963829316100e-09 -4.791525838534e-08 7.175514604320e-05 5.547168654024e-06 -3.561704677866e-05 1.000000000000e-03 1.047197551197e-05 8.356782029778e-11 -2.479214493934e-11 4.907386253729e-11
382 2 1.531525533541e-02 1.176198221282e-02 2.300723538691e-03 -5.658885361452e-08 -2.133375962731e-08 9.569067044717e-10 -5.708145356998e-06 -2.692673729095e-05 -1.071303729509e-05 1.000000000000e-03 1.047197551197e-05 8.802526895726e-11 3.364839513378e-11 -2.622003487658e-13
383 2 1.606442551883e-03 1.082207032453e-02 3.061884225256e-03 -5.680860096901e-08 -4.202353555581e-08 1.988847821097e-08 -2.074337578021e-05 -3.651957663642e-06 4.861663370941e-07 1.000000000000e-03 1.047197551197e-05 8.834741033457e-11 6.768385620758e-11 -3.106957456880e-11
384 2 1.583371253118e-03 7.922974890976e-03 4.778883005739e-03 -8.723402481159e-10 -7.585221840409e-08 9.698780822932e-09 -2.114495282352e-05 -3.234850864339e-06 -8.382330940865e-06 1.000000000000e-03 1.047197551197e-05 -3.073785126189e-12 1.368934367544e-10 -1.730568359598e-11
385 2 1.114385277989e-02 6.590558710047e-03 2.409150364779e-03 6.826967615524e-10 3.302575974258e-09 2.355090931491e-12 -7.445280145360e-06 -6.038356774198e-06 -4.119899855599e-05 1.000000000000e-03 1.047197551197e-05 2.280569015680e-12 -7.386690012058e-13 4.150504625011e-12
386 2 9.401479053261e-03 2.998704906779e-03 1.251557729543e-02 -5.259487350092e-09 -1.673410556872e-08 3.470416785362e-09 -1.098278116719e-05 -1.080733916978e-05 -7.668794560464e-06 1.000000000000e-03 1.047197551197e-05 3.634577892392e-11 2.013322747273e-11 -1.561293749002e-11
387 2 9.774615729397e-03 1.463129968674e-02 1.450260736121e-02 -7.878303666642e-09 -1.727262946288e-08 -1.306853297355e-09 -1.040294476941e-05 5.140416390391e-06 -7.926354594299e-06 1.000000000000e-03 1.047197551197e-05 1.674150698381e-11 2.362985014364e-11 7.725515074529e-12
388 2 3.556575381493e-03 5.291496543925e-03 8.381193741329e-03 -2.658675081799e-08 -2.571210538303e-08 1.464988793117e-08 -1.726518090892e-05 3.551757914353e-06 -1.837169631200e-05 1.000000000000e-03 1.047197551197e-05 3.181792485460e-11 6.067130052894e-11 -1.669815290702e-11
389 2 1.449044630973e-03 8.916234897675e-03 3.063696069797e-03 -3.315106246866e-08 -4.979794809481e-08 2.404701177844e-08 2.580272299468e-05 2.971245976304e-05 1.905124212923e-05 1.000000000000e-03 1.047197551197e-05 4.710704829168e-11 8.052066507182e-11 -4.492415444829e-11
390 2 1.379166063350e-02 1.455343924762e-02 1.397882154984e-02 -8.821944939177e-09 6.086982219899e-09 3.091273773305e-08 -4.763479967249e-05 -2.678460684370e-06 1.595772475170e-05 1.000000000000e-03 1.047197551197e-05 3.158909729493e-11 5.269246216116e-12 -2.400110848388e-11
391 2 7.950042230387e-03 3.958879290832e-03 7.792137687734e-03 -2.994132632826e-08 -2.027388039370e-08 9.279299654447e-09 1.499908972465e-05 6.256946188437e-06 -5.900029338432e-05 1.000000000000e-03 1.047197551197e-05 5.094609941707e-11 4.657375923195e-11 -4.782977653100e-12
392 2 1.014393061498e-02 1.168550722231e-03 1.446215858302e-02 -8.970649255911e-09 -7.610342719091e-09 -1.141452562110e-09 -2.095225129773e-06 6.155923891095e-06 8.754148274158e-06 1.000000000000e-03 1.047197551197e-05 1.415029086243e-11 1.092390466047e-11 -7.578173091516e-12
393 2 1.517973361909e-02 3.809230596498e-03 6.169027654205e-03 -4.678647086202e-08 -3.540206495256e-08 7.851124032475e-09 -2.266361965225e-05 -3.564057724481e-05 -1.344316424803e-05 1.000000000000e-03 1.047197551197e-05 7.301887995013e-11 5.528564616209e-11 -2.587890392280e-11
394 2 5.696708328175e-03 4.164209418571e-03 2.446440427557e-03 3.138615307210e-07 6.385124087527e-08 -1.251632184360e-07 1.205305275712e-05 6.711975296818e-05 2.819533937796e-04 1.000000000000e-03 1.047197551197e-05 -4.970065396569e-10 -9.299214404152e-11 1.900341341322e-10
395 2 2.195780955474e-03 9.203149266895e-03 8.484597323022e-03 -5.876169842447e-08 -3.894955999500e-08 1.147596613200e-08 -2.268492789608e-05 -7.486817669941e-05 2.109176617561e-05 1.000000000000e-03 1.047197551197e-05 4.777267803295e-11 3.847574649388e-11 -7.936053933177e-12
396 2 5.240341630900e-03 1.461376970009e-02 6.525335253935e-03 -8.033748056905e-08 -5.251724844132e-08 8.155434811207e-08 2.429485573524e-05 5.357216885897e-05 5.075481490864e-05 1.000000000000e-03 1.047197551197e-05 1.151700392029e-10 7.009358305145e-11 -1.360982957362e-10
397 2 1.007506464548e-02 9.532537956410e-04 2.732211434890e-03 1.037222018478e-07 -3.634077959523e-07 2.397384544308e-07 -6.127127756523e-04 2.083110631654e-06 2.709166235294e-04 1.000000000000e-03 1.047197551197e-05 -1.689228906194e-10 5.820982795813e-10 -3.868157336909e-10
398 2 1.041979561515e-03 5.016376416931e-03 3.567311512706e-03 2.749391367092e-08 -8.479936209503e-08 3.135910861981e-08 9.199941387390e-06 -4.372146184170e-05 7.303959896791e-06 1.000000000000e-03 1.047197551197e-05 -8.825062209834e-11 1.790058967134e-10 -5.893945681379e-11
399 2 1.429127754510e-02 4.294916614678e-03 8.456662074756e-04 -3.361637853543e-09 -8.244029476383e-09 1.338109555351e-08 3.365228049014e-06 -5.732602840256e-06 -1.582503448811e-05 1.000000000000e-03 1.047197551197e-05 -2.828140900321e-12 2.278784042546e-11 -3.881442300366e-11
400 2 7.445261295113e-03 6.808923554089e-03 7.534320556301e-03 -2.384021943225e-08 5.771945815667e-10 1.665321517715e-08 -1.353948584751e-05 -1.947102939924e-05 3.339774638446e-05 1.000000000000e-03 1.047197551197e-05 2.699083456674e-11 2.744465245747e-12 -1.611837011284e-11
401 3 1.207142438762e-02 4.333774881741e-03 1.080158478597e-02 -1.215058407780e-08 -1.519223435496e-08 2.159264919264e-08 2.594092947807e-05 2.941103112169e-05 -6.681959743391e-05 1.250000000000e-03 2.045307717181e-05 1.261526889611e-11 8.050901550641e-11 -5.493597805599e-11
402 3 1.037292377987e-02 5.023220831858e-04 1.244254626039e-02 -5.403206385380e-09 -2.433307400444e-08 5.638587442093e-09 -1.512345162798e-05 -7.142572107387e-06 6.118655709173e-06 1.250000000000e-03 2.045307717181e-05 2.609085754241e-11 6.710600160524e-11 -1.893201530065e-11
403 3 1.376428825885e-02 1.181210945492e-02 3.960909747679e-03 -1.036764516841e-07 -2.623524194143e-08 1.053714704083e-08 1.099947075856e-05 -2.941211388791e-05 6.357396091483e-06 1.250000000000e-03 2.045307717181e-05 3.051983252320e-10 6.238825166438e-11 -2.853813302940e-12
404 3 1.116258978136e-02 9.827710199883e-03 1.455036300798e-03 -1.895077921126e-08 2.187162014729e-08 8.627064592738e-09 -9.988752553350e-05 2.900962490043e-05 -3.796222474029e-05 1.250000000000e-03 2.045307717181e-05 1.014238796221e-10 -7.332373316792e-11 -7.798575194023e-12
405 3 3.489832163172e-03 1.375010949445e-02 8.278480970872e-03 -4.289444080852e-08 -2.218829392756e-08 3.063174333034e-08 4.167631058551e-06 -6.785767675296e-06 7.828177788895e-06 1.250000000000e-03 2.045307717181e-05 1.329102209500e-10 8.131001747346e-11 -8.893666160145e-11
406 3 8.306988250053e-03 1.533950400679e-02 1.108777757468e-02 -2.079948742979e-08 -9.175203858284e-09 2.307034829085e-09 -2.452890453032e-06 3.597464710738e-06 -5.534650906586e-06 1.250000000000e-03 2.045307717181e-05 4.469155816967e-11 2.489982833231e-11 -9.212998347679e-12
407 3 1.475531723187e-02 1.193599810553e-02 1.035544258230e-02 -1.216372356677e-08 -3.617322050270e-09 -4.082329773167e-09 -2.268051328239e-06 -6.381694552694e-05 1.041040991950e-05 1.250000000000e-03 2.045307717181e-05 6.861693016458e-11 3.533725167900e-11 4.967254594107e-11
408 3 1.522746667447e-02 6.741131538517e-03 3.235566754170e-03 -1.501461000453e-08 -4.983019452868e-08 2.335471059372e-08 -1.375215267849e-06 1.833639669730e-05 8.594357116424e-06 1.250000000000e-03 2.045307717181e-05 1.334242677818e-11 1.100721282796e-10 -5.096502409421e-11
409 3 5.192655961764e-03 5.747198919369e-03 1.120570570673e-03 -9.720160181199e-09 -9.561558529612e-10 -3.101572211506e-08 8.813344023864e-06 1.046653200447e-05 7.343428617744e-05 1.250000000000e-03 2.045307717181e-05 2.478669454054e-12 -1.962148151303e-11 9.339864707194e-11
410 3 8.899147068949e-03 1.055444665533e-02 1.038268385096e-02 -1.758603092970e-08 1.665911988699e-08 6.709046455515e-08 -3.888863587787e-05 -7.802573719451e-05 -3.569705499049e-06 1.250000000000e-03 2.045307717181e-05 5.127745848898e-11 -1.098713993510e-11 -1.516659737990e-10
411 3 1.028505762856e-03 1.429242237258e-02 2.838627652933e-03 -9.816637830827e-08 -6.172000371508e-08 1.148222631114e-08 3.715545454398e-05 2.103216271630e-07 -3.758637746323e-05 1.250000000000e-03 2.045307717181e-05 3.087017225807e-10 1.663094713175e-10 -4.040389793572e-11
412 3 3.614154707599e-03 9.659104099378e-03 1.174699757626e-03 -4.321671557050e-09 -1.357171302567e-08 8.345560646094e-09 1.311966347318e-05 -1.266367475103e-05 3.538282133903e-07 1.250000000000e-03 2.045307717181e-05 4.848403274552e-12 5.118918053667e-11 -2.320487731500e-11
413 3 6.593172753313e-03 7.918866767808e-03 4.627363077435e-03 -2.452630918656e-08 -1.070989148953e-09 1.264627083992e-08 1.962337976183e-05 -6.693465773105e-07 3.155702113233e-06 1.250000000000e-03 2.045307717181e-05 8.888354621357e-11 4.134091125111e-11 -1.992182651216e-11
414 3 4.266517326544e-03 3.397851753729e-03 9.076241616010e-03 -2.133759553937e-08 -1.428918349327e-08 2.486603349934e-08 -1.388879185260e-05 3.633221944598e-05 6.472680427087e-06 1.250000000000e-03 2.045307717181e-05 9.292060688727e-11 2.786598822554e-11 -4.797063803701e-11
415 3 3.950387643288e-03 4.141749350669e-03 1.296982947063e-02 -4.412118655628e-09 4.996315613582e-09 3.107681251054e-09 -1.405420663508e-06 -3.333649081376e-06 -5.761782503062e-06 1.250000000000e-03 2.045307717181e-05 2.804736472710e-11 3.194393691170e-12 -1.367634097150e-11
416 3 4.420293636445e-03 1.104545564615e-03 3.740959318853e-03 4.049084779123e-10 -2.669430959397e-07 3.119608729332e-08 -1.062743039246e-04 2.523242138197e-04 -9.081837823484e-06 1.250000000000e-03 2.045307717181e-05 -7.222827024583e-12 8.328421486492e-10 -1.026888737218e-10
417 3 1.115426517487e-02 4.516147893981e-03 3.216801991279e-03 -3.445456157859e-08 -1.813507281137e-08 7.543402275477e-09 -7.842016751351e-06 1.005901400122e-05 -4.212499082411e-06 1.250000000000e-03 2.045307717181e-05 1.013042999269e-10 4.072534296961e-11 -1.330655977542e-11
418 3 1.781950897055e-03 1.052117819451e-03 1.420679363388e-02 -6.043023517993e-09 1.302875261892e-09 7.341879823374e-09 1.167093613551e-06 2.466400742605e-06 5.657164545065e-07 1.250000000000e-03 2.045307717181e-05 1.311800249464e-11 9.345546276581e-12 -1.437747292090e-11
419 3 1.894855750998e-03 4.013502515829e-03 5.240585435238e-03 -4.756914905064e-08 -7.466335369848e-08 6.366525771170e-08 -3.527384761765e-05 -6.241397144957e-05 -1.110120933074e-05 1.250000000000e-03 2.045307717181e-05 1.394217383985e-10 2.479981244750e-10 -1.395173524355e-10
420 3 6.334204707555e-03 7.078903776755e-03 1.410610149321e-02 9.551231391821e-09 7.160615029945e-09 2.045178292541e-08 8.424141428457e-07 -2.383579827722e-05 1.190431324077e-05 1.250000000000e-03 2.045307717181e-05 -1.631873961680e-12 -3.536597482255e-11 -3.784456677420e-11
421 3 1.105937947936e-02 6.700697486077e-03 1.214125158344e-02 3.246965672796e-08 9.640201612477e-08 -6.320331041991e-08 -1.469622583186e-04 2.734041740472e-05 -3.881102239073e-05 1.250000000000e-03 2.045307717181e-05 -6.404368158427e-11 -1.775162830078e-10 1.398228958397e-10
422 3 2.688228333373e-03 1.168865384817e-02 4.709520997307e-03 -6.319114268224e-08 -4.047792626654e-08 2.389113770086e-08 1.892405712644e-05 3.935112057629e-06 8.602249599556e-06 1.250000000000e-03 2.045307717181e-05 1.639292307207e-10 1.050976597950e-10 -6.283779016225e-11
423 3 5.943005643633e-03 1.050892559462e-02 3.475315194309e-03 -9.279810040593e-08 -3.470011302807e-08 3.171089028813e-08 1.741371022224e-05 -5.192635824623e-05 2.754601384265e-05 1.250000000000e-03 2.045307717181e-05 2.617735905450e-10 8.020244679406e-11 -9.762553697311e-11
424 3 1.220405820967e-02 1.186930729871e-04 1.103066631625e-02 -1.714710352943e-08 -2.098249261024e-08 4.903688625756e-09 7.953011683121e-06 1.755140874763e-05 1.158954266882e-05 1.250000000000e-03 2.045307717181e-05 6.557182082334e-11 7.315874120269e-11 -1.999346954605e-11
425 3 1.557149358423e-03 9.482659678990e-03 1.274420521771e-02 -3.341868790502e-08 2.601071835174e-09 3.011354976710e-08 9.839683012591e-06 2.555981041723e-05 -1.606578006280e-06 1.250000000000e-03 2.045307717181e-05 6.810311972185e-11 -7.230474147329e-12 -7.430788392354e-11
426 3 5.987385642475e-03 5.439566637281e-03 8.268882701401e-03 1.110069059763e-10 -2.663030877074e-08 1.501991632418e-08 -8.671058580996e-06 -4.148703334135e-06 1.245137411207e-05 1.250000000000e-03 2.045307717181e-05 7.674712653833e-12 1.127012982208e-10 -4.142048605932e-11
427 3 7.194164703830e-03 1.365805005733e-02 9.888406348401e-03 -1.855328097966e-08 -2.467483023893e-08 1.440565406076e-08 5.634177687003e-06 2.609617987701e-05 3.226382134956e-05 1.250000000000e-03 2.045307717181e-05 6.149349569009e-11 8.814453921913e-11 -6.466543167129e-11
428 3 1.277928289973e-02 2.166285016565e-03 5.459542257153e-03 -5.258839829404e-08 -3.346098155150e-08 -6.144679955152e-09 1.585449667257e-07 -4.509495673045e-06 -2.420031389378e-05 1.250000000000e-03 2.045307717181e-05 1.463356802964e-10 7.685171962186e-11 2.404024652278e-11
429 3 1.192835004471e-02 1.356164771846e-02 7.275028865283e-03 -3.376401884975e-08 -3.868125482512e-08 4.356170349289e-08 4.699645538311e-06 1.232086649434e-05 -6.810061585866e-08 1.250000000000e-03 2.045307717181e-05 1.096459761789e-10 1.058303470180e-10 -1.270459085657e-10
430 3 6.710453459571e-05 7.844653680814e-03 1.179071957603e-02 -3.106283818220e-08 -5.311179661351e-09 4.489656353789e-08 4.366733311237e-05 3.442113177652e-05 6.467540404263e-05 1.250000000000e-03 2.045307717181e-05 7.943045845270e-11 2.666746411290e-11 -9.389212733976e-11
431 3 3.634137656601e-03 3.356262079839e-03 3.541891819178e-03 -1.610977348083e-08 -2.630682724639e-07 1.318696807945e-07 -2.712817609062e-04 -5.336133899863e-05 -2.231553739933e-04 1.250000000000e-03 2.045307717181e-05 2.473311995827e-11 8.094135686881e-10 -4.607938828391e-10
432 3 6.248989873185e-03 1.535638463317e-02 1.237645329243e-02 -1.408592739727e-08 4.287599494786e-09 1.027224912450e-08 -4.125643584093e-06 3.900727102082e-06 -3.780469792627e-06 1.250000000000e-03 2.045307717181e-05 5.474777028297e-11 3.757272160409e-12 -3.658335556225e-11
433 3 2.729309344773e-03 1.418181980611e-02 5.934885487203e-03 -4.075828498531e-08 -3.759479524730e-08 4.530825372629e-08 2.435157330870e-05 -2.226563755952e-05 -7.032666785516e-06 1.250000000000e-03 2.045307717181e-05 1.019599326316e-10 1.021250767762e-10 -1.475225036106e-10
434 3 1.531400866134e-02 3.215166925275e-03 4.154203702785e-03 -1.249960982520e-08 -6.580799775740e-08 8.121201753132e-09 -6.927571041423e-06 -1.213400879700e-05 -3.254145479335e-05 1.250000000000e-03 2.045307717181e-05 3.411913921332e-11 2.139205097991e-10 3.172123200276e-11
435 3 8.701620534236e-03 6.081253223537e-03 2.491013469224e-03 -1.989430453719e-08 1.011628002567e-07 -3.220337831960e-08 5.482966452309e-05 -2.120710118313e-05 -7.602610173285e-05 1.250000000000e-03 2.045307717181e-05 8.005580117706e-11 -2.900671165413e-10 1.151310200677e-10
436 3 4.882624782579e-03 1.276211406435e-03 6.225278425821e-03 -5.381608582304e-08 -5.590027723010e-08 6.113412904416e-08 -4.476111037946e-05 2.685588345428e-05 -5.193928482796e-05 1.250000000000e-03 2.045307717181e-05 1.504377528093e-10 2.078515009606e-10 -1.698951364992e-10
437 3 1.109286956873e-02 1.119585535390e-02 6.747453575902e-03 -4.329470791945e-08 -2.000379926564e-08 8.764483179706e-08 -6.912775611447e-06 3.117451792403e-05 1.926284299121e-05 1.250000000000e-03 2.045307717181e-05 1.651868276926e-10 8.135390727684e-11 -2.254219128607e-10
438 3 5.810606197873e-03 7.746430474231e-03 8.885373935999e-03 -2.562073433560e-08 -2.671830224887e-08 1.422554394439e-08 -2.151064953059e-06 4.345430568423e-07 1.292660123205e-05 1.250000000000e-03 2.045307717181e-05 8.793945485910e-11 8.725589373490e-11 1.511884388393e-13
439 3 9.999222111035e-04 1.094097958555e-02 7.665060803281e-03 -4.972586388996e-08 -2.625980889081e-08 6.320344720594e-09 1.090197269509e-05 -5.987867709590e-06 9.724903993928e-06 1.250000000000e-03 2.045307717181e-05 1.422090981209e-10 9.880087969317e-11 -2.206541595789e-11
440 3 1.452168659346e-02 3.245998973244e-03 1.174518332760e-02 -2.098291552776e-08 -6.393284256827e-09 1.533040233760e-08 5.771910143802e-06 -4.597540339461e-06 -1.476511935124e-05 1.250000000000e-03 2.045307717181e-05 6.762666006076e-11 2.649781353919e-11 -3.952526237103e-11
441 3 1.364438621134e-02 8.331442843626e-03 7.964056276956e-03 -2.920156643414e-08 -3.211768197579e-08 2.789500559139e-08 -1.441041668181e-06 5.515353095109e-05 1.329220005219e-05 1.250000000000e-03 2.045307717181e-05 9.611597865043e-11 8.300294029308e-11 -2.703003995417e-11
442 3 1.269051928849e-02 1.251919359337e-02 1.165086830282e-02 6.894391384863e-08 1.198823276478e-08 7.193879837229e-09 -1.772050056965e-05 2.348131941659e-06 1.491906046799e-04 1.250000000000e-03 2.045307717181e-05 -1.158034693795e-10 -5.154683638351e-11 -2.141606044403e-11
443 3 8.304473792762e-03 4.152896286091e-03 1.145400596255e-03 -2.315310699794e-09 1.260527692342e-07 -9.952600495174e-09 -1.035161989769e-04 -4.244454094955e-05 7.423107934290e-05 1.250000000000e-03 2.045307717181e-05 2.898430959925e-12 -4.176420473259e-10 2.897628615843e-11
444 3 1.075478538240e-02 1.539315652032e-03 7.384348077543e-03 -5.930131422253e-08 -4.984785991181e-08 -4.488195480528e-08 2.581240236750e-05 -5.122723184706e-05 1.560731747894e-05 1.250000000000e-03 2.045307717181e-05 1.725071219273e-10 1.460085010966e-10 1.080113389333e-10
445 3 6.712416941338e-03 1.269245606803e-02 2.832508245688e-03 -1.494322211435e-07 3.751749315214e-09 1.603593023132e-07 1.513805628669e-05 -1.485712340230e-04 6.683535732546e-05 1.250000000000e-03 2.045307717181e-05 4.751561756848e-10 4.521221965959e-12 -4.618885174120e-10
446 3 5.629752199927e-03 8.449308747007e-03 2.393219883171e-03 -2.124507255622e-08 -4.032833261082e-08 4.162456514055e-09 -1.869462614645e-06 -2.115082981948e-06 1.273689454083e-05 1.250000000000e-03 2.045307717181e-05 9.925013077257e-11 1.504265924568e-10 -2.371120704119e-11
447 3 1.177575819119e-02 2.213222571193e-03 3.002230111089e-03 -5.435649953602e-08 -3.349459748853e-08 -2.262416385657e-08 2.744221430500e-05 -4.023442437004e-05 2.590388550648e-06 1.250000000000e-03 2.045307717181e-05 1.373573599718e-10 1.211173088926e-10 6.951478998198e-11
448 3 1.340110148221e-02 1.144633612647e-02 7.361094486162e-03 -3.021583415184e-08 -1.350795763160e-08 3.959432736201e-08 -3.048271173448e-05 3.476708073702e-05 2.741680270293e-06 1.250000000000e-03 2.045307717181e-05 6.465807099844e-11 6.334061418740e-11 -8.828542177346e-11
449 3 5.309265339996e-04 1.151702132987e-03 8.654780266213e-03 -4.217435858485e-08 -1.606305346811e-08 2.667569959775e-08 -3.178485850497e-06 6.557104333018e-06 -4.844580814590e-06 1.250000000000e-03 2.045307717181e-05 1.081532819695e-10 6.676896393913e-11 -3.562639588342e-11
450 3 9.604628338610e-03 1.502767181877e-02 4.507411712044e-03 4.089242024674e-10 3.860715860524e-08 -1.372376620919e-07 1.033980061022e-04 -2.279157725294e-04 -7.881689035728e-05 1.250000000000e-03 2.045307717181e-05 -5.149878455890e-12 -1.326159782731e-10 4.161771535726e-10
451 3 1.375719232634e-02 8.539068531379e-03 2.843691114556e-03 -2.762615592241e-08 -3.537938700834e-08 1.603092348004e-08 -1.358943792592e-05 -3.708369055607e-06 -1.131748154234e-05 1.250000000000e-03 2.045307717181e-05 5.272835619126e-11 1.244805393562e-10 -1.158607047683e-12
452 3 8.842515410437e-03 1.044105602673e-02 6.855521084142e-03 -3.577049617269e-08 -1.214376152600e-08 6.874631012595e-08 2.104297238361e-05 -4.568006295307e-05 -2.309818266509e-05 1.250000000000e-03 2.045307717181e-05 8.414227043727e-11 5.626927005402e-11 -1.760975629769e-10
453 3 9.436975794037e-03 1.196215806913e-02 1.145437524321e-03 -2.227740341110e-08 1.019117227036e-07 -3.675674488513e-08 -8.013386376358e-05 -6.321860878370e-06 -2.177943454657e-05 1.250000000000e-03 2.045307717181e-05 6.711298958682e-11 -3.204432783628e-10 1.081198081597e-10
454 3 1.288602608155e-02 4.493393059882e-04 7.084175640689e-03 -5.022001995557e-08 -2.152070661396e-08 1.141945270272e-08 -1.248648327608e-05 -2.846688765757e-06 1.375505580238e-05 1.250000000000e-03 2.045307717181e-05 1.493915577437e-10 8.790700228544e-11 -2.855408519037e-11
455 3 1.233440732837e-02 5.242213888356e-03 1.180065063190e-03 -1.472879668239e-08 -1.148551599516e-08 8.660899609367e-09 8.478465953446e-06 -9.823192839021e-06 9.151088521742e-06 1.250000000000e-03 2.045307717181e-05 4.374120834188e-11 4.094417000945e-11 -2.521015308299e-11
456 3 9.323394167969e-05 1.419388060581e-02 9.051449922389e-03 -3.322172892661e-08 -1.314854520438e-09 9.212428072140e-09 1.103994485113e-05 -6.380480068141e-06 3.254071622858e-06 1.250000000000e-03 2.045307717181e-05 1.140412677520e-10 4.210541259873e-11 -1.246504794911e-11
457 3 1.009765692169e-03 6.097301425109e-03 1.326738771663e-02 3.696686434537e-09 -2.131423135645e-09 5.806610816166e-09 -1.633236099856e-06 -7.567422982076e-06 -1.302175671095e-05 1.250000000000e-03 2.045307717181e-05 4.924567106078e-12 2.053082173809e-11 -2.167782921987e-11
458 3 1.422379275367e-02 1.271581985499e-03 1.040612718460e-02 -3.588500359378e-08 -4.722372609764e-09 9.159954905047e-09 -3.749561111276e-06 -1.198458661092e-05 -2.046802945465e-06 1.250000000000e-03 2.045307717181e-05 1.147654105799e-10 -1.548396272852e-12 -5.086052477154e-11
459 3 2.758481253180e-03 1.301158122651e-02 1.830704017841e-03 -1.080005691412e-07 -2.691027996242e-08 1.492663538331e-08 -6.733642970364e-06 -9.060474525675e-06 3.262012816215e-05 1.250000000000e-03 2.045307717181e-05 3.651297663744e-10 9.856875791751e-11 -1.042619604964e-11
460 3 1.333763662398e-02 8.755173509280e-03 1.103897690007e-02 -1.047520337094e-08 -6.801632719425e-08 -1.994465104763e-08 -6.428015767905e-05 -7.039748160044e-05 -9.327966279921e-06 1.250000000000e-03 2.045307717181e-05 4.025119507164e-11 1.440787667678e-10 1.027909676031e-11
461 3 9.768758401709e-03 1.229037390656e-02 1.396509543548e-02 -3.398679289935e-08 -5.519331637040e-09 -1.069838715254e-08 4.339492151135e-05 2.759113563964e-05 -5.424107709487e-05 1.250000000000e-03 2.045307717181e-05 7.883366047731e-11 1.669647856980e-11 2.030744704496e-11
462 3 6.475101533690e-03 2.362920901589e-03 3.210083347709e-03 5.469010913480e-08 3.540245000554e-08 -2.705187702829e-07 -6.090601745398e-08 -1.188411249479e-04 -4.806963905561e-04 1.250000000000e-03 2.045307717181e-05 -1.939753646275e-10 -6.852317551120e-11 8.367209025635e-10
463 3 1.391670038944e-02 1.387759648524e-02 5.974702077682e-03 -6.511160144251e-08 -3.031216547528e-08 7.843856785370e-09 -1.313241254791e-05 1.006385894150e-05 1.243944850069e-05 1.250000000000e-03 2.045307717181e-05 1.698968184454e-10 6.686277981850e-11 -1.263445478372e-11
464 3 6.982682172639e-05 8.301050835955e-03 1.420477840732e-02 2.990792100139e-09 -2.396144699647e-08 2.384344822235e-08 -1.213701888982e-05 -7.850896669249e-07 3.028114080666e-05 1.250000000000e-03 2.045307717181e-05 -5.703621503773e-12 5.968726688766e-11 -5.339640450686e-11
465 3 7.384845278910e-03 1.492892815187e-02 6.419849280508e-03 -6.744212748283e-08 -3.804068392280e-09 4.339830645299e-08 -3.190640932526e-05 1.804467916470e-05 -1.392090617853e-05 1.250000000000e-03 2.045307717181e-05 2.055388025638e-10 7.395780498657e-12 -1.217768818483e-10
466 3 6.313087055229e-03 1.043355894098e-02 9.860550271991e-03 -5.508307671388e-08 -1.628835273345e-08 2.929938724268e-08 -9.848978461357e-07 -1.153981375726e-05 1.667789003646e-05 1.250000000000e-03 2.045307717181e-05 1.586251476514e-10 5.507891155959e-11 -5.283879856491e-11
467 3 4.385508278785e-04 6.228229689054e-03 5.550567286897e-03 -3.077849457108e-08 -3.961086955602e-08 1.885938529463e-08 -1.131328251702e-05 -3.079189519008e-05 -1.361682011093e-05 1.250000000000e-03 2.045307717181e-05 8.489150321635e-11 1.183881977603e-10 -4.897838355125e-11
468 3 8.094498947452e-03 1.808735287790e-03 1.480885697284e-03 7.775022418311e-07 1.591644659556e-07 -3.150461065774e-08 1.799893630247e-04 -5.671086627506e-04 6.921183242590e-04 1.250000000000e-03 2.045307717181e-05 -2.432552312791e-09 -4.707188882912e-10 9.538615771752e-11
469 3 1.445803389385e-02 6.147418108261e-03 8.071995368474e-03 -1.305145897344e-08 -3.559403289700e-08 6.355334459929e-10 -3.044809707830e-06 -1.292808698349e-06 -5.598652142451e-06 1.250000000000e-03 2.045307717181e-05 6.165583194508e-11 1.273440337083e-10 1.069596879731e-12
470 3 1.278609583855e-02 9.516957981154e-03 6.203651505123e-03 -5.021541387576e-08 -1.783778903588e-08 4.739558449511e-08 2.060739811084e-05 -2.296873969046e-05 -1.790246470992e-05 1.250000000000e-03 2.045307717181e-05 1.120931662738e-10 2.978430571182e-11 -1.239578688953e-10
471 3 1.264149851193e-03 2.396898949534e-03 6.818788447111e-03 -6.377898001408e-08 -2.990197839714e-08 4.155394840040e-08 6.583352674614e-06 1.144511093007e-05 6.363454623469e-06 1.250000000000e-03 2.045307717181e-05 2.170339915731e-10 1.095197819138e-10 -1.217075092091e-10
472 3 1.051756401539e-02 1.284071064323e-02 4.965634839491e-03 -1.068769634867e-07 1.032306090154e-08 8.116238242233e-08 -1.484933024245e-04 3.884881712542e-06 -6.453012047115e-06 1.250000000000e-03 2.045307717181e-05 3.244831723862e-10 1.166315285593e-11 -2.138553035069e-10
473 3 4.615311166938e-03 1.081602279641e-02 6.546642689281e-03 -5.682986539968e-08 -5.085480083464e-08 1.643471019193e-08 2.799963819057e-06 1.155124651884e-05 9.414948886604e-06 1.250000000000e-03 2.045307717181e-05 1.702562988683e-10 1.574555292888e-10 -2.280890875606e-11
474 3 1.311853161287e-02 5.820855713435e-03 3.699558752915e-03 -2.750541744917e-08 -2.963422511714e-08 2.261574405714e-08 5.573652396878e-06 -2.253165272507e-05 -1.308470175611e-05 1.250000000000e-03 2.045307717181e-05 1.255997167912e-10 9.382075229751e-11 -7.850853749218e-11
475 3 4.649837116021e-03 1.285536987483e-02 5.520187031190e-03 -5.469901682258e-08 -5.298784652637e-08 4.973683660831e-08 1.300181839181e-05 -1.532679091717e-05 -1.579855519256e-05 1.250000000000e-03 2.045307717181e-05 1.836410558049e-10 1.815367447783e-10 -1.140364426131e-10
476 3 5.908806306586e-03 3.438087381616e-03 1.074344794447e-02 2.195070844439e-09 4.374047963341e-09 8.436582576220e-09 -2.209426367535e-06 -7.887044389806e-06 -4.467774089376e-06 1.250000000000e-03 2.045307717181e-05 -3.339607334957e-11 -2.881899938123e-12 -3.946580065115e-11
477 3 5.100179873154e-03 1.357483751770e-02 1.187694483264e-03 -2.988961050811e-09 -5.386743067362e-08 -3.572199919993e-08 -7.317568286444e-05 -7.110621657045e-06 -2.473440553744e-04 1.250000000000e-03 2.045307717181e-05 5.756020493569e-12 1.668444860438e-10 1.077756865494e-10
478 3 5.750021241888e-04 1.511182697686e-02 5.039975594268e-03 -6.386064695109e-08 -5.526803572734e-08 2.223066911323e-08 -2.501100307074e-05 5.216253844162e-06 -1.895671643232e-05 1.250000000000e-03 2.045307717181e-05 1.777468095235e-10 1.754555610695e-10 -6.185063649597e-11
479 3 6.440543607253e-03 6.119983506142e-03 3.094502694660e-03 -1.743331568303e-09 6.661762190907e-08 -5.155419404910e-08 5.535809289714e-05 2.086452436842e-05 7.379598840044e-05 1.250000000000e-03 2.045307717181e-05 -1.474642192152e-11 -1.935327151303e-10 1.753317440106e-10
480 3 9.777153074728e-03 9.796601270619e-03 3.820324734063e-03 -3.766440755621e-08 4.869111293997e-08 2.078355891977e-08 3.356134879570e-05 2.683969433658e-05 -1.982496292766e-06 1.250000000000e-03 2.045307717181e-05 1.036247436087e-10 -1.093804282683e-10 -6.565379016139e-11
481 3 1.207213422380e-02 3.222901998865e-04 1.419369448490e-02 -1.073681393949e-08 -6.247346078683e-09 -1.061942184529e-09 -3.328616556885e-06 2.846570365229e-06 -5.525393816722e-06 1.250000000000e-03 2.045307717181e-05 3.467763198844e-11 2.434472674340e-11 1.175584697650e-11
482 3 7.731144053806e-03 8.471504427285e-03 1.012933911010e-02 -2.773039285985e-08 7.669299056176e-10 2.242069093383e-08 4.951129071553e-06 9.992938296994e-07 1.326499067572e-06 1.250000000000e-03 2.045307717181e-05 5.885570708146e-11 8.399552477751e-12 -6.023107732195e-11
483 3 1.266844841503e-02 2.754453487510e-03 7.968933807760e-03 -6.811360112225e-08 -3.194168003259e-08 2.384807574695e-08 8.334363221981e-06 5.986532943937e-06 -4.943471856425e-06 1.250000000000e-03 2.045307717181e-05 2.210940751144e-10 1.264111429295e-10 -3.880694753552e-11
484 3 1.264291885424e-02 1.503355584017e-02 2.890993137130e-03 -6.561920077843e-08 -4.934014643999e-08 -1.040939969466e-09 2.053140740514e-05 -1.613478282221e-05 1.894006954922e-05 1.250000000000e-03 2.045307717181e-05 1.854073715039e-10 1.679088498584e-10 -2.364317063458e-11
485 3 1.398498882838e-04 8.940943472374e-03 6.555355735698e-03 -3.511412934371e-08 -2.486453228220e-08 9.618832465032e-09 -7.535609686538e-06 -2.924898420010e-05 -5.564606875392e-06 1.250000000000e-03 2.045307717181e-05 9.371125037166e-11 9.104946030875e-11 -8.490286349308e-12
486 3 2.879117308622e-03 7.220557985857e-03 8.912661803715e-03 -3.204536677214e-08 -2.513045161304e-08 2.781344081585e-08 2.071813614440e-05 -1.345145214831e-06 1.542927860396e-05 1.250000000000e-03 2.045307717181e-05 9.150175944845e-11 1.106506846285e-10 -7.517043955035e-11
487 3 8.349248036627e-03 1.272656271076e-02 6.277132451621e-03 -2.793069452838e-08 -6.736254364960e-09 5.160200915020e-08 -2.237099852502e-05 2.727432173322e-05 2.840508493552e-05 1.250000000000e-03 2.045307717181e-05 7.425652954815e-11 3.456054648593e-11 -1.404719620105e-10
488 3 5.282309505643e-03 8.163256897758e-03 6.587886127625e-03 -3.205874759222e-08 -4.618156239781e-08 1.063516837534e-08 8.883852643652e-06 -1.813090323499e-07 1.089477005349e-05 1.250000000000e-03 2.045307717181e-05 1.003149521925e-10 1.527675435494e-10 -6.970746720673e-11
489 3 4.077039934911e-03 7.589003349259e-03 1.332465512680e-02 -4.905664499977e-09 -1.388138247467e-09 1.057896432382e-08 7.708944681475e-06 3.711519185923e-06 -1.092247693750e-06 1.250000000000e-03 2.045307717181e-05 5.526035026295e-12 5.124678028706e-11 1.195690201194e-11
490 3 9.701800925261e-03 5.825470552036e-03 4.627136465021e-03 -1.621730404422e-08 5.937560195344e-09 -1.676555587128e-09 -1.247427936130e-05 2.515357994481e-05 -1.802398936039e-06 1.250000000000e-03 2.045307717181e-05 6.619117866939e-11 1.378391017196e-11 1.573874872395e-12
491 3 6.127455310765e-03 1.118892902260e-02 1.135415843245e-03 -1.649336692870e-08 1.139808678630e-08 4.219278506810e-08 1.223908446909e-05 7.863750615861e-07 -4.650393923144e-05 1.250000000000e-03 2.045307717181e-05 5.182809439916e-11 -5.985933875220e-11 -1.485234485353e-10
492 3 2.749155234324e-03 6.076626490496e-03 4.486632603585e-03 2.016801652569e-08 -1.167843970354e-07 1.647755601813e-08 -5.474264637595e-06 3.911189825975e-05 -3.072151152560e-05 1.250000000000e-03 2.045307717181e-05 -5.736777500153e-11 3.877752666544e-10 -3.919660641164e-11
493 3 7.400407686066e-03 5.019405348500e-03 1.425456360175e-02 1.492942565538e-08 9.790286665311e-09 1.780484894678e-08 1.435685968495e-05 -1.735810565253e-05 -5.516450288159e-06 1.250000000000e-03 2.045307717181e-05 -2.738506788243e-11 -1.229832184294e-11 -3.258301480449e-11
494 3 7.729029950421e-03 4.787346793625e-03 5.587482784477e-03 -4.062651747866e-09 1.456097997329e-08 2.663394732277e-08 1.930590035391e-05 -1.620093448081e-05 -1.000288409131e-05 1.250000000000e-03 2.045307717181e-05 -1.993616382411e-12 -3.459378802658e-11 -6.647452483348e-11
495 3 1.161706465497e-02 7.396550864686e-04 1.086670701449e-03 -1.676632479444e-08 -4.226026436288e-09 -1.464157003196e-08 2.555741972471e-06 -1.685180363777e-05 -2.536423162630e-05 1.250000000000e-03 2.045307717181e-05 7.478041963513e-11 1.392539327073e-11 7.161529702821e-11
496 3 1.136492019043e-02 1.038529189571e-02 1.418923989882e-02 -4.284012824302e-08 -7.812452424008e-08 -1.117965200471e-07 -6.153292076856e-05 1.987609313051e-05 1.066756140272e-04 1.250000000000e-03 2.045307717181e-05 9.325390940103e-11 1.754247517265e-10 2.465566639935e-10
497 3 1.468293833359e-02 5.198474979743e-03 1.034944839635e-02 -4.473880834821e-09 -1.365558124039e-08 1.307521807737e-08 -1.268313372475e-05 1.659228643820e-05 -2.950117631033e-06 1.250000000000e-03 2.045307717181e-05 4.921111627016e-11 6.376642925097e-11 -5.014014327717e-11
498 3 1.145080669701e-02 6.911040491667e-03 6.114018620719e-03 -1.742086530767e-08 9.790486235493e-09 3.977788574784e-08 1.077837515590e-06 -8.530223357259e-06 2.847442763091e-06 1.250000000000e-03 2.045307717181e-05 6.468002153988e-11 7.055638238536e-12 -1.178824728228e-10
499 3 4.441308002780e-03 1.238693742375e-02 3.263394725244e-03 -1.075844995626e-07 -2.104109457285e-08 1.922451502638e-08 1.940235678026e-05 3.094977317157e-05 -1.880245396867e-05 1.250000000000e-03 2.045307717181e-05 2.894686102397e-10 8.397637626610e-11 -1.423593097686e-10
500 3 7.401613626298e-04 5.384154993860e-03 1.375684683312e-03 1.490297079360e-08 -2.670444927957e-08 4.669728719762e-08 -4.218816747593e-06 -3.992890725380e-05 6.385019692198e-06 1.250000000000e-03 2.045307717181e-05 -6.624334051792e-11 6.137924824546e-11 -1.270051679805e-10
