ITEM: TIMESTEP
300000
ITEM: NUMBER OF ATOMS
500
ITEM: BOX BOUNDS pp pp ff
0.0000000000000000e+00 1.5370634520482899e-02
0.0000000000000000e+00 1.5370634520482899e-02
0.0000000000000000e+00 1.5370634520482899e-02
ITEM: ATOMS id type x y z vx vy vz omegax omegay omegaz radius mass fx fy fz
1 1 4.712509176579e-03 2.484108252107e-04 1.739760869341e-03 -1.658302064602e+01 3.195053267247e+00 6.932027649162e+00 -4.320621304072e+03 -2.298380842979e+04 -8.546720656362e+03 7.500000000000e-04 4.417864669111e-06 1.658339601732e-02 -3.195125590095e-03 -6.932184561723e-03
2 1 5.478403657682e-03 4.991564562003e-03 1.405662167783e-02 -6.089310776023e+00 -1.327553250230e+01 -3.653131928842e+00 -1.798137477888e+04 8.027750683535e+03 7.667324647549e+02 7.500000000000e-04 4.417864669111e-06 6.089448612943e-03 1.327583300569e-02 3.653214620706e-03
3 1 1.459617237104e-02 1.403753394585e-02 1.483560024147e-02 3.483370400082e+01 -4.717580426900e+00 1.829674755491e+01 6.198079924874e+03 -2.042568903817e+04 -1.213583599447e+04 7.500000000000e-04 4.417864669111e-06 -2.831826296330e+00 3.538587843237e-01 -7.425963152505e+00
4 1 1.334294363239e-04 1.011724179115e-03 1.340201207242e-02 2.743773718737e+00 -1.934905057195e+01 6.434753563932e+00 -5.043891971281e+03 -6.798487976041e+03 -1.905305144698e+04 7.500000000000e-04 4.417864669111e-06 -2.743835826475e-03 1.934948855478e-02 -6.434899220255e-03
5 1 1.501454692348e-03 8.088216878152e-03 1.445343485702e-02 -1.197521313919e+01 -1.484117614769e+01 -3.681160842289e+00 -1.522851557528e+04 1.666064515492e+04 -1.542656939836e+04 7.500000000000e-04 4.417864669111e-06 1.197548420870e-02 1.484151209080e-02 3.681244168612e-03
6 1 5.695110177615e-03 1.071992874446e-02 9.511647647971e-03 1.922335441669e+01 -6.183489582392e+01 -3.710936099989e+00 1.805078988417e+04 -5.048400174869e+03 -1.129417017907e+04 7.500000000000e-04 4.417864669111e-06 -1.922378955428e-02 6.183629551133e-02 3.711020100301e-03
7 1 6.738194589798e-03 1.234657832804e-02 1.642610835998e-03 5.328793756664e+00 -1.094091236367e+01 1.713955118224e+01 -1.601576053669e+04 -1.458521238273e+04 2.346783871220e+04 7.500000000000e-04 4.417864669111e-06 -5.328914378611e-03 1.094116002087e-02 -1.713993915110e-02
8 1 1.967432524032e-03 5.495624673489e-03 1.269173390732e-02 -4.739021104702e+00 2.989458702062e+01 -1.303476781962e+01 -7.080473480134e+03 6.550307834803e+03 1.166603958351e+04 7.500000000000e-04 4.417864669111e-06 2.171523820712e+00 -1.395567319101e+01 1.986548410628e+01
9 1 5.055136737542e-03 5.828191032080e-03 1.289908885846e-02 -1.152874567136e+01 1.472018233708e+01 -1.082916775450e+01 6.163356649580e+03 4.223275756961e+03 1.571779329571e+04 7.500000000000e-04 4.417864669111e-06 3.115102816615e+01 1.756859622722e+01 1.524646557562e+00
10 1 1.983799502263e-03 5.736892341130e-03 1.223574564971e-02 -2.892865521747e+00 1.611702255316e+01 -9.664724167839e+00 1.162598708582e+04 -1.508988909725e+03 1.262441335834e+04 7.500000000000e-04 4.417864669111e-06 -2.163891761331e+00 1.390966053993e+01 -1.984278410047e+01
11 1 9.690080652243e-04 6.051413225016e-03 1.227638787746e-02 1.269231040378e+01 7.718623203896e+00 -2.909003218285e+01 -6.307718295243e+03 5.285341865374e+03 -6.241729576190e+03 7.500000000000e-04 4.417864669111e-06 -1.269259770542e-02 -7.718797921740e-03 2.909069066139e-02
12 1 3.383564386484e-03 6.344867748583e-03 2.315843823607e-03 -2.377833747586e+01 1.370114788355e+01 2.414567257811e+01 1.301301580713e+04 -4.187307729040e+02 3.840200814009e+02 7.500000000000e-04 4.417864669111e-06 2.377887571950e-02 -1.370145802112e-02 -2.414621913671e-02
13 1 8.548353980003e-03 6.926524390845e-03 5.779144102055e-03 1.180565600259e-01 1.795019714626e+00 7.569806056364e+00 -7.582641050484e+03 -1.162910196830e+04 -2.138614918616e+04 7.500000000000e-04 4.417864669111e-06 -1.180592323402e-04 -1.795060346481e-03 -7.569977405601e-03
14 1 2.070865950919e-03 9.332606628830e-03 6.109561298672e-03 5.095481199562e+01 3.920023702772e+00 4.889250841045e+00 -1.125279620589e+03 1.920228939770e+03 4.817037042495e+03 7.500000000000e-04 4.417864669111e-06 -5.095596540274e-02 -3.920112435966e-03 -4.889361513550e-03
15 1 3.726643175400e-03 1.221464358325e-02 1.462350565312e-02 -2.840560898331e+00 -1.854316793352e+01 2.615017566939e+00 2.667696693950e+03 -8.479176395234e+03 -7.494492113057e+03 7.500000000000e-04 4.417864669111e-06 -3.998740389150e-02 -7.714617166505e-02 -2.122888244546e-01
16 1 1.384289336568e-02 5.012517080090e-03 6.840987652062e-03 -9.082938094392e+00 1.309331932950e+00 -1.893024489270e+01 9.795472281564e+03 5.106940053073e+03 -5.813510087341e+03 7.500000000000e-04 4.417864669111e-06 9.083143694708e-03 -1.309361570833e-03 1.893067339549e-02
17 1 3.752891351846e-03 2.563958122113e-03 7.281510189746e-04 -1.107512387498e+01 4.085631166912e+00 1.293667061097e+00 -3.213469849110e+02 -1.408029442510e+04 -4.756865601119e+03 7.500000000000e-04 4.417864669111e-06 1.521082536300e-02 -3.667733308663e-02 -6.699955480494e-02
18 1 6.884960908140e-03 1.074892001213e-03 1.028782323649e-02 1.999897240459e+01 3.516062578612e+00 2.326200396720e+01 1.626162474747e+04 6.209495555411e+03 3.354567954831e+03 7.500000000000e-04 4.417864669111e-06 -1.999942509897e-02 -3.516142167790e-03 -2.326253052318e-02
19 1 8.981029729344e-03 5.267637862037e-03 1.461333418857e-02 1.321776485225e+01 6.244393475344e-01 -1.785668475570e+00 8.172801267973e+02 -1.768888820861e+04 -9.753876936128e+03 7.500000000000e-04 4.417864669111e-06 -1.321806404802e-02 -6.244534822698e-04 1.785708895751e-03
20 1 1.210074208729e-02 3.914918600400e-04 1.663217735806e-03 -4.609488048116e+01 2.340883160962e+01 -2.107953657298e+01 2.514557799648e+04 1.591721757507e+03 1.601862329425e+04 7.500000000000e-04 4.417864669111e-06 4.609592387944e-02 -2.340936148918e-02 2.108001372689e-02
21 1 1.137307585653e-02 2.769767550356e-03 4.416337320468e-03 -2.234499346200e+01 -6.761565345860e-01 1.108251650602e+01 -1.654948183916e+03 1.803551110948e+04 -1.628254051775e+03 7.500000000000e-04 4.417864669111e-06 2.234549926064e-02 6.761718399856e-04 -1.108276736856e-02
22 1 5.236598990830e-03 8.977520449875e-03 4.140572715732e-04 4.791148356276e+00 1.407075046382e+01 -2.274015148585e+01 -1.988616578177e+04 6.890399608787e+03 -1.142925746314e+04 7.500000000000e-04 4.417864669111e-06 -5.175632304587e-01 -1.157938343990e+00 1.211664888351e+01
23 1 1.189857330059e-02 5.892044449508e-03 8.243550590642e-03 4.083734710225e+01 2.688691670198e+01 -3.532127910897e+00 1.755901903139e+04 -1.055548092027e+04 2.140907769783e+04 7.500000000000e-04 4.417864669111e-06 -4.083827149162e-02 -2.688752531105e-02 3.532207863728e-03
24 1 1.796660361883e-03 1.462312684986e-02 1.307594062782e-02 -3.263452503428e+00 1.162209545820e+01 -7.451243549692e+00 -9.062162592685e+03 6.035403093042e+03 6.000666117250e+03 7.500000000000e-04 4.417864669111e-06 3.263526374554e-03 -1.162235853458e-02 7.451412215162e-03
25 1 1.568753237296e-03 1.018074466492e-03 3.428140561623e-03 -1.635210227595e+01 3.983363401706e+00 -8.433945372909e+00 -2.005109191674e+04 -3.218240866461e+03 8.400778972310e+03 7.500000000000e-04 4.417864669111e-06 1.635247242020e-02 -3.983453568650e-03 8.434136282702e-03
26 1 6.404401534523e-03 1.073986613170e-02 1.650641602974e-03 1.632833200226e+01 -3.038731252250e+00 -1.063623078027e+01 3.404401673385e+03 1.833196647056e+02 -4.617321025096e+03 7.500000000000e-04 4.417864669111e-06 -1.632870160845e-02 3.038800036612e-03 1.063647154074e-02
27 1 3.741128740232e-03 2.545366531439e-04 9.106699546762e-03 1.614159727995e+01 -1.435301822410e+01 2.486075360285e+01 2.345707139206e+04 -1.109466521180e+02 -6.954240989511e+03 7.500000000000e-04 4.417864669111e-06 -1.614196265925e-02 1.435334311733e-02 -2.486131634793e-02
28 1 4.581577851132e-03 9.413602611601e-03 6.531763442473e-03 1.836554588737e+01 -2.548280194714e+01 -1.999767544132e+01 -2.438264251325e+03 4.367307928350e+03 1.686190741392e+03 7.500000000000e-04 4.417864669111e-06 -1.836596160771e-02 2.548337877284e-02 1.999812810635e-02
29 1 6.528927006693e-03 8.105601856503e-03 1.051176462710e-02 1.497133862977e+01 3.240729152441e+01 -2.729592088793e+01 3.083447914512e+03 -7.118412303749e+03 -1.296501694101e+03 7.500000000000e-04 4.417864669111e-06 -1.497167751922e-02 -3.240802509204e-02 2.729653875517e-02
30 1 8.661923231484e-03 1.797867526979e-03 9.603922653476e-03 -6.154288689656e+00 6.648525710907e+00 -1.789054524407e+01 -8.006639444540e+03 -7.972291487676e+02 1.679294007464e+02 7.500000000000e-04 4.417864669111e-06 6.154427997409e-03 -6.648676206151e-03 1.789095021234e-02
31 1 1.482876964945e-02 7.504543839563e-03 4.571190994511e-03 -2.362093742893e+01 2.599998493721e+01 1.100606165868e+01 -1.284950156723e+03 9.038052691697e+03 -9.609728052101e+03 7.500000000000e-04 4.417864669111e-06 2.362147210969e-02 -2.600057346981e-02 -1.100631079059e-02
32 1 2.189622361492e-03 3.298284862665e-03 1.185504342065e-02 1.086208701118e+00 8.660333313501e+00 -5.079457372044e+00 1.320076038479e+04 -1.610132007050e+03 -4.713642690750e+03 7.500000000000e-04 4.417864669111e-06 -1.086233288410e-03 -8.660529347785e-03 5.079572350042e-03
33 1 1.712720764808e-03 1.047915518274e-02 4.749444180502e-04 -1.329180524262e+01 2.891145180997e+01 -2.567343295426e+00 -1.698603959854e+04 -2.241092610372e+04 6.864696162384e+03 7.500000000000e-04 4.417864669111e-06 -5.005578779871e-01 -2.594504774861e+00 5.235657328943e+00
34 1 4.780510360882e-03 6.492257782266e-03 1.149807628944e-02 -3.948713430461e+00 -1.880111364616e+00 5.669060378259e+00 -2.772949381450e+03 2.089333484928e+04 -3.702380574358e+03 7.500000000000e-04 4.417864669111e-06 3.948802813072e-03 1.880153922595e-03 -5.669188702441e-03
35 1 4.294940114811e-03 3.662920710617e-03 8.372483344682e-03 1.778318608078e+01 2.714910755135e+01 2.910818997319e+01 -1.698840023468e+03 1.972201180074e+04 -1.430522343412e+04 7.500000000000e-04 4.417864669111e-06 -1.778358861888e-02 -2.714972209535e-02 -2.910884886275e-02
36 1 1.279330958218e-02 1.574515149995e-03 8.359869391563e-03 3.608624841083e+00 1.487284232187e+01 -5.239873782308e+00 -2.969609329744e+03 1.232883643127e+04 2.087781023937e+04 7.500000000000e-04 4.417864669111e-06 -3.608706525489e-03 -1.487317898178e-02 5.239992391473e-03
37 1 1.510005115773e-02 5.287359016640e-03 1.392073267287e-03 6.112814393399e+00 5.129713238400e+00 3.879944261389e+00 -7.132365205529e+03 8.450839635900e+03 -8.944283954540e+03 7.500000000000e-04 4.417864669111e-06 -6.112952762345e-03 -5.129829353984e-03 -3.880032087350e-03
38 1 8.000839108533e-03 1.301484239558e-02 1.131340252985e-02 -2.487328000607e+01 -1.354656569618e+01 9.157844685572e+00 -1.295702676232e+04 -1.278644230502e+04 -1.912377403122e+04 7.500000000000e-04 4.417864669111e-06 2.487384303470e-02 1.354687233464e-02 -9.158051981464e-03
39 1 2.274418834155e-03 1.203867678287e-02 1.032161466540e-02 2.685378496418e+01 1.078583639534e+01 -1.886802371624e+01 1.212585282040e+04 -1.510738728940e+03 8.833302091370e+03 7.500000000000e-04 4.417864669111e-06 -2.685439282328e-02 -1.078608054226e-02 1.886845081060e-02
40 1 1.112502530164e-02 1.022415233803e-02 1.472158499463e-02 3.419830034610e+00 6.494975832753e+00 6.222640837952e+00 8.668309605072e+03 -4.457170783609e+03 3.640410713690e+03 7.500000000000e-04 4.417864669111e-06 -3.749199795842e-01 -9.430657581686e-03 -2.217785141558e+00
41 1 7.599443114645e-03 6.768663689246e-03 1.145788007877e-02 -1.024402807248e+00 -2.853907644481e+00 9.324819009688e+00 4.839955089874e+03 -7.801453541172e+03 6.412435331163e+03 7.500000000000e-04 4.417864669111e-06 1.024425995509e-03 2.853972245198e-03 -9.325030085192e-03
42 1 6.457709115809e-03 1.306639112754e-02 1.649443836113e-03 -1.904093932118e+01 3.023225097079e+01 1.000201121941e+01 9.464546626608e+03 -3.836198307115e+04 -1.077547332858e+04 7.500000000000e-04 4.417864669111e-06 1.904137032963e-02 -3.023293530445e-02 -1.000223762376e-02
43 1 2.254783170172e-03 4.512251247992e-03 9.745884099052e-03 -3.187043925368e+00 4.142333001367e+00 5.858980723718e+00 -1.539685411073e+04 -1.176473104464e+04 -1.518187351641e+03 7.500000000000e-04 4.417864669111e-06 3.187116066918e-03 -4.142426766728e-03 -5.859113346914e-03
44 1 1.350364010708e-02 1.449323409655e-03 7.947402370633e-04 -1.821096019838e+01 1.670931407044e+01 -7.187506277943e+00 -3.668070034468e+02 -6.002471652262e+03 2.892230256880e+02 7.500000000000e-04 4.417864669111e-06 1.821137241953e-02 -1.670969230051e-02 7.187668973488e-03
45 1 7.521300050378e-03 9.734386217672e-03 1.174457271070e-03 1.403038176389e+01 1.029467539623e+01 2.361210254636e+00 -5.082317880568e+03 4.937483642474e+03 3.238193222542e+03 7.500000000000e-04 4.417864669111e-06 -1.403069935396e-02 -1.029490842529e-02 -2.361263702713e-03
46 1 2.595734112213e-03 6.561129711553e-03 1.353838848954e-02 3.178392268237e+01 -4.394969124454e+00 -5.368323044367e+00 -1.015580196916e+04 -1.891534775141e+04 1.223326087011e+04 7.500000000000e-04 4.417864669111e-06 -3.178464213950e-02 4.395068608456e-03 5.368444561094e-03
47 1 1.517370874899e-02 4.011132770063e-03 9.737036192016e-03 -2.716789141088e+00 -6.838425520610e+00 3.869612506399e+00 -4.770946230912e+03 1.175718862969e+04 3.291886858259e+03 7.500000000000e-04 4.417864669111e-06 2.716850638007e-03 6.838580314404e-03 -3.869700098492e-03
48 1 1.013854540879e-02 1.348137339185e-02 1.052068330360e-03 -2.990143032815e+00 -1.776501464953e+01 9.341702043003e+00 2.403689348121e+04 -4.014470107330e+03 2.786021515464e+04 7.500000000000e-04 4.417864669111e-06 2.990210717340e-03 1.776541677631e-02 -9.341913500669e-03
49 1 1.519698042354e-02 5.493220130080e-03 1.402632847485e-02 1.244161590449e+01 -1.591230299511e+01 -6.897844579663e+00 -1.883094605734e+04 -1.417201458279e+04 -2.765102792768e+03 7.500000000000e-04 4.417864669111e-06 -1.244189753144e-02 1.591266318413e-02 6.898000718459e-03
50 1 1.122268031517e-02 9.098252798605e-03 6.228505274758e-03 -2.064022177168e+01 -2.348256014789e+01 9.843499184922e+00 -5.486279128237e+03 2.669965251994e+04 -2.005335056236e+03 7.500000000000e-04 4.417864669111e-06 2.064068898130e-02 2.348309169635e-02 -9.843722001209e-03
51 1 1.496095168701e-02 7.380017992028e-03 1.561930664731e-03 2.331648232115e+01 1.479671539099e+00 3.989500660695e+00 -2.176384879746e+03 3.278817590968e+04 -1.653557729406e+04 7.500000000000e-04 4.417864669111e-06 -2.331701011029e-02 -1.479705032770e-03 -3.989590966562e-03
52 1 9.651008216650e-03 1.016275482258e-02 1.301218893442e-02 2.563769747412e+01 1.738198737819e+00 -2.848424908319e+00 -6.904913294677e+03 -4.247056515112e+03 4.991740524068e+02 7.500000000000e-04 4.417864669111e-06 -2.563827780601e-02 -1.738238083481e-03 2.848489384929e-03
53 1 8.564246027254e-04 1.386031583060e-02 1.139618340118e-02 1.966614559865e+01 2.870385630086e+00 1.894778249503e+01 -7.645068145128e+03 1.889924982754e+04 -1.824739087706e+04 7.500000000000e-04 4.417864669111e-06 -1.966659075920e-02 -2.870450603797e-03 -1.894821139480e-02
54 1 2.263892694683e-03 1.532892958610e-02 2.068391712983e-03 8.812525776001e+00 -1.725620272223e+01 -2.200446252668e+01 -3.180416322442e+04 -2.580041565239e+04 4.776632059221e+03 7.500000000000e-04 4.417864669111e-06 -8.812725255295e-03 1.725659333160e-02 2.200496061710e-02
55 1 1.400590681412e-02 1.524943113799e-02 7.300071236198e-03 -3.624074624787e+00 -4.041307769311e+00 6.374443020757e+00 -8.208037622778e+03 -1.135647617025e+04 9.228040588108e+03 7.500000000000e-04 4.417864669111e-06 3.624156658912e-03 4.041399247877e-03 -6.374587311897e-03
56 1 3.919050555738e-03 2.904281157754e-03 6.673760048500e-03 1.911627523171e+01 -2.513895510791e+00 5.013425436226e+01 -2.093974796670e+04 -1.258309560432e+04 -1.807101476925e+04 7.500000000000e-04 4.417864669111e-06 -1.911670794546e-02 2.513952415033e-03 -5.013538919533e-02
57 1 7.267119050685e-03 9.789966208226e-03 1.447932653315e-02 1.912986088731e+01 -1.043398206009e+01 -3.436498608788e+00 -1.717019726752e+04 -1.693716843671e+04 -4.815899404467e+03 7.500000000000e-04 4.417864669111e-06 -1.913029390859e-02 1.043421824248e-02 3.436576396965e-03
58 1 1.223482374410e-02 4.728050904398e-03 1.414246233161e-02 5.459857590242e+01 -4.047372530565e+00 -2.247824766003e+00 -1.035181090503e+04 -1.035010979684e+04 1.100376914199e+04 7.500000000000e-04 4.417864669111e-06 -5.459981178935e-02 4.047464146413e-03 2.247875647499e-03
59 1 1.407622736960e-02 1.001492029713e-02 7.566223059409e-03 1.994029986709e+01 2.580083379325e+01 9.944579907410e+00 -1.924876726457e+04 1.102595623473e+04 -1.112234502348e+04 7.500000000000e-04 4.417864669111e-06 -1.994075123336e-02 -2.580141781788e-02 -9.944805011748e-03
60 1 8.611187746651e-03 4.480278736953e-03 1.192713205609e-02 -2.617164729626e+01 -2.778410852765e+00 3.295782884358e+00 5.749596089870e+03 -3.305210708773e+03 1.492289966608e+04 7.500000000000e-04 4.417864669111e-06 -1.044113950164e+01 1.384232065544e+01 1.514044197076e+01
61 1 6.519226455860e-03 6.990206652711e-03 1.021809428750e-02 -2.956788188142e+01 5.664812354962e+00 -3.362296979787e+01 1.055893995102e+03 -2.212116570707e+04 -1.394907240108e+04 7.500000000000e-04 4.417864669111e-06 2.956855117651e-02 -5.664940582986e-03 3.362373088344e-02
62 1 3.289842842118e-03 5.347100337037e-03 5.259025596670e-03 5.331154863179e+00 1.093225296255e+01 -4.193185812215e+00 -1.673412572798e+03 3.645629054421e+03 -4.288861313199e+03 7.500000000000e-04 4.417864669111e-06 -5.331275538571e-03 -1.093250042374e-02 4.193280728675e-03
63 1 1.087808902801e-02 1.262316151233e-02 1.192546738516e-03 -7.335841862108e+00 -1.624508852190e+01 4.471898369600e+00 2.230936995716e+04 -1.013144808683e+04 5.645261788589e+03 7.500000000000e-04 4.417864669111e-06 7.336007915359e-03 1.624545624381e-02 -4.471999594964e-03
64 1 1.414042003417e-02 4.660333490828e-03 1.390691327354e-02 -1.228152246056e+01 2.082139744321e+01 3.838503343128e+00 -3.858970847328e+03 9.908266250938e+03 7.716523317640e+03 7.500000000000e-04 4.417864669111e-06 1.228180046365e-02 -2.082186875391e-02 -3.838590231037e-03
65 1 1.382422035068e-02 1.376656967578e-02 1.439550280723e-02 -1.102463991353e+01 5.003471836265e+00 -7.721610745396e+00 2.655697421967e+04 8.094094887232e+03 4.394719674957e+03 7.500000000000e-04 4.417864669111e-06 1.102488946598e-02 -5.003585094263e-03 7.721785530866e-03
66 1 2.623535493166e-03 9.769494816509e-03 9.237741250439e-04 -3.451454819668e+01 -6.216798548515e+00 3.931828942751e+00 -4.470065521560e+03 -2.234476840404e+04 2.440955439312e+04 7.500000000000e-04 4.417864669111e-06 3.451532946392e-02 6.216939271233e-03 -3.931917943167e-03
67 1 1.235564923036e-02 5.365867861973e-04 9.190478983855e-03 -2.589211908826e+01 6.660142414799e+00 -2.162179132704e+01 3.794789647675e+03 2.224515879541e+03 3.615609351256e+03 7.500000000000e-04 4.417864669111e-06 2.589270517921e-02 -6.660293172997e-03 2.162228075536e-02
68 1 2.716345486810e-03 1.154938788191e-02 2.606146504718e-03 8.049818206201e+00 -1.564326481615e+01 -1.832227947438e+00 -8.374073501701e+03 -1.874218173857e+04 -1.328814269318e+04 7.500000000000e-04 4.417864669111e-06 -8.050000420937e-03 1.564361891525e-02 1.832269421533e-03
69 1 9.638226447374e-03 7.086356643935e-04 1.276680331287e-03 -1.174773054679e+01 -4.807523597266e+00 2.420601455845e+00 -5.249932259814e+02 -1.369122298323e+04 2.279003689857e+03 7.500000000000e-04 4.417864669111e-06 1.174799646703e-02 4.807632419803e-03 -2.420656248294e-03
70 1 3.932322993089e-03 9.509165549283e-03 8.802747179814e-03 -7.659122941851e+00 -3.620543096342e+01 -1.623753690154e+01 1.163692823498e+03 1.153744751894e+04 3.346090753759e+03 7.500000000000e-04 4.417864669111e-06 7.659296312855e-03 3.620625050529e-02 1.623790445251e-02
71 1 8.335568731148e-03 1.110702141583e-02 7.175694655819e-04 1.049118010868e+01 7.876799755888e+00 1.905449137511e+00 -3.586791225604e+02 -2.884078776741e+03 1.643204357206e+04 7.500000000000e-04 4.417864669111e-06 -4.824292583254e-02 -3.056151701069e-02 -8.999101168222e-02
72 1 1.349791772732e-02 1.145846644744e-02 2.287180410484e-03 3.083070159092e+01 2.177074151679e+01 3.267051721821e+01 1.390900029045e+04 1.086570624496e+04 6.024841307847e+03 7.500000000000e-04 4.417864669111e-06 -3.083139947104e-02 -2.177123431673e-02 -3.267125674418e-02
73 1 1.405674195111e-02 6.414466820452e-03 1.447913649906e-02 -1.089796353319e+01 -1.406893491107e+01 -4.354059265029e+00 -1.901412500785e+04 1.484744446932e+04 1.075236090990e+04 7.500000000000e-04 4.417864669111e-06 1.089821021821e-02 1.406925337382e-02 4.354157823001e-03
74 1 6.696688081848e-03 5.532893562136e-03 1.280908378600e-02 1.374521781877e+01 2.001113245711e+01 -2.537080391794e+01 -5.837510696682e+03 1.304999221434e+03 -3.221011091469e+03 7.500000000000e-04 4.417864669111e-06 -1.374552895390e-02 -2.001158542674e-02 2.537137820846e-02
75 1 9.354284828522e-03 4.471652067078e-03 1.422831260993e-02 1.915282217845e+01 -1.138841998095e+01 1.635900868968e+00 -9.976960419970e+03 1.262801640126e+04 1.154323124961e+04 7.500000000000e-04 4.417864669111e-06 -1.915325571947e-02 1.138867776788e-02 -1.635937899027e-03
76 1 1.075652733361e-02 3.713211244031e-03 4.046887893637e-03 8.610839473259e+00 -8.918103497444e+00 -1.196057807219e+01 1.144062100621e+04 1.051135589127e+04 1.235676399687e+03 7.500000000000e-04 4.417864669111e-06 -8.611034387205e-03 8.918305366583e-03 1.196084881043e-02
77 1 7.259948280548e-03 1.129797334531e-02 1.415034562031e-02 -2.136349999832e+00 2.150555638267e+01 -6.079246135667e+00 2.934774214748e+04 2.936074437115e+03 -7.538721992726e+03 7.500000000000e-04 4.417864669111e-06 2.136398357999e-03 -2.150604317990e-02 6.079383744765e-03
78 1 1.424382028048e-02 8.682942449775e-03 8.230425550113e-04 -1.646264058695e+01 -9.249942460841e+00 1.727131307930e+00 1.238558451631e+04 -2.224687217773e+04 -7.853455505617e+03 7.500000000000e-04 4.417864669111e-06 1.646301323334e-02 9.250151841448e-03 -1.727170403071e-03
79 1 6.023688022407e-03 1.367223893626e-02 1.477729193431e-02 -2.630642670483e+01 3.724263682870e+01 -8.324944464508e+00 3.701989142687e+03 1.289715505641e+04 4.518692876123e+03 7.500000000000e-04 4.417864669111e-06 6.956793873499e-02 -1.269777662489e-01 -1.909108985477e-01
80 1 1.118894198816e-02 2.639680747416e-04 1.190116185874e-02 -9.153222140148e+00 -4.068411001050e+01 7.639604478262e+00 -2.537785330655e+02 -2.011826657343e+04 1.070422884270e+04 7.500000000000e-04 4.417864669111e-06 9.153429331404e-03 4.068503093122e-02 -7.639777407448e-03
81 1 2.161219813831e-03 4.403169073004e-04 1.052290645118e-03 1.499278822707e+01 2.852764654147e+01 4.745280759240e+00 -2.722089579362e+04 5.724696316910e+03 -9.621351997471e+03 7.500000000000e-04 4.417864669111e-06 -1.499312760206e-02 -2.852829228991e-02 -4.745388172856e-03
82 1 3.412363567526e-03 1.471679338445e-03 7.614176650020e-04 3.379655284037e+00 5.129513753669e+00 8.248141896539e+00 -6.932188182128e+03 4.464636977549e+03 -5.871476907088e+03 7.500000000000e-04 4.417864669111e-06 -3.379731785515e-03 -5.129629864737e-03 -8.248328600506e-03
83 1 3.741496531874e-03 3.351216843058e-04 4.095413469617e-03 1.003528400940e+01 -5.333670427032e+00 -1.443311645433e+01 4.933710465211e+03 1.129002893172e+04 1.340386110670e+04 7.500000000000e-04 4.417864669111e-06 -1.003551116691e-02 5.333791159366e-03 1.443344316065e-02
84 1 9.230431207219e-03 6.140383170429e-05 7.945857256850e-03 -3.379748891306e+01 3.991658652551e+01 -4.408253344400e+00 -9.223318881884e+03 -1.930812662998e+04 -1.059360318423e+04 7.500000000000e-04 4.417864669111e-06 3.379825394903e-02 -3.991749007265e-02 4.408353129102e-03
85 1 1.402809003021e-02 4.668639618905e-03 4.001926349407e-03 7.545859636080e+00 5.960855940585e+00 -5.063808629792e+00 -1.480420288775e+04 1.123631106414e+04 -6.785022680024e+03 7.500000000000e-04 4.417864669111e-06 -7.546030443269e-03 -5.960990869817e-03 5.063923253567e-03
86 1 1.392659448404e-03 9.064081096017e-03 6.290836880825e-03 1.029236403553e+01 -2.130323745476e+01 2.074154445126e+01 1.328350103007e+04 4.670800913723e+03 7.492892555335e+03 7.500000000000e-04 4.417864669111e-06 -1.029259701226e-02 2.130371967233e-02 -2.074201395441e-02
87 1 7.620952655771e-04 6.920326147398e-03 6.374312202531e-04 4.712651586407e+00 -2.127010683279e+01 1.401773591326e+01 2.832047504756e+04 6.295860155363e+03 -1.039899251654e+04 7.500000000000e-04 4.417864669111e-06 -2.773545891992e-03 2.435949592870e-02 -1.564785544071e+00
88 1 7.671550878736e-03 6.654575400400e-03 1.316466834953e-02 3.266437335599e+01 3.126530689411e+00 1.247498152447e+01 1.443595997737e+04 1.289911255910e+04 7.684075220797e+03 7.500000000000e-04 4.417864669111e-06 -3.266511274289e-02 -3.126601461191e-03 -1.247526390668e-02
89 1 7.962854067451e-03 1.126147428913e-02 4.143345273800e-03 -3.859906570849e+00 2.924103899452e+01 7.215580164185e+00 -1.131567428576e+04 6.216120608766e+03 -9.289444569395e+03 7.500000000000e-04 4.417864669111e-06 3.859993943239e-03 -2.924170089123e-02 -7.215743495207e-03
90 1 4.546730537780e-03 6.243156342983e-03 6.704801883268e-03 4.031374349078e+01 -1.609237185966e+00 1.725189878896e+01 3.012521340236e+04 3.936559855093e+03 -2.450160341610e+03 7.500000000000e-04 4.417864669111e-06 -4.031465602792e-02 1.609273612469e-03 -1.725228930091e-02
91 1 6.570731392649e-03 1.929928705201e-03 6.083095972363e-03 -5.834961860417e+00 5.726080913549e+00 4.964397472547e+01 -8.648284815282e+03 1.090505574905e+04 -1.001547303473e+03 7.500000000000e-04 4.417864669111e-06 5.835093939926e-03 -5.726210528442e-03 -4.964509846062e-02
92 1 6.981512026254e-03 1.217887793105e-02 1.119203897225e-02 1.457800644925e+01 1.420313060944e+01 1.810364014143e+01 -8.272543353235e+03 1.872056813805e+03 1.908025846603e+04 7.500000000000e-04 4.417864669111e-06 -1.457833643529e-02 -1.420345210983e-02 -1.810404993330e-02
93 1 7.676032162951e-03 1.440587405535e-02 1.932544448116e-03 -1.998138726893e+00 -4.867280140518e+00 -1.594981098247e+00 1.342114988189e+03 -1.057250882946e+04 -7.952987727724e+03 7.500000000000e-04 4.417864669111e-06 1.998183956525e-03 4.867390315697e-03 1.595017202051e-03
94 1 1.358230493516e-02 4.775272950093e-03 1.228531906584e-02 -8.718875089220e+00 2.398803915030e+01 -2.632028951978e+01 -1.153252992742e+04 3.468495583449e+02 9.114490892494e+03 7.500000000000e-04 4.417864669111e-06 8.719072448648e-03 -2.398858214072e-02 2.632088530275e-02
95 1 1.059439572409e-02 1.429252622450e-02 5.242645491159e-03 -1.272786811510e+00 1.537136895811e+01 9.960703150004e+00 -2.290327161321e+04 -1.725999805276e+03 7.110363811344e+02 7.500000000000e-04 4.417864669111e-06 1.272815622162e-03 -1.537171690260e-02 -9.960928619305e-03
96 1 5.192089078651e-03 1.250937884380e-02 1.462482740928e-02 7.764414880132e+00 5.875686309036e+00 -7.263806051221e+00 7.909815738441e+03 -1.041079096593e+04 5.800695771592e+03 7.500000000000e-04 4.417864669111e-06 -3.657464810542e-03 -5.597695455160e-04 6.240640768664e-01
97 1 8.596571512270e-03 7.381102078689e-03 1.237757500333e-02 -1.890138948206e+01 -1.996529634849e+01 -1.139862675672e+01 -5.874326858189e+03 -5.460430959744e+02 -5.205037382364e+03 7.500000000000e-04 4.417864669111e-06 1.890181733168e-02 1.996574828058e-02 1.139888477469e-02
98 1 1.088685588157e-03 9.110685345314e-03 8.317455895375e-03 7.034133582346e+00 4.428651179589e+01 6.233538815986e+00 -2.189232300398e+03 -1.048411295384e+04 -3.259207759946e+03 7.500000000000e-04 4.417864669111e-06 -7.034292806164e-03 -4.428751426014e-02 -6.233679917635e-03
99 1 4.673007288588e-03 1.370619400171e-02 1.298588708688e-02 1.562454145212e+00 1.571205113600e+01 -3.504187706222e+00 -1.202172957391e+04 -1.335156779109e+04 1.539060608879e+04 7.500000000000e-04 4.417864669111e-06 -1.562489512740e-03 -1.571240679214e-02 3.504267026601e-03
100 1 1.283115895934e-02 4.555942262879e-04 3.399424775120e-03 -2.212720285469e+00 1.171009310515e+01 2.219649860782e+01 -5.753788478116e+03 -8.984931777565e+03 5.628259999920e+03 7.500000000000e-04 4.417864669111e-06 2.212770372344e-03 -1.171035817343e-02 -2.219700104515e-02
101 2 6.048706049525e-03 6.032090420026e-03 1.118458577855e-02 8.599842761454e+00 1.388751939811e+01 1.267051131365e+01 -5.328197356704e+03 1.583821404390e+04 -4.510926278685e+03 1.000000000000e-03 1.047197551197e-05 -8.599924884687e-03 -1.388765201542e-02 -1.267063230927e-02
102 2 5.463987407843e-05 7.939060875588e-03 3.791910038782e-03 1.881444988339e+01 -2.614816341811e+00 1.214188951796e+01 1.103676014893e+04 2.465120397744e+03 -7.989583065588e+03 1.000000000000e-03 1.047197551197e-05 -1.881462954987e-02 2.614841311706e-03 -1.214200546558e-02
103 2 1.239141735734e-02 3.721365464266e-03 3.221728520715e-03 1.575357761724e+01 5.604632408782e+00 -2.941867897056e+00 1.440763651924e+03 1.069960312482e+04 -8.713464956472e+03 1.000000000000e-03 1.047197551197e-05 -1.575372805426e-02 -5.604685929591e-03 2.941895990094e-03
104 2 1.021301706523e-02 4.235221623677e-03 1.172649427532e-02 2.696378817843e+00 -1.423664969503e+01 8.520282141576e+00 9.075224698499e+03 2.008723065502e+03 4.676753984989e+03 1.000000000000e-03 1.047197551197e-05 -2.696404566610e-03 1.423678564632e-02 -8.520363505054e-03
105 2 1.081136199500e-02 1.117834305385e-02 3.057073323380e-03 2.438751216847e+01 -1.414828320844e+01 7.433654554143e+00 3.138177924443e+03 2.113979733475e+03 -8.558529625518e+03 1.000000000000e-03 1.047197551197e-05 -2.438774505428e-02 1.414841831588e-02 -7.433725540992e-03
106 2 2.970492404717e-04 7.200505563097e-03 9.894183183575e-03 -1.406540754048e+01 -9.651590393643e+00 6.973797023616e+00 1.916315608797e+03 -5.973557786464e+03 6.970701440910e+02 1.000000000000e-03 1.047197551197e-05 1.406554185651e-02 9.651682560422e-03 -6.973863619108e-03
107 2 4.469564376220e-03 5.122753040435e-03 1.354576369954e-02 5.547429280446e-01 -9.299055613854e+00 1.968460127649e+01 7.835564136308e+03 -1.378906935007e+03 -6.240602388722e+03 1.000000000000e-03 1.047197551197e-05 -5.547482254999e-04 9.299144414142e-03 -1.968478925238e-02
108 2 9.324467018441e-03 6.985678535671e-03 8.227562744394e-04 -6.615467890037e+00 -5.164442938608e+00 -3.461079069891e+00 5.542950570257e+03 -3.669438882123e+02 7.329371454961e+03 1.000000000000e-03 1.047197551197e-05 8.806212431590e-01 -4.973238723064e-02 4.005340277172e+00
109 2 2.641446298079e-03 5.972454768459e-03 1.331632563807e-02 1.328293142162e+01 -3.765171518173e+00 -2.159721016441e+00 -1.700975060571e+04 4.694711555638e+03 7.329872023564e+03 1.000000000000e-03 1.047197551197e-05 -1.328305826549e-02 3.765207473256e-03 2.159741640454e-03
110 2 5.096431372380e-03 6.278493973688e-03 1.396829426027e-03 5.016984856706e+00 1.595772852015e+01 1.535590220459e+01 -5.240993266964e+03 8.023702039370e+03 5.834990759831e+03 1.000000000000e-03 1.047197551197e-05 -5.017032765840e-03 -1.595788090669e-02 -1.535604884406e-02
111 2 4.954264330736e-03 3.027584866403e-03 1.394254568244e-02 -1.264183077670e+01 -7.904742990251e+00 7.058773148933e+00 5.708426985824e+03 9.147529810381e+03 -2.815309452368e+03 1.000000000000e-03 1.047197551197e-05 1.264195149844e-02 7.904818475707e-03 -7.058840555895e-03
112 2 9.081334324853e-03 7.151590489414e-04 7.459507703112e-03 2.351926135796e+01 2.207731978455e+01 1.977735147972e+01 -2.794342203518e+03 -1.100550875031e+04 8.230263512653e+03 1.000000000000e-03 1.047197551197e-05 -2.351948595250e-02 -2.207753060944e-02 -1.977754034132e-02
113 2 4.440037203415e-03 1.432374139667e-02 1.114423551976e-02 -1.395801668844e+01 -1.071191679024e+01 1.110602756095e+01 -7.720601920978e+01 1.006078465694e+04 -5.695221292898e+03 1.000000000000e-03 1.047197551197e-05 1.395814997895e-02 1.071201908249e-02 -1.110613361672e-02
114 2 1.221239486007e-02 4.272738068669e-03 1.039795724729e-02 4.098068510615e+00 -1.754106276815e+01 -8.369335324587e+00 -1.883328592054e+04 -4.023384711662e+03 2.572267906107e+03 1.000000000000e-03 1.047197551197e-05 -4.098107644660e-03 1.754123027456e-02 8.369415246615e-03
115 2 9.183915268057e-03 3.233202737687e-03 1.397296331883e-02 -1.002938230900e+01 1.476779107897e+01 3.351675739320e+01 -5.703461852444e+03 -7.231487319780e+03 5.166397249330e+03 1.000000000000e-03 1.047197551197e-05 1.002947808346e-02 -1.476793210233e-02 -3.351707745772e-02
116 2 2.282142433813e-03 1.199522183165e-02 1.395673207206e-02 -3.384580357589e+00 5.863691830592e+00 -2.074533252745e+01 1.108670220442e+03 6.350237816106e+02 -4.027158939147e+03 1.000000000000e-03 1.047197551197e-05 3.384612678259e-03 -5.863747825260e-03 2.074553063267e-02
117 2 1.308618072839e-02 1.459896462506e-02 1.261818861338e-02 9.029992067368e+00 -1.253810318751e-01 -1.017007160029e+00 -3.133104002295e+03 1.292499769989e+03 -4.016032523763e+03 1.000000000000e-03 1.047197551197e-05 -9.030078298264e-03 1.253822291872e-04 1.017016871825e-03
118 2 3.497998712901e-04 1.348438238492e-03 1.647509361431e-03 -3.883712403166e+01 -1.557541071557e+01 7.679270864367e+00 -8.145822694738e+02 -1.236014156058e+04 4.267182660432e+03 1.000000000000e-03 1.047197551197e-05 3.883749490242e-02 1.557555945121e-02 -7.679344196702e-03
119 2 1.414998323466e-02 1.001630305510e-02 9.989993616339e-03 -7.120012497567e+00 -8.211666808120e+00 -2.717398298064e+00 -6.488164394354e+03 1.132295955375e+04 3.246621058795e+03 1.000000000000e-03 1.047197551197e-05 7.120080489328e-03 8.211745224510e-03 2.717424247554e-03
120 2 3.079893796511e-03 2.284398684101e-03 1.242968639394e-02 2.963066250917e+01 1.331281745836e+00 -1.018262141278e+00 8.562723757272e+02 1.642531656999e+04 -6.886078374423e+03 1.000000000000e-03 1.047197551197e-05 -2.963094546385e-02 -1.331294458762e-03 1.018271865058e-03
121 2 2.770827027516e-03 1.481984579259e-02 8.703186998276e-03 -2.512161370649e+01 1.423731702879e+01 1.716355204999e+01 -8.259095354558e+03 -4.018213907720e+03 -1.617783691612e+04 1.000000000000e-03 1.047197551197e-05 2.512185360252e-02 -1.423745298645e-02 -1.716371595140e-02
122 2 3.249528381177e-04 9.677841266782e-03 8.983222286262e-03 -1.393971326704e+01 8.554551108505e+00 -7.285547384376e+00 -1.035080566905e+04 -8.627866862620e+03 -4.881287516597e+03 1.000000000000e-03 1.047197551197e-05 1.393984638276e-02 -8.554632799230e-03 7.285616956893e-03
123 2 8.925840752044e-03 9.664792530698e-03 7.521704159923e-03 4.281948408900e+00 -2.519859318066e+01 -1.368826159022e+00 3.820895527792e+03 1.529367327106e+03 -6.385711801095e+03 1.000000000000e-03 1.047197551197e-05 -4.281989298886e-03 2.519883381179e-02 1.368839230473e-03
124 2 1.369417739283e-02 4.634026204726e-03 1.442549496877e-02 -1.179498433876e+01 1.676111363928e+00 -6.637956298695e+00 1.692022671530e+03 1.183501071185e+04 -1.210967390037e+04 1.000000000000e-03 1.047197551197e-05 1.540507623973e-03 2.053944526176e-03 1.334201158605e+00
125 2 2.093968000275e-03 7.144374097784e-03 5.089406394930e-03 -3.228122307423e+00 1.492863305114e+01 2.902578918502e+00 -2.987985935768e+03 1.690705452441e+03 1.316221910054e+03 1.000000000000e-03 1.047197551197e-05 3.228153134015e-03 -1.492877561045e-02 -2.902606636354e-03
126 2 3.161930943882e-03 7.915354786858e-03 8.703800947105e-04 8.282411367256e+00 -5.414503017780e+00 1.085641493197e+01 5.221107013717e+03 8.349305002204e+03 2.934934720609e+02 1.000000000000e-03 1.047197551197e-05 8.383042821935e-03 4.903828969380e-02 -1.947003034239e+00
127 2 8.106937358632e-04 2.589631847802e-03 3.829103980792e-03 2.723220039967e+01 3.963683523246e+00 9.074152710072e+00 6.232326321913e+03 -8.351531435643e+03 -8.289340380102e+03 1.000000000000e-03 1.047197551197e-05 -2.723246045051e-02 -3.963721373997e-03 -9.074239362675e-03
128 2 3.229543904726e-03 7.501584782704e-03 3.066365454674e-03 -3.487295961094e+00 -1.283745184485e+01 -6.910749909466e+00 5.856247347341e+03 8.119700287173e+03 4.085072111111e+03 1.000000000000e-03 1.047197551197e-05 3.487329262636e-03 1.283757443466e-02 6.910815902896e-03
129 2 1.169168029565e-02 7.829081297870e-03 2.995803719708e-03 -2.593454132070e+01 -3.537633859711e+00 3.210349681425e+00 -4.641586557138e+03 6.542295136180e+03 9.134721810529e+03 1.000000000000e-03 1.047197551197e-05 2.593478897969e-02 3.537667641948e-03 -3.210380338299e-03
130 2 1.167503480391e-02 6.713857566683e-03 1.160018557708e-02 2.516192578556e+01 5.086265847694e+00 5.000304350432e+00 1.039357022475e+03 4.093476919708e+03 -2.070570945621e+03 1.000000000000e-03 1.047197551197e-05 -2.516216606655e-02 -5.086314418419e-03 -5.000352100277e-03
131 2 9.820047825660e-03 1.479623054871e-02 8.825241880468e-03 -5.226793987738e+00 5.502185657712e+00 -7.587810739281e+00 9.736008523831e+03 1.205083622602e+03 3.869329826733e+03 1.000000000000e-03 1.047197551197e-05 5.226843900420e-03 -5.502238200217e-03 7.587883198228e-03
132 2 1.338115802794e-02 6.500875214822e-03 1.445718617191e-02 1.442591248447e+00 -1.568182934841e+01 -1.357283822306e+00 -1.413559772520e+04 -9.646457046238e+02 -1.891065780378e+03 1.000000000000e-03 1.047197551197e-05 -6.180064547796e-02 2.700888919137e-01 -5.215804445764e-01
133 2 1.085216207359e-03 1.407154210199e-02 1.434703650735e-02 4.266003499373e+00 1.046579799779e+01 -1.864960795058e+00 7.715754624254e+03 -3.084658258216e+03 -4.726735733209e+03 1.000000000000e-03 1.047197551197e-05 -4.266044237095e-03 -1.046589793975e-02 1.864978604292e-03
134 2 9.084440192289e-04 6.671585499203e-04 9.058487948407e-04 -5.204021733860e+00 -2.336953414076e+01 -1.686104722221e-01 2.014842811791e+04 -7.669946886847e+03 4.190272905392e+03 1.000000000000e-03 1.047197551197e-05 -2.567613130746e-01 5.147532185351e-01 1.113871568257e+00
135 2 3.119895999440e-03 5.094130406995e-03 1.231719881310e-02 1.343028123383e+01 -1.253612860987e+01 8.470327708814e-02 5.077080226639e+03 -8.940568934211e+03 -2.330214241796e+03 1.000000000000e-03 1.047197551197e-05 -1.343040948480e-02 1.253624832223e-02 -8.470408595258e-05
136 2 1.300924949046e-02 5.020106700266e-03 1.443447453949e-02 -3.231510617445e+01 -7.149047053411e+00 5.183894853858e+01 -1.882136640879e+04 1.448993350620e+03 2.204171461973e+03 1.000000000000e-03 1.047197551197e-05 2.835872164949e+00 -1.053520072967e+00 -1.524141300316e+01
137 2 9.993752682068e-03 9.110174287879e-03 6.364121637336e-03 -1.908075469478e+01 2.077249844280e+01 2.244612723507e+01 1.370269291245e+04 5.712301630749e+03 3.713152099722e+03 1.000000000000e-03 1.047197551197e-05 1.908093690430e-02 -2.077269680744e-02 -2.244634158184e-02
138 2 4.226683431609e-03 7.052788460292e-03 1.246166392151e-02 6.088323979850e+00 6.128858779082e+00 4.627070187779e+00 -9.722614865605e+03 -5.563177802524e+03 1.440024359077e+04 1.000000000000e-03 1.047197551197e-05 -6.088382119616e-03 -6.128917305931e-03 -4.627114373466e-03
139 2 1.483162481593e-02 1.336354549383e-02 1.759197810599e-03 2.277893007968e+00 -9.368565510250e+00 1.242955571287e+01 -9.622317155943e+02 4.685230523854e+03 6.706650183230e+02 1.000000000000e-03 1.047197551197e-05 -2.277914760452e-03 9.368654974315e-03 -1.242967440752e-02
140 2 3.857304076529e-03 7.618608951970e-04 1.242677339050e-02 1.983061780868e+01 2.515360195148e+01 1.353763672477e+00 -2.232000475144e+03 -2.828033194254e+03 -1.655101735217e+03 1.000000000000e-03 1.047197551197e-05 -1.983080717894e-02 -2.515384215298e-02 -1.353776600091e-03
141 2 1.794317371261e-03 5.793455472832e-03 1.145287774961e-02 -1.422320116718e+01 -2.642740912105e+01 1.155089717140e+00 8.898436401896e+03 -4.028724193184e+03 1.089529786624e+04 1.000000000000e-03 1.047197551197e-05 1.422333699004e-02 2.642766148663e-02 -1.155100747540e-03
142 2 2.673515280877e-04 6.440324469132e-04 1.169035688759e-02 7.995827164043e+00 1.741196966806e+01 7.848362318483e+00 -2.746819518401e+02 4.208121137886e+03 -8.424994775633e+03 1.000000000000e-03 1.047197551197e-05 -7.995903519297e-03 -1.741213594171e-02 -7.848437265538e-03
143 2 6.601128344011e-03 9.523720299976e-03 4.587842365624e-03 1.103884313502e+01 -1.997089244600e+00 5.047353785121e+00 8.470377190828e+03 7.958248018118e+03 2.551570670686e+03 1.000000000000e-03 1.047197551197e-05 -1.103894854921e-02 1.997108315580e-03 -5.047401984259e-03
144 2 9.707468166040e-03 7.404900399075e-03 1.279405240462e-02 1.782547630439e+00 9.340776984042e+00 -4.291379118060e+00 4.553007513637e+03 -3.556987272041e+03 5.041625889668e+03 1.000000000000e-03 1.047197551197e-05 -1.782564652678e-03 -9.340866182743e-03 4.291420098103e-03
145 2 3.477840758946e-03 4.528841497006e-03 1.132264917291e-02 -1.516233684399e+01 2.883453166770e+01 1.329875574851e+01 -1.377665527717e+04 1.054286454793e+04 -4.017038093665e+02 1.000000000000e-03 1.047197551197e-05 1.516248163503e-02 -2.883480701982e-02 -1.329888274348e-02
146 2 2.475361196057e-03 3.717751623692e-03 8.822196601566e-03 -1.683221652789e+01 -1.955625651132e+01 2.418433139221e+01 1.421837248207e+04 1.427874650354e+03 2.680109647172e+03 1.000000000000e-03 1.047197551197e-05 1.683237726525e-02 1.955644326159e-02 -2.418456233777e-02
147 2 3.922539264365e-03 5.506144599011e-03 7.189181690541e-03 -1.035246823706e+01 2.013502935395e+01 6.832007238490e+00 -3.726621404137e+03 -2.540265267234e+03 1.920086152040e+03 1.000000000000e-03 1.047197551197e-05 1.035256709679e-02 -2.013522163116e-02 -6.832072479976e-03
148 2 4.012367379736e-03 1.899458064865e-03 1.629186357128e-03 -7.930830861256e+00 2.139204596440e+01 -3.703759027292e+00 4.827657713051e+03 2.026604002704e+03 1.668469173648e+03 1.000000000000e-03 1.047197551197e-05 7.930906595835e-03 -2.139225024534e-02 3.703794395923e-03
149 2 1.022599056123e-02 1.329783657487e-02 1.307545519083e-02 1.443117188972e+01 2.014349686065e+01 -5.596478817937e+00 -3.181657437164e+03 -7.804522726365e+03 -2.271044637252e+04 1.000000000000e-03 1.047197551197e-05 -1.443130969858e-02 -2.014368921872e-02 5.596532260883e-03
150 2 1.718199992994e-03 1.498505000486e-02 1.222271616032e-02 -1.422857430756e+00 -3.081942433371e+00 -2.587480986923e+00 -4.277513776692e+03 6.139881753511e+03 -1.384286648594e+03 1.000000000000e-03 1.047197551197e-05 1.422871018173e-03 3.081971864035e-03 2.587505695782e-03
151 2 3.847582536468e-03 5.922602382511e-03 5.308799885607e-03 8.815756431404e+00 -1.568339053037e+01 9.129297365319e+00 6.111331456737e+03 -1.074979597652e+04 9.804168191490e+02 1.000000000000e-03 1.047197551197e-05 -8.815840616481e-03 1.568354029715e-02 -9.129384544519e-03
152 2 1.354673298055e-02 1.144362040663e-02 5.418292260268e-03 3.955992266939e+00 2.643185178412e-01 5.902043470305e+00 6.426562344892e+01 2.412861751259e+03 -5.465181299691e+03 1.000000000000e-03 1.047197551197e-05 -3.956030044244e-03 -2.643210419212e-04 -5.902099831207e-03
153 2 2.320362839832e-03 1.300567098549e-03 1.774183109352e-03 -4.941255479769e+00 -4.137572472615e+00 4.281477938197e+00 -9.926438302470e+02 8.471234716918e+01 9.819787539537e+02 1.000000000000e-03 1.047197551197e-05 4.941302665733e-03 4.137611983899e-03 -4.281518823690e-03
154 2 3.715093919222e-03 1.631769575152e-03 8.190941169436e-03 9.014207633035e+00 -2.224766604285e+01 2.612706003290e+00 -9.504758722595e+02 -7.177025842784e+03 -6.751492802377e+03 1.000000000000e-03 1.047197551197e-05 -9.014293713199e-03 2.224787849444e-02 -2.612730953032e-03
155 2 1.091549686502e-03 1.461495339581e-02 1.076566698503e-02 -1.259949687446e+01 2.000614654592e+01 9.195275946474e+00 3.482275061966e+03 1.589996936591e+04 -4.249740525956e+03 1.000000000000e-03 1.047197551197e-05 1.259961719194e-02 -2.000633759237e-02 -9.195363755730e-03
156 2 1.216852213959e-02 4.788011018389e-03 6.645386733568e-03 -3.981172719715e-01 -4.283008899320e+00 -1.711135470718e+00 -1.325499598032e+04 5.503420424995e+03 -1.091230794402e+04 1.000000000000e-03 1.047197551197e-05 3.981210737478e-04 4.283049799433e-03 1.711151811014e-03
157 2 2.525431986910e-03 1.027166645623e-02 1.172377626213e-02 1.035252888540e+01 -4.661669696570e+00 -4.818329089971e+00 9.873267043979e+03 5.713557443853e+03 -6.150387991800e+03 1.000000000000e-03 1.047197551197e-05 -1.035262774571e-02 4.661714212661e-03 4.818375102064e-03
158 2 6.289629384026e-04 9.407502891756e-03 1.107315181062e-02 -2.016050360758e+01 1.710151441027e+01 -2.328708140631e+01 4.215019497988e+03 -7.776505288590e+03 1.162214389952e+04 1.000000000000e-03 1.047197551197e-05 2.016069612805e-02 -1.710167771926e-02 2.328730378368e-02
159 2 9.018657463275e-03 1.155315365177e-03 1.175035626820e-02 -5.095297421174e+00 -9.682696572648e+00 -3.135201546257e-01 1.919070797348e+03 -4.968875715091e+03 -9.008999737532e+03 1.000000000000e-03 1.047197551197e-05 5.095346078145e-03 9.682789036472e-03 3.135231485512e-04
160 2 1.171565328962e-02 1.424587741468e-02 1.434191225903e-02 -1.407196351958e+01 1.255801756923e+01 -5.152687777607e-01 8.530033685846e+03 3.915301756168e+03 -4.066046809828e+03 1.000000000000e-03 1.047197551197e-05 1.407209789822e-02 -1.255813749061e-02 5.152736982620e-04
161 2 1.324006473059e-02 4.714425776294e-03 9.459737305427e-03 7.035264582145e+00 5.502900260401e+00 -1.783161695049e+00 2.187081932672e+03 6.247002705037e+03 -8.470267861077e+02 1.000000000000e-03 1.047197551197e-05 -7.035331764615e-03 -5.502952809730e-03 1.783178723152e-03
162 2 1.559213503892e-04 9.770708834905e-03 1.401368411637e-02 -1.822071399388e+00 8.213467497409e+00 4.962679879661e-01 6.439325381593e+03 2.591271964412e+02 -1.026477237077e+04 1.000000000000e-03 1.047197551197e-05 1.822088799055e-03 -8.213545930995e-03 -4.962727270215e-04
163 2 7.674861609988e-03 1.319180293283e-02 1.321198620156e-02 -8.969572593567e+00 -1.636400829806e+01 2.283669206175e+01 -5.216700704417e+03 -2.262799369408e+03 3.770070667935e+03 1.000000000000e-03 1.047197551197e-05 4.051264730080e+01 -7.603655601641e+00 2.515042851495e+00
164 2 7.305089228911e-04 1.239960453761e-02 3.131347788997e-03 1.074654677061e+01 -4.827930900124e+00 6.527882694771e+00 -1.640657059978e+04 1.343672623325e+02 -6.903470404697e+03 1.000000000000e-03 1.047197551197e-05 -1.074664939355e-02 4.827977003909e-03 -6.527945032054e-03
165 2 1.277444159406e-02 3.704758228238e-03 2.112925244512e-03 3.150165457173e+00 2.648280320238e+01 1.177770706606e+01 -1.433799476027e+03 -3.524400883658e+03 7.969384392592e+03 1.000000000000e-03 1.047197551197e-05 -3.150195539325e-03 -2.648305609693e-02 -1.177781953595e-02
166 2 6.349129879848e-03 1.492046028588e-02 8.571716404904e-03 -8.355785093783e-02 -1.604150991136e+01 3.653547446726e+00 -7.503039982986e+03 6.971002668979e+03 1.137705890522e+03 1.000000000000e-03 1.047197551197e-05 8.355864886415e-05 1.604166309796e-02 -3.653582335868e-03
167 2 9.395833937163e-03 1.156338499430e-02 8.543678057067e-03 6.498917891553e-01 -2.405568779772e+00 7.785860630860e+00 5.439789578099e+03 2.051399481323e+02 5.591441047801e+03 1.000000000000e-03 1.047197551197e-05 -6.498979952240e-04 2.405591751482e-03 -7.785934981063e-03
168 2 1.306105536053e-02 1.240886158994e-02 1.352275997002e-02 -1.047834762991e+01 -2.699221139187e+01 6.356271786169e+00 1.393143454208e+04 1.814773743575e+04 2.960962455887e+03 1.000000000000e-03 1.047197551197e-05 1.047844769171e-02 2.699246915096e-02 -6.356332484673e-03
169 2 1.207836501468e-02 2.999798401313e-03 1.052384850509e-03 6.546241530047e+00 3.229021074848e-01 7.332692426971e+00 -4.004949283477e+02 6.460620292950e+03 -7.668929905762e+03 1.000000000000e-03 1.047197551197e-05 -6.546304042646e-03 -3.229051910022e-04 -7.332762449694e-03
170 2 7.327222263079e-03 8.152631475769e-03 6.680551036856e-03 9.573503335778e+00 -1.462811744159e+01 2.874495566057e+00 -4.191573933009e+03 -9.178946899524e+03 -3.227925513959e+03 1.000000000000e-03 1.047197551197e-05 -9.573594756873e-03 1.462825713116e-02 -2.874523015730e-03
171 2 7.852269913505e-03 3.395936347019e-03 1.259007728097e-02 1.830957503444e+01 2.705602214023e+00 -3.500623473967e+00 2.821731799667e+03 -1.931694440653e+04 -1.713026645313e+03 1.000000000000e-03 1.047197551197e-05 -1.830974987967e-02 -2.705628050868e-03 3.500656902778e-03
172 2 8.620835640169e-03 1.109060286014e-02 1.389221490388e-02 8.554342114046e-01 -2.308090201700e+01 -1.705124459120e+01 8.264980095045e+03 5.730123002209e+03 -5.556026175968e+02 1.000000000000e-03 1.047197551197e-05 -8.554423802776e-04 2.308112242548e-02 1.705140742014e-02
173 2 2.567635057592e-04 1.305733589774e-02 5.487056214172e-03 2.060973597158e+01 5.191214671411e+00 1.087896633622e+01 -4.900391266677e+03 2.935211468164e+04 -8.811544623865e+03 1.000000000000e-03 1.047197551197e-05 -2.060993278194e-02 -5.191264244333e-03 -1.087907022369e-02
174 2 8.134392422960e-03 6.357962133472e-03 7.988395962977e-03 1.615586968110e+01 -5.443973194391e+00 -1.592951863627e+01 4.810424037767e+03 8.807036772157e+03 3.706977294837e+03 1.000000000000e-03 1.047197551197e-05 -1.615602395977e-02 5.444025181002e-03 1.592967075342e-02
175 2 7.830084922573e-03 7.211526705372e-03 5.012042466508e-03 2.038508130302e+00 -2.977333456676e+01 2.668776214346e+00 2.239963477552e+03 1.241416136137e+03 1.124308857798e+03 1.000000000000e-03 1.047197551197e-05 -2.038527596806e-03 2.977361888387e-02 -2.668801699525e-03
176 2 1.484157537950e-02 1.717925007112e-03 5.600559239103e-03 -1.566636493776e+01 1.007615877585e+01 5.699776271661e-01 4.005171446812e+02 -6.132175968670e+03 -4.063211365610e+03 1.000000000000e-03 1.047197551197e-05 1.566651454195e-02 -1.007625499700e-02 -5.699830701035e-04
177 2 1.115484106765e-02 2.479767890248e-03 5.558743730381e-03 4.794357391185e+00 3.291048224323e+00 1.524863935079e+00 -8.975898246853e+03 -6.105943960177e+03 1.691780267068e+03 1.000000000000e-03 1.047197551197e-05 -4.794403174363e-03 -3.291079651819e-03 -1.524878496596e-03
178 2 9.124584390080e-03 1.662885385822e-03 1.254361729233e-02 -1.738056269016e+00 3.661722602614e+00 -1.051274232071e+01 3.838197034212e+03 1.870341072600e+03 -5.432011968464e+03 1.000000000000e-03 1.047197551197e-05 1.738072866389e-03 -3.661757569823e-03 1.051284271096e-02
179 2 6.911799242063e-03 9.173883670753e-03 1.085398513790e-02 7.453965014557e+00 -1.808792765370e+01 -1.983906911222e+01 8.976220737919e+03 1.016214861383e+04 1.655260569072e+04 1.000000000000e-03 1.047197551197e-05 -7.454036195360e-03 1.808810038233e-02 1.983925856319e-02
180 2 9.675830533747e-03 6.232451765734e-04 1.013434504858e-02 -2.435613218310e+01 -7.426271732332e-01 -1.474367804704e+01 -5.925393633000e+03 -1.110222727239e+04 -9.219441503964e+03 1.000000000000e-03 1.047197551197e-05 2.435636476925e-02 7.426342648680e-04 1.474381884014e-02
181 2 2.070099806187e-03 1.254083205296e-02 1.467358915278e-02 -7.578003070638e+00 2.702081919240e+01 9.029842928344e+00 6.134072077673e+03 1.655867645547e+04 1.221220688274e+04 1.000000000000e-03 1.047197551197e-05 -3.331238643692e-01 -4.668568696600e+00 -9.899098393859e+00
182 2 2.018409887347e-03 9.248996019367e-03 5.344762856627e-03 -1.940461165958e+01 1.043931655312e+01 2.765977098530e+01 4.182327191571e+03 -1.430243781917e+03 -4.722269611898e+03 1.000000000000e-03 1.047197551197e-05 1.940479696174e-02 -1.043941624220e-02 -2.766003511918e-02
183 2 8.630644198252e-03 4.096863484310e-03 9.991215565079e-03 -2.150299809091e+01 1.596177538201e+01 7.918905258566e+00 -1.563853925069e+03 -1.601168675232e+03 2.589070128692e+03 1.000000000000e-03 1.047197551197e-05 2.150320343138e-02 -1.596192780720e-02 -7.918980879263e-03
184 2 2.264917532347e-03 9.943315939814e-04 4.923359589151e-03 -3.288083070383e+01 -1.643851885634e+01 1.102882590953e+01 -5.062559664660e+03 -7.350088315341e+03 -1.033353004036e+04 1.000000000000e-03 1.047197551197e-05 3.288114469563e-02 1.643867583413e-02 -1.102893122807e-02
185 2 1.017112984879e-02 4.016101964311e-03 6.793335344973e-03 -8.217953868267e+00 -2.276535826558e+01 -1.427897487162e+01 -3.291353946289e+03 -3.483085893510e+03 -2.946301568238e+02 1.000000000000e-03 1.047197551197e-05 8.218032344695e-03 2.276557566081e-02 1.427911122709e-02
186 2 9.403838057248e-03 1.346870088327e-02 6.701883497970e-03 2.608244161643e+01 -3.964047771804e+01 2.050197559007e+01 -1.151666021107e+04 2.747476435078e+03 -1.755797998935e+03 1.000000000000e-03 1.047197551197e-05 -2.608269068778e-02 3.964085626033e-02 -2.050217137138e-02
187 2 1.431994603954e-02 6.867729439632e-03 8.998779225439e-03 -1.590730412162e+01 1.701237844300e+01 -1.166219692420e+00 1.424529211689e+04 -9.639813980999e+03 -1.956435632326e+03 1.000000000000e-03 1.047197551197e-05 1.590745602663e-02 -1.701254090080e-02 1.166230829104e-03
188 2 1.096679861525e-02 2.756761371208e-03 1.267597876024e-02 -4.159679155313e+00 1.698960497808e+01 -5.220375256781e+00 1.762514858050e+04 4.317267197355e+03 -1.000968653280e+04 1.000000000000e-03 1.047197551197e-05 4.159718877702e-03 -1.698976721840e-02 5.220425108169e-03
189 2 6.571557080120e-03 1.142366220290e-02 1.374321900696e-02 3.143151899637e+01 9.873183259082e+00 6.990507574769e+00 -5.378557747299e+03 4.584692578953e+03 -2.111517673632e+03 1.000000000000e-03 1.047197551197e-05 -3.143181914813e-02 -9.873277541938e-03 -6.990574329837e-03
190 2 1.383158914015e-02 4.031992214264e-03 1.364875168466e-02 -1.853223127180e+00 3.320628393136e+00 1.957384240629e+01 -7.791902301311e+03 -5.779732711704e+03 2.401074975923e+03 1.000000000000e-03 1.047197551197e-05 1.853240824326e-03 -3.320660103104e-03 -1.957402932450e-02
191 2 1.523663735431e-02 1.212011217570e-02 1.273547587287e-02 1.704878671196e+01 -2.058059407489e+01 -5.346679330714e+00 -5.285539156975e+03 -6.249537131599e+03 2.542463649627e+02 1.000000000000e-03 1.047197551197e-05 -1.704894951743e-02 2.058079060696e-02 5.346730388229e-03
192 2 1.227342350582e-02 9.748341229396e-03 1.830112005593e-03 1.139018162758e+01 -4.174700074555e+00 -1.119454327407e+01 -1.068403808468e+04 3.134377481302e+02 3.687930182394e+03 1.000000000000e-03 1.047197551197e-05 -1.139029039685e-02 4.174739940385e-03 1.119465017511e-02
193 2 1.169469454363e-02 9.141274363728e-03 7.589747655947e-03 -8.404649682538e+00 3.327213728630e+00 6.352410888954e+00 1.817923482704e+03 -8.781109280057e+03 2.972247983662e+03 1.000000000000e-03 1.047197551197e-05 8.404729941797e-03 -3.327245501484e-03 -6.352471550589e-03
194 2 1.057353516486e-02 1.004448107760e-02 4.790796632025e-03 8.523271959084e+00 -2.115953078246e+01 -4.307361436259e+00 -1.642625304462e+03 -2.041149241428e+03 -4.831637892687e+03 1.000000000000e-03 1.047197551197e-05 -8.523353351113e-03 2.115973284302e-02 4.307402568924e-03
195 2 7.596656988464e-04 8.867342488358e-03 1.233412599783e-03 -4.999806286048e+00 -4.840332320723e+00 3.588145828393e+00 4.581924153743e+03 -5.270418873379e+03 -9.795086378488e+02 1.000000000000e-03 1.047197551197e-05 4.999854031137e-03 4.840378542933e-03 -3.588180092989e-03
196 2 1.477000837395e-02 1.271686639494e-02 1.313238045561e-02 5.331809262280e+00 -9.507619593684e+00 8.160142086758e+00 -1.480823780839e+03 -4.173721249149e+03 1.606783389886e+03 1.000000000000e-03 1.047197551197e-05 -5.331860177794e-03 9.507710385631e-03 -8.160220011119e-03
197 2 8.124038764014e-03 4.684079129698e-03 2.626299403957e-03 2.755709294036e+00 6.618705834348e+00 -2.594859567049e-01 1.317034380592e+04 1.772051865437e+03 1.177924317585e+04 1.000000000000e-03 1.047197551197e-05 -2.755735609373e-03 -6.618769038936e-03 2.594884346370e-04
198 2 4.538466998012e-03 1.437370286958e-02 9.772722954969e-03 2.467014580888e+00 -4.081223312384e+00 1.106152195481e+00 -3.836785791160e+02 -3.289752756115e+03 -6.138166873894e+03 1.000000000000e-03 1.047197551197e-05 -2.467038139367e-03 4.081262285568e-03 -1.106162758557e-03
199 2 1.302368383249e-02 9.511109893490e-04 9.303237893087e-03 -2.341572086229e+00 2.762712946870e+01 -1.344699368194e+01 -2.654853580484e+03 -4.566292149684e+03 6.374836051112e+03 1.000000000000e-03 1.047197551197e-05 2.341594446809e-03 -2.762739329087e-02 1.344712209250e-02
200 2 3.834154367656e-03 1.430590174315e-02 1.401399518681e-02 1.590942492140e+01 1.367557403574e+01 -6.143554237965e+00 1.376574234504e+04 -1.599624666319e+04 -1.091404795694e+03 1.000000000000e-03 1.047197551197e-05 -1.590957684666e-02 -1.367570462910e-02 6.143612905147e-03
201 2 1.269568198279e-02 3.917635264760e-03 1.333000110605e-02 1.404684776238e+01 -2.954423893898e+00 -6.161078315235e+00 4.928935347234e+03 -8.713070765358e+03 -4.388015398288e+03 1.000000000000e-03 1.047197551197e-05 -1.404698190118e-02 2.954452106837e-03 6.161137149761e-03
202 2 1.138444239955e-02 1.532611134152e-02 8.608470167459e-03 -6.390808081331e+00 1.545253664374e+01 -5.357973723340e+00 6.130276520832e+03 -1.143728446804e+03 -4.177866494126e+03 1.000000000000e-03 1.047197551197e-05 6.390869109635e-03 -1.545268420600e-02 5.358024888709e-03
203 2 1.303878297940e-03 1.046111051215e-02 1.181999379469e-02 -2.092415548385e-01 1.337883598564e+01 -2.595421723621e+00 1.493561639197e+04 2.879099007300e+02 -3.764936936734e+03 1.000000000000e-03 1.047197551197e-05 2.092435529672e-04 -1.337896374533e-02 2.595446508309e-03
204 2 6.534592524734e-03 4.088322224764e-03 1.432881104011e-02 -9.264215905957e+00 2.829940496703e+00 9.258996195754e+00 2.461327405834e+03 4.073209701994e+03 2.333719621942e+03 1.000000000000e-03 1.047197551197e-05 9.264304373547e-03 -2.829967520902e-03 -9.259084613499e-03
205 2 3.663110700026e-04 7.576985244376e-03 9.005818298549e-03 -5.532270705740e+00 1.064591416611e+01 -2.766548021789e+01 1.971363083906e+03 1.169837088775e+03 5.459292199503e+03 1.000000000000e-03 1.047197551197e-05 5.532323535538e-03 -1.064601582807e-02 2.766574440629e-02
206 2 4.594373381521e-03 3.860374316861e-03 1.348105593739e-02 2.304574621658e+01 2.076274044375e+01 -2.481731110052e+00 2.837092039439e+03 -1.525932584852e+04 -1.023199696813e+04 1.000000000000e-03 1.047197551197e-05 -2.304596628935e-02 -2.076293871521e-02 2.481754809065e-03
207 2 1.381166731769e-02 1.159695423591e-02 1.029942895104e-02 1.372864293873e+01 -1.823826467152e+01 1.034329652673e+00 -1.041919976796e+04 -5.976592129672e+03 6.586757655621e+03 1.000000000000e-03 1.047197551197e-05 -1.372877403886e-02 1.823843883578e-02 -1.034339529887e-03
208 2 1.197770404746e-02 1.660520871631e-03 1.116747034743e-02 1.861158133436e+01 -6.627061269700e+00 2.571812991890e+01 9.919584335006e+03 -2.882211535799e+03 -4.934462052899e+03 1.000000000000e-03 1.047197551197e-05 -1.861175906357e-02 6.627124554078e-03 -2.571837551129e-02
209 2 1.301544758433e-03 1.193746253831e-03 2.800471081828e-03 1.345074965191e+01 2.383861657066e+01 8.913841821518e+00 1.909462273254e+04 3.262436710287e+03 1.403906739506e+03 1.000000000000e-03 1.047197551197e-05 -1.345087809834e-02 -2.383884421485e-02 -8.913926943250e-03
210 2 3.078458224861e-03 1.489412091293e-03 7.548291197456e-03 -6.614328632884e+00 7.586707386102e+00 5.438961993256e+00 5.545947676294e+03 -8.659811799168e+03 9.008112336011e+03 1.000000000000e-03 1.047197551197e-05 6.614391795673e-03 -7.586779834513e-03 -5.439013932013e-03
211 2 9.876614010781e-03 4.774262432222e-03 1.432504979912e-02 1.756294895698e+00 -1.315002919241e+01 -3.441840311004e+00 -5.660088184975e+03 -4.189336957632e+03 3.263552942630e+03 1.000000000000e-03 1.047197551197e-05 -1.756311667239e-03 1.315015476713e-02 3.441873178472e-03
212 2 7.156637516987e-03 8.065339720227e-03 7.556370157603e-03 1.436419524640e+01 2.880070103113e+01 5.557009572894e+00 -8.068324632013e+03 -1.622751292126e+02 -2.484052605381e+03 1.000000000000e-03 1.047197551197e-05 -1.436433241567e-02 -2.880097606020e-02 -5.557062638933e-03
213 2 5.766433347681e-03 1.761074858436e-03 9.369780250561e-03 -6.439492615691e+00 -3.166506665520e+01 -8.392552976630e+00 -2.740087357953e+03 -4.106121776358e+03 5.939419981650e+02 1.000000000000e-03 1.047197551197e-05 6.439554108903e-03 3.166536903720e-02 8.392633120373e-03
214 2 6.062489448649e-03 9.690002642681e-03 8.112644908411e-03 4.817575535522e+00 1.938023500664e+01 4.748618516562e+00 -1.337740830984e+02 -9.524892870334e+03 -1.401897531299e+04 1.000000000000e-03 1.047197551197e-05 -4.817621540419e-03 -1.938042007602e-02 -4.748663862962e-03
215 2 7.943511215465e-03 1.535812145284e-03 7.251448202253e-03 -9.354757891609e+00 -2.572314574750e+00 -3.862101154203e+00 2.989535476889e+03 -3.590778136080e+03 4.875917109899e+03 1.000000000000e-03 1.047197551197e-05 9.354847223820e-03 2.572339138780e-03 3.862138034905e-03
216 2 6.670225495007e-03 2.887733018134e-03 8.314287280018e-04 -3.185163854002e+00 2.786762379000e+00 1.167647576385e+01 -2.473741462426e+03 -3.092524436109e+03 -4.752335210769e+03 1.000000000000e-03 1.047197551197e-05 1.969164377142e-02 -5.964942235010e-02 -1.662122494327e+00
217 2 1.069283261846e-02 4.908651006611e-03 1.468574027574e-02 -6.919800224269e+00 5.355292919802e+00 4.238711014175e+00 5.719895016243e+03 8.794748289864e+03 -1.096329666364e+04 1.000000000000e-03 1.047197551197e-05 9.567105036460e-01 1.323423414796e-02 -8.290900853880e+00
218 2 5.143123917897e-03 7.687501113778e-03 1.432194788203e-02 9.422350473728e+00 -6.484749416671e-01 -2.493797460361e+00 2.436200166556e+03 -4.855869754514e+03 2.772273799245e+03 1.000000000000e-03 1.047197551197e-05 -9.422440451406e-03 6.484811342058e-04 2.493821274600e-03
219 2 1.244763578858e-02 1.381749395776e-02 1.003075776653e-03 -1.932959761214e+00 1.110599301206e+01 5.969287167727e+00 -4.474966211000e+03 -2.136793787138e+03 -3.983579173191e+03 1.000000000000e-03 1.047197551197e-05 1.932978219796e-03 -1.110609906750e-02 -5.969344170765e-03
220 2 4.478695989490e-03 1.008721745589e-02 1.384079829103e-02 2.536451744593e+00 6.093877471544e+00 -3.588851007171e+00 6.207360950650e+03 -2.581060623970e+03 2.143348634519e+01 1.000000000000e-03 1.047197551197e-05 -2.536475966154e-03 -6.093935664343e-03 3.588885278501e-03
221 2 4.022586690147e-03 1.451506463030e-02 1.598809208182e-03 7.263859360357e+00 1.061257152156e+00 3.891335390587e+00 -1.078864070288e+03 7.428890872156e+03 2.701449853153e+03 1.000000000000e-03 1.047197551197e-05 -7.263928725767e-03 -1.061267286512e-03 -3.891372550457e-03
222 2 1.204484497133e-02 4.811907879093e-03 5.643240506993e-03 -1.054899460159e+01 -1.330539002120e+01 6.882412260764e+00 4.699804333405e+02 5.148253644808e+03 -3.917591453926e+03 1.000000000000e-03 1.047197551197e-05 1.054909533803e-02 1.330551707953e-02 -6.882477983588e-03
223 2 1.561816292454e-03 4.067326333182e-03 1.033570073514e-03 -7.122295724279e+00 1.214113621368e+00 3.636267295872e+00 -7.854355769148e+02 -6.664870373823e+03 1.200830117162e+04 1.000000000000e-03 1.047197551197e-05 7.122363737843e-03 -1.214125215410e-03 -3.636302019999e-03
224 2 1.099417931972e-02 4.609989210485e-03 4.936041040204e-03 5.513076178255e+00 -8.181585796569e+00 1.883532165847e+01 2.423659240621e+04 4.164935488919e+03 8.684538494001e+03 1.000000000000e-03 1.047197551197e-05 -5.513128824758e-03 8.181663925704e-03 -1.883550152426e-02
225 2 8.850477463887e-03 3.988185682941e-03 1.151101214764e-02 -8.313149424349e+00 -1.797847189254e+01 6.883312790478e+00 -1.640226531821e+04 -1.342903236627e+02 1.241935702281e+04 1.000000000000e-03 1.047197551197e-05 1.047548799285e+01 -1.382138243113e+01 -1.515042303281e+01
226 2 1.332169320904e-02 6.822614972971e-04 1.022629865737e-03 -7.734931024438e+00 1.767057292167e+01 4.480656223210e+00 -1.769527776698e+04 -8.017069952985e+03 2.074190843648e+03 1.000000000000e-03 1.047197551197e-05 7.735004888294e-03 -1.767074166482e-02 -4.480699010734e-03
227 2 1.031660455155e-02 3.331513247355e-03 1.208525198405e-02 -2.363549209151e+01 -1.991295264119e+01 2.184355540046e+01 -1.046369964676e+04 3.015766533693e+03 -4.161295975401e+03 1.000000000000e-03 1.047197551197e-05 2.363571779599e-02 1.991314279769e-02 -2.184376399304e-02
228 2 1.850437506210e-03 4.568172882657e-03 7.374319875713e-04 3.164380252307e+01 -2.634580544741e+01 -3.365942186631e+00 3.948848017805e+03 -1.015230929188e+03 1.422624833424e+03 1.000000000000e-03 1.047197551197e-05 -2.592651665923e+00 1.859168525774e+00 6.301936583778e+00
229 2 1.437475204078e-02 2.330782778635e-03 1.352516020062e-02 -8.115239971286e+00 1.059709748545e+01 -2.878641521174e+00 4.721418708181e+03 1.370421513234e+04 1.221843251886e+03 1.000000000000e-03 1.047197551197e-05 8.115317466860e-03 -1.059719868124e-02 2.878669010438e-03
230 2 7.567597664693e-03 1.244567869019e-02 1.159373446475e-02 -5.602224658918e+00 -1.301614027020e+00 4.113911920793e+00 -9.123167120839e+03 -1.745638263830e+04 -4.583939593154e+03 1.000000000000e-03 1.047197551197e-05 5.602278156733e-03 1.301626456637e-03 -4.113951206133e-03
231 2 8.220512189964e-03 1.419395780044e-02 1.415278899757e-02 -1.495552882992e+01 -1.239135264741e+01 5.753702624024e+00 -1.692912601567e+03 -4.810249528367e+03 -8.355076696396e+03 1.000000000000e-03 1.047197551197e-05 1.495567164606e-02 1.239147097724e-02 -5.753757568361e-03
232 2 1.119336083325e-02 1.092988344612e-02 1.101770275971e-02 -1.490447564697e+01 -1.205761691329e+01 6.914231917214e+00 1.265428466274e+04 6.271485362133e+03 -9.752029346192e+02 1.000000000000e-03 1.047197551197e-05 3.376904238451e+01 1.637727734325e+01 -2.519024272771e+01
233 2 1.486326569861e-02 4.920213721148e-03 8.616890525401e-03 2.953940376343e+01 1.441909281247e+01 2.342793876999e+01 -2.248443292958e+03 8.017855155162e+03 1.705368032681e+04 1.000000000000e-03 1.047197551197e-05 -2.953968584666e-02 -1.441923050598e-02 -2.342816249247e-02
234 2 1.986327618482e-03 1.498992981217e-03 1.001759311800e-02 -5.283044958652e+00 2.930936153509e+01 -1.041415449016e+01 -3.054968802725e+03 -3.470143784130e+03 4.876890723185e+03 1.000000000000e-03 1.047197551197e-05 5.283095408497e-03 -2.930964142155e-02 1.041425393896e-02
235 2 6.498993017765e-03 3.492190890126e-03 1.292209689922e-02 1.349063667804e+01 2.581041390894e+01 -2.646044372971e+00 -4.617821648900e+03 -7.719455928320e+03 1.598958492170e+04 1.000000000000e-03 1.047197551197e-05 -1.349076550536e-02 -2.581066038259e-02 2.646069641075e-03
236 2 2.194751731388e-03 1.867939023819e-03 4.783023646121e-03 2.112809251006e-01 -4.610770329758e+01 -1.034966836275e+01 -1.203690316691e+04 5.048377220070e+03 1.320569184902e+04 1.000000000000e-03 1.047197551197e-05 -2.112829427040e-04 4.610814359792e-02 1.034976719575e-02
237 2 1.871542285671e-03 8.280672192731e-03 1.225251640074e-02 -1.018379258551e+01 -1.247453843426e+01 2.655755926493e+01 -3.753149823468e+03 -3.766411014866e+03 -1.494369920082e+03 1.000000000000e-03 1.047197551197e-05 1.018388983449e-02 1.247465755846e-02 -2.655781287336e-02
238 2 7.069612517753e-03 1.051965056647e-02 9.963345657843e-03 -9.371673458401e+00 2.220699738517e+01 2.989520823999e+01 -2.023735480977e+03 -2.064543276463e+04 -5.594105462015e+03 1.000000000000e-03 1.047197551197e-05 9.371762952145e-03 -2.220720944840e-02 -2.989549372093e-02
239 2 3.185724384138e-03 4.377528088355e-03 6.460346524821e-03 9.854882045831e+00 -1.971116769353e+00 1.087189967034e+01 6.612391403022e+03 4.816128482391e+03 2.309983953146e+03 1.000000000000e-03 1.047197551197e-05 -9.854976153922e-03 1.971135592311e-03 -1.087200349033e-02
240 2 1.497504462917e-02 2.068542943810e-03 1.265880067369e-03 -1.446722119136e+01 -1.164847740686e+01 -1.194290374697e+01 6.065186759605e+03 -3.167643088755e+03 1.688310733039e+02 1.000000000000e-03 1.047197551197e-05 1.446735934446e-02 1.164858864269e-02 1.194301779439e-02
241 2 1.338447937307e-02 1.009737700279e-02 1.230536213439e-02 -8.351427068500e+00 1.594111251540e+01 1.198850700417e+01 -1.051874236074e+04 -8.427220226626e+03 5.759803145492e+02 1.000000000000e-03 1.047197551197e-05 8.351506819515e-03 -1.594126474327e-02 -1.198862148707e-02
242 2 1.023954330278e-02 1.332465788641e-02 1.002084253223e-02 4.839798217572e+00 -9.901168043358e+00 -1.890658143099e+00 5.727224112531e+03 1.596118824113e+03 4.363985752519e+03 1.000000000000e-03 1.047197551197e-05 -4.839844434682e-03 9.901262593452e-03 1.890676197727e-03
243 2 7.733833698234e-03 6.670484457176e-05 1.218152966317e-03 -7.264702298876e+00 6.799998312032e+00 -9.777028921662e+00 3.581461974595e+03 -2.393346441632e+03 1.915783959213e+03 1.000000000000e-03 1.047197551197e-05 7.264771672336e-03 -6.800063247853e-03 9.777122286303e-03
244 2 2.488870658048e-03 1.131721270694e-02 1.358076076702e-02 -1.998088639394e+01 9.167123387258e-01 -1.070167270284e+01 -9.820490128935e+03 1.519849212747e+04 -3.061350854801e+03 1.000000000000e-03 1.047197551197e-05 1.998107719917e-02 -9.167210927674e-04 1.070177489726e-02
245 2 7.151824167095e-03 1.150774711405e-02 8.988294775314e-03 1.964896099845e+00 2.755364974964e+01 1.144251087254e+01 -6.275812119079e+03 7.457675336119e+03 4.332029406654e+02 1.000000000000e-03 1.047197551197e-05 -1.964914863400e-03 -2.755391287013e-02 -1.144262014151e-02
246 2 5.793167484822e-03 1.406895764124e-02 5.770645646924e-03 -6.197057272178e+00 1.781276847671e+01 -7.072624794956e+00 -6.963704186448e+03 -3.489020003238e+03 -4.436759955072e+02 1.000000000000e-03 1.047197551197e-05 6.197116450281e-03 -1.781293857774e-02 7.072692334193e-03
247 2 1.296512520739e-03 1.476336997709e-02 1.353872329989e-03 1.839568225706e+00 -6.347823546704e+00 -6.536038223723e+00 -9.914644480782e+02 -1.078532646875e+04 8.920527467886e+03 1.000000000000e-03 1.047197551197e-05 -1.839585792457e-03 6.347884164532e-03 6.536100638886e-03
248 2 6.197830217644e-03 7.615265319859e-04 1.120900148436e-02 -5.691274590961e+00 1.128185880035e+01 5.838856028761e+00 -8.774758689071e+03 1.246810908026e+04 5.905450850001e+02 1.000000000000e-03 1.047197551197e-05 -1.182673171202e+01 -5.512949001523e+01 -4.678598449323e+00
249 2 9.883326113522e-03 1.519429393277e-02 1.326061422736e-02 1.254047041664e+01 -1.219088611750e+00 4.274715538282e+00 5.343034582284e+03 -4.864107854784e+03 3.829093887799e+03 1.000000000000e-03 1.047197551197e-05 -1.254059017045e-02 1.219100253300e-03 -4.274756359199e-03
250 2 1.487778597733e-02 1.486116881130e-02 3.293849847114e-03 6.590771020255e+00 1.174382115275e+01 8.824608122907e+00 5.511612413468e+03 -1.232623240646e+04 -4.399775808044e+03 1.000000000000e-03 1.047197551197e-05 -6.590833958083e-03 -1.174393329905e-02 -8.824692392512e-03
251 2 5.074714827023e-03 8.448012647866e-03 2.999075901655e-03 -9.304283108974e+00 2.858940713953e+00 4.167935989581e+00 -8.630172656158e+02 -1.581643108797e+04 -1.024510859244e+04 1.000000000000e-03 1.047197551197e-05 9.304371959181e-03 -2.858968015087e-03 -4.167975790818e-03
252 2 1.077681505862e-02 1.211513072366e-04 6.950716160998e-03 1.282800120436e+00 -2.744131788787e+00 9.117100404724e+00 -5.331354982968e+03 2.144881368501e+03 1.032566852223e+03 1.000000000000e-03 1.047197551197e-05 -1.282812370391e-03 2.744157993565e-03 -9.117187467451e-03
253 2 5.681633355427e-03 3.909926750525e-03 1.399422688213e-02 5.733641518136e-02 -8.008143599627e+00 -8.245400694111e+00 -8.106871388888e+03 -1.246900164597e+01 -1.131292147476e+03 1.000000000000e-03 1.047197551197e-05 -5.733696270902e-05 8.008220072496e-03 8.245479432639e-03
254 2 3.690445465738e-03 8.783377624636e-03 4.690447466878e-03 -1.469746515864e+01 1.477091066658e+01 1.280847900218e+00 5.261856185686e+01 -1.760602178345e+04 4.584273806471e+03 1.000000000000e-03 1.047197551197e-05 1.469760551043e-02 -1.477105171973e-02 -1.280860131531e-03
255 2 9.241485044376e-04 1.021251260137e-02 1.360797625475e-02 -7.014835736957e+00 -1.035465817734e+00 -2.557548376831e+00 2.646304621030e+01 -6.540995307768e+03 -3.141871524990e+02 1.000000000000e-03 1.047197551197e-05 7.014902724344e-03 1.035475705799e-03 2.557572799852e-03
256 2 1.054822866195e-02 3.700429750566e-03 2.297571918379e-03 -1.580073399424e+01 -8.009892691036e+00 -9.880335381064e+00 9.283710098932e+03 1.266000191120e+03 1.495661641869e+04 1.000000000000e-03 1.047197551197e-05 1.580088488158e-02 8.009969180607e-03 9.880429732218e-03
257 2 6.180304329862e-04 9.776217817169e-03 4.447432287940e-03 -3.971781068368e+00 1.156836277123e+01 8.307015044305e-01 -1.525407273020e+04 -2.628542646841e+03 2.101134851372e+03 1.000000000000e-03 1.047197551197e-05 3.971818996446e-03 -1.156847324202e-02 -8.307094371213e-04
258 2 9.154185397172e-03 9.423512946846e-03 1.130528316848e-03 5.462179413710e-01 -2.417943832687e+00 -1.386648702737e+01 -3.054403211760e+03 6.181686150642e+03 3.465843206902e+03 1.000000000000e-03 1.047197551197e-05 -5.462231574179e-04 2.417966922570e-03 1.386661944383e-02
259 2 5.579485270505e-03 2.645898509029e-03 8.243403506673e-03 -1.503707203369e+01 1.587536337216e+01 1.922253667431e+00 -2.372612890303e+03 -5.200804116865e+03 -3.477971977802e+03 1.000000000000e-03 1.047197551197e-05 1.503721562853e-02 -1.587551497216e-02 -1.922272023777e-03
260 2 1.277236297038e-02 2.728793661047e-03 1.390057635543e-02 -2.817688389543e+01 8.664732745301e+00 3.025104533268e+01 -6.299415820920e+03 1.346491295133e+04 3.181519598567e+03 1.000000000000e-03 1.047197551197e-05 2.817715296742e-02 -8.664815488194e-03 -3.025133421164e-02
261 2 1.111364559781e-03 1.301693787958e-02 1.032536014176e-02 -7.002147889600e-01 2.057703334274e+01 -7.550481327785e+00 1.963664796660e+02 -4.291216031893e+03 1.005608351984e+04 1.000000000000e-03 1.047197551197e-05 7.002214755825e-04 -2.057722984081e-02 7.550553430259e-03
262 2 2.144627753095e-03 1.155709715075e-02 1.474648303365e-02 1.336496977123e+01 -8.357715402871e+00 -1.130994468162e+01 -1.168880008137e+04 -7.436340351444e+03 5.749255620150e+03 1.000000000000e-03 1.047197551197e-05 -1.586632238797e+00 -8.406026904773e-02 -3.496200993718e+00
263 2 1.301785135747e-02 5.640095004139e-03 5.927098162867e-03 1.831724750906e+00 -1.115209997043e+01 5.151946378638e+00 -1.823906048747e+03 -9.301270721515e+02 1.021088212471e+04 1.000000000000e-03 1.047197551197e-05 -1.831742242756e-03 1.115220646616e-02 -5.151995576572e-03
264 2 1.263791679775e-02 1.309620883772e-02 9.270674134363e-03 -2.437961016417e+01 1.272124545645e+01 -6.826205526775e+00 -1.121041755781e+04 -3.746538675510e+03 -5.255868189067e+03 1.000000000000e-03 1.047197551197e-05 2.437984297452e-02 -1.272136693656e-02 6.826270712859e-03
265 2 8.729555645286e-03 3.440496803785e-04 8.848589054345e-03 -4.207410373352e+00 -2.284071897782e+01 9.775061445704e+00 3.074876152878e+03 3.425129509472e+03 -2.509626507058e+03 1.000000000000e-03 1.047197551197e-05 4.207450551546e-03 2.284093709270e-02 -9.775154791556e-03
266 2 1.783484927224e-04 2.651842537521e-03 1.422454970653e-03 1.468756898742e+01 2.109894468337e+01 -2.010696698077e-01 -3.035924571387e+03 5.611536735404e+02 2.511745496319e+03 1.000000000000e-03 1.047197551197e-05 -1.468770924471e-02 -2.109914616538e-02 2.010715898999e-04
267 2 3.361690821561e-03 1.201521625549e-02 8.673794725936e-04 1.639084558647e+00 2.564167733871e+01 3.276672004967e+00 -1.327767533688e+04 -1.343119717040e+03 -8.685681909217e+02 1.000000000000e-03 1.047197551197e-05 -8.020904388546e-02 -3.495147829452e-01 6.632572147485e-01
268 2 7.658764979560e-04 1.493858183167e-02 1.167662512916e-02 -2.850790249556e+01 -3.604577518499e+00 -4.676645058847e+00 -7.308171989845e+03 6.760826129834e+03 5.037555348114e+03 1.000000000000e-03 1.047197551197e-05 2.850817472857e-02 3.604611940008e-03 4.676689717944e-03
269 2 1.215587275729e-03 1.219564074751e-02 1.200286244298e-03 -3.535160391515e-01 -4.790168079211e-01 4.645340127292e+00 2.476329361923e+03 -5.018037395653e+03 7.363288206177e+03 1.000000000000e-03 1.047197551197e-05 2.272488555388e+01 3.187144487949e+01 1.797060021563e+01
270 2 6.274523593584e-03 1.180368846967e-03 1.128144724407e-02 -6.636358580387e+00 -4.125527918377e+00 1.454753791875e+01 9.167100228361e+03 -2.226387787347e+03 -5.256801243077e+03 1.000000000000e-03 1.047197551197e-05 1.183905946291e+01 5.512233361601e+01 4.658211860698e+00
271 2 9.681246166949e-03 6.038721385626e-03 7.012932077863e-03 8.347901497672e-02 -3.053549929947e+01 -1.049312397122e+01 -9.435686935647e+03 -6.723190232346e+02 1.053561500056e+04 1.000000000000e-03 1.047197551197e-05 -8.347981215021e-05 3.053579089480e-02 1.049322417413e-02
272 2 1.312962358983e-02 1.184136290013e-02 8.630851992058e-03 1.776711936333e+01 1.104630997407e+01 -1.327521831799e+01 -4.100544480622e+03 1.020930550766e+04 1.350735021832e+03 1.000000000000e-03 1.047197551197e-05 -1.776728902845e-02 -1.104641545957e-02 1.327534508819e-02
273 2 1.237361737973e-02 6.437288012465e-03 2.809217512369e-03 9.613720353028e+00 2.952773086767e+01 1.007278730035e+01 -8.641854026864e+02 5.552227013800e+03 8.819493362503e+03 1.000000000000e-03 1.047197551197e-05 -9.613812158172e-03 -2.952801283943e-02 -1.007288348930e-02
274 2 1.002310448890e-02 8.079975391542e-03 1.421049759361e-02 -7.084012793289e+00 1.261055914916e+01 5.310774045588e+00 1.744615175099e+03 1.538058133572e+03 1.991235846816e+03 1.000000000000e-03 1.047197551197e-05 7.084080441275e-03 -1.261067957228e-02 -5.310824760229e-03
275 2 8.355214603911e-03 1.051618532943e-02 3.677957660122e-03 -4.863492644789e+00 -2.927707916740e+01 5.347626456042e-01 1.199798387273e+04 1.409461232382e+04 2.325099033510e+03 1.000000000000e-03 1.047197551197e-05 4.863539088166e-03 2.927735874558e-02 -5.347677522600e-04
276 2 1.523721747346e-02 1.311549815160e-02 1.406270688355e-02 8.769793652257e+00 5.031951459382e+00 2.252875223785e+00 1.075409037671e+03 1.173516232351e+04 -3.400324708554e+03 1.000000000000e-03 1.047197551197e-05 -8.769877398417e-03 -5.031999511438e-03 -2.252896737364e-03
277 2 1.445973743259e-02 6.999137287600e-04 5.183107376402e-03 1.439705530099e+01 2.776991862892e-01 -4.748118142103e+00 1.419963524332e+04 -1.096016999992e+03 -1.040038356015e+04 1.000000000000e-03 1.047197551197e-05 -1.439719278405e-02 -2.777018381464e-04 4.748163483725e-03
278 2 5.066842630412e-03 1.305378858982e-02 1.246033521531e-02 -2.469127570466e+01 4.428272680498e+00 1.711731396089e+01 1.617971705879e+04 -9.747114058036e+03 2.599769049878e+03 1.000000000000e-03 1.047197551197e-05 2.469151149122e-02 -4.428314967791e-03 -1.711747742075e-02
279 2 2.036400513414e-03 1.323537423219e-02 7.405406862866e-03 1.262842638812e+01 -7.782213432173e+00 -1.071899224360e+01 1.111620756178e+04 -1.054428843725e+04 9.460294643746e+03 1.000000000000e-03 1.047197551197e-05 -1.262854698186e-02 7.782287747547e-03 1.071909460342e-02
280 2 1.067233798391e-02 1.066371761446e-02 1.143086627463e-02 3.526211383871e+00 -1.028500391651e+01 -3.915133117374e+00 -2.161248852496e+03 -2.954672565703e+03 -9.753827602474e+02 1.000000000000e-03 1.047197551197e-05 -3.375766401159e+01 -1.635493450906e+01 2.518724360027e+01
281 2 7.433866023118e-03 4.494271193434e-03 1.079081633511e-02 1.137474681248e+01 -2.878806125523e+01 1.740403236916e+01 -1.019995316180e+03 -1.057176829719e+04 7.793821548110e+03 1.000000000000e-03 1.047197551197e-05 -1.137485543435e-02 2.878833616359e-02 -1.740419856701e-02
282 2 1.234644674511e-02 1.525288657952e-02 5.784292003294e-03 -2.753405540009e+01 2.935481067420e+01 -2.399598957677e+01 1.063140764356e+03 -9.292024246341e+03 7.497583659810e+03 1.000000000000e-03 1.047197551197e-05 2.753431833346e-02 -2.935509099467e-02 2.399621872378e-02
283 2 1.341440183630e-02 8.192170702233e-03 1.364202423650e-02 -5.446611561391e+00 1.548311656912e+01 -6.222415217312e+00 1.596628401219e+04 -5.602615547155e+03 1.375397110817e+03 1.000000000000e-03 1.047197551197e-05 5.446663573197e-03 -1.548326442341e-02 6.222474637568e-03
284 2 1.079125320817e-02 1.185161184207e-02 1.089168547592e-02 -1.087119359197e+01 -3.714188550701e+00 -2.491885596184e+00 -1.402475853512e+03 -8.638580889650e+03 2.352719903407e+02 1.000000000000e-03 1.047197551197e-05 1.087129740522e-02 3.714224018927e-03 2.491909392165e-03
285 2 1.212757419039e-02 7.181600688482e-03 1.419013107281e-02 5.824225039561e+00 7.991901829146e+00 -2.059450592313e+00 8.043294650411e+03 -5.894727947668e+03 6.105511541765e+03 1.000000000000e-03 1.047197551197e-05 -5.824280657345e-03 -7.991978146916e-03 2.059470258806e-03
286 2 8.306381673399e-03 1.444901464126e-02 2.051309644283e-03 5.681398954088e+00 -2.301815194942e+01 1.720609413310e+01 -3.198661508493e+03 -7.850163808165e+03 -5.088357838418e+03 1.000000000000e-03 1.047197551197e-05 -5.681453207970e-03 2.301837175868e-02 -1.720625844077e-02
287 2 1.169786698436e-02 4.517152161175e-03 8.496897064239e-03 -5.410225675765e+00 7.979657052203e+00 1.595996790220e+01 -1.995507765365e+03 -9.098891076214e+03 6.950358750096e+03 1.000000000000e-03 1.047197551197e-05 5.410277340107e-03 -7.979733253043e-03 -1.596012031012e-02
288 2 3.034465181819e-03 3.181514239715e-03 1.368871453416e-02 -1.564744649492e+01 1.418431625243e+01 -2.504789391203e+00 1.332508149120e+04 -8.693520697487e+03 -1.278904960118e+04 1.000000000000e-03 1.047197551197e-05 1.564759591845e-02 -1.418445170397e-02 2.504813310408e-03
289 2 7.531272477703e-03 1.495031661031e-02 1.395687857586e-02 -8.327706770378e+00 -1.217329353970e+01 -2.274832873527e+00 -3.855536972953e+03 -1.741671480123e+03 6.146187469606e+03 1.000000000000e-03 1.047197551197e-05 8.327786294880e-03 1.217340978720e-02 2.274854596789e-03
290 2 1.596281773968e-03 9.864679230835e-03 8.545651327704e-04 -2.103935247981e+01 -4.767517977261e+00 1.053632111109e+01 6.003023722535e+03 -6.943265520556e+03 8.774421258430e+03 1.000000000000e-03 1.047197551197e-05 7.798226790398e-01 2.719061869095e-01 -1.619405435514e+00
291 2 7.725236334844e-03 7.785347962831e-03 1.198583041824e-02 1.199786497245e+01 2.090725636641e+01 -1.469199216553e+01 -4.184608837591e+03 -6.264561592768e+03 -7.687576406107e+03 1.000000000000e-03 1.047197551197e-05 -1.199797954471e-02 -2.090745601791e-02 1.469213246506e-02
292 2 9.263447817023e-04 7.323256540972e-05 1.166219365058e-03 -1.119561897304e+00 -1.720952938181e+01 1.925469356349e+00 2.591114354726e+03 2.628112426015e+03 8.070887383758e+02 1.000000000000e-03 1.047197551197e-05 1.119572588435e-03 1.720969372228e-02 -1.925487743402e-03
293 2 1.302532111285e-02 1.402242057380e-02 1.063993404994e-02 1.688997571178e+01 6.031110222436e+00 -7.441486491901e+00 3.640322752016e+03 3.914615137320e+03 -2.203984306864e+03 1.000000000000e-03 1.047197551197e-05 -1.689013700070e-02 -6.031167815846e-03 7.441557553541e-03
294 2 7.796208028024e-03 7.411248898036e-03 3.383988634353e-03 1.056773354607e+00 -1.549707723801e+01 7.230882961860e+00 1.613595908213e+04 1.330193785198e+03 -2.473977064261e+03 1.000000000000e-03 1.047197551197e-05 -1.056783446146e-03 1.549722522561e-02 -7.230952012366e-03
295 2 5.004404176611e-03 1.678528579042e-03 1.004332586391e-02 -1.730642796874e+01 1.675310985261e+01 -8.660322204123e+00 5.245652466166e+03 -1.136082504013e+03 1.820573721975e+03 1.000000000000e-03 1.047197551197e-05 1.730659323453e-02 -1.675326983455e-02 8.660404904898e-03
296 2 5.504554520759e-03 1.038533262959e-02 1.342458741575e-02 2.229210921742e+01 9.160993896800e+00 5.557995294857e-01 6.374355361802e+03 -9.015731743353e+03 3.186203303483e+03 1.000000000000e-03 1.047197551197e-05 -2.229232209341e-02 -9.161081378683e-03 -5.558048370309e-04
297 2 9.657407852773e-03 4.791694934010e-03 1.119842001829e-02 -8.024147229556e+00 -2.121100986238e+00 -5.013827129514e+00 -4.789876365046e+03 -8.040503252977e+03 3.713375194847e+02 1.000000000000e-03 1.047197551197e-05 8.024223855249e-03 2.121121241454e-03 5.013875008493e-03
298 2 1.202554771937e-02 1.213923735990e-02 8.651929721770e-04 4.818691709363e+00 -1.916857847436e+00 -1.233819766819e+01 2.653971859593e+03 5.948796087620e+03 -1.242174291761e+04 1.000000000000e-03 1.047197551197e-05 7.531797155217e-01 -4.926709929312e-01 6.021693843305e+00
299 2 7.430931371598e-03 1.028445894218e-02 7.946738587839e-03 -1.737743049888e+01 -1.218534706769e+01 6.232828983095e+00 -8.792104633452e+03 4.594036271062e+03 5.491752590449e+03 1.000000000000e-03 1.047197551197e-05 1.737759644270e-02 1.218546343030e-02 -6.232888502796e-03
300 2 8.097620803100e-03 6.232164580057e-03 1.035605000925e-02 2.550466192415e+00 7.208173311515e+00 1.248410933542e+01 4.155276830675e+03 -5.843995071604e+03 7.715238177036e+03 1.000000000000e-03 1.047197551197e-05 -2.550490547805e-03 -7.208242145157e-03 -1.248422855102e-02
301 2 2.618231750673e-03 2.450238742603e-03 5.157150078535e-03 -1.090727650299e+00 -8.602154074243e+00 1.048536568174e+01 -9.360038478849e+03 -1.232952004025e+04 -1.529381828441e+02 1.000000000000e-03 1.047197551197e-05 1.090738066081e-03 8.602236219548e-03 -1.048546581056e-02
302 2 1.069817812140e-02 7.308229760819e-03 1.137536616759e-02 6.251837619440e+00 -5.782593944402e+00 -8.149460494882e+00 -6.609068551813e+03 3.118457132701e+03 -7.638168633431e+02 1.000000000000e-03 1.047197551197e-05 -6.251897320661e-03 5.782649164634e-03 8.149538317240e-03
303 2 4.260205358647e-03 5.672393123818e-03 3.718598557099e-03 8.350852926404e+00 -9.141610213401e+00 5.326417629781e+00 -8.386288730364e+02 1.109362157756e+04 -1.622078909496e+02 1.000000000000e-03 1.047197551197e-05 -8.350932671937e-03 9.141697510182e-03 -5.326468493809e-03
304 2 6.660786137378e-03 2.048754896791e-03 3.124156379964e-03 -3.010110008340e+00 1.943393891671e+01 -2.235421278730e+01 7.587630342486e+03 1.237634396069e+03 -1.355129763874e+03 1.000000000000e-03 1.047197551197e-05 3.010138753048e-03 -1.943412449893e-02 2.235442625635e-02
305 2 1.146765660065e-02 1.244517617890e-02 1.406128314561e-03 -8.688608873141e+00 1.569714550060e+01 8.264990712918e+00 -5.843452175147e+03 -2.798182158209e+03 4.233954665822e+03 1.000000000000e-03 1.047197551197e-05 8.688691844036e-03 -1.569729539873e-02 -8.265069638520e-03
306 2 1.360691879293e-02 1.003016535698e-02 1.062775517473e-03 3.903145906342e+01 -1.318626296775e+01 -2.710018085727e+00 -1.684261080829e+04 2.537433517342e+04 -7.481080560188e+02 1.000000000000e-03 1.047197551197e-05 -3.903183178996e-02 1.318638888849e-02 2.710043964740e-03
307 2 7.388777197380e-03 1.174589776176e-02 4.864381222418e-03 1.370050580413e+01 -1.136603142476e+01 8.749760651661e+00 -3.979888202114e+03 1.270815241987e+04 4.171512319320e+03 1.000000000000e-03 1.047197551197e-05 -1.370063663557e-02 1.136613996340e-02 -8.749844206518e-03
308 2 1.117816892089e-02 5.003368150109e-03 6.044130281456e-03 -8.844294056108e+00 -7.583085485285e+00 -2.330506641986e+00 6.531900169285e+03 -1.013761222027e+04 2.216300124873e+03 1.000000000000e-03 1.047197551197e-05 8.844378513702e-03 7.583157899108e-03 2.330528896898e-03
309 2 1.155301868464e-02 2.229986545812e-03 1.040699243541e-02 1.200695057690e+01 -4.721253052730e-01 2.290598232603e-01 -1.126391080424e+04 -2.095322012319e+03 1.441701102648e+03 1.000000000000e-03 1.047197551197e-05 -1.200706523593e-02 4.721298137806e-04 -2.290620106414e-04
310 2 7.512872649744e-03 1.380581303412e-03 2.938271164324e-03 5.837543291348e+00 -1.011796746071e+01 6.025164936559e+00 -7.791920571907e+03 -8.781473162051e+03 -1.585652362612e+03 1.000000000000e-03 1.047197551197e-05 -5.837599036313e-03 1.011806408111e-02 -6.025222473195e-03
311 2 9.297135078677e-03 8.349376299909e-03 4.755526407788e-03 1.096639407800e+00 -3.112029190039e+01 7.988719902331e+00 6.312017597947e+03 1.302688380481e+02 -4.544357180085e+03 1.000000000000e-03 1.047197551197e-05 -1.096649880035e-03 3.112058908012e-02 -7.988796189715e-03
312 2 2.888264263434e-03 1.103021159198e-02 7.857048251455e-03 -5.900131904354e+00 2.406830577690e+01 -3.607312155221e-01 -3.360346977000e+03 4.555694865472e+03 1.373931320344e+03 1.000000000000e-03 1.047197551197e-05 5.900188247001e-03 -2.406853561448e-02 3.607346602844e-04
313 2 1.786060884106e-03 4.896268591377e-03 2.380627059488e-03 1.444190672794e+01 3.546924302834e+00 -4.497853012527e-01 -6.971500196149e+03 1.321664389225e+04 -7.233956554997e+03 1.000000000000e-03 1.047197551197e-05 -1.444204463931e-02 -3.546958173790e-03 4.497895964270e-04
314 2 9.037443032396e-03 7.285667873781e-04 2.860618994387e-03 -9.045449296584e-01 4.223152300978e+00 2.092807383916e+00 4.564584750795e+03 2.997906333204e+02 -2.078668955012e+03 1.000000000000e-03 1.047197551197e-05 9.045535675087e-04 -4.223192629497e-03 -2.092827368946e-03
315 2 7.195051630163e-03 5.864588357984e-03 1.031118972663e-02 1.785423760436e+01 -4.046055439575e+00 -1.475320910786e+01 5.459641886590e+03 1.124044065231e+04 -5.920887267876e+03 1.000000000000e-03 1.047197551197e-05 -1.785440810140e-02 4.046094076927e-03 1.475334999197e-02
316 2 7.244937979943e-03 1.332172559915e-02 1.312418322805e-02 -2.412777879704e+01 8.747330164383e+00 4.685436664651e+00 1.998435383721e+04 -1.775758034888e+03 -9.021584973263e+03 1.000000000000e-03 1.047197551197e-05 -4.047954963335e+01 7.611272352509e+00 -2.542565243040e+00
317 2 1.500758386606e-02 1.386123875219e-02 1.284702289866e-03 1.054217341932e+01 4.860159749006e+00 -3.100103424704e+00 4.270238617083e+03 -2.038317523241e+03 -3.864637921437e+03 1.000000000000e-03 1.047197551197e-05 -1.054227409063e-02 -4.860206160556e-03 3.100133028794e-03
318 2 2.459631480864e-03 1.115252075353e-02 1.047283427180e-03 -2.802665352426e+01 -5.864284186908e+00 5.546111422115e+00 5.512632417447e+03 -1.099559016412e+04 1.050437321702e+04 1.000000000000e-03 1.047197551197e-05 2.802692116164e-02 5.864340187232e-03 -5.546164384083e-03
319 2 4.723188159359e-03 7.230307818951e-03 3.716684309220e-03 5.121258848145e+00 1.715837005469e+01 -1.444602629836e+01 2.181177874261e+02 -8.399370188932e+03 -1.149467673402e+04 1.000000000000e-03 1.047197551197e-05 -5.121307753031e-03 -1.715853390662e-02 1.444616424907e-02
320 2 5.315732154165e-03 1.385295858285e-02 1.381611723957e-02 1.707914393579e+01 -2.471293523387e+00 -6.003452277942e+00 -7.846130767396e+03 4.767387355234e+03 -6.474101918507e+03 1.000000000000e-03 1.047197551197e-05 -1.707930703116e-02 2.471317122727e-03 6.003509607236e-03
321 2 2.815182931100e-04 1.453001178709e-02 1.440616567614e-02 -1.384482082846e+01 3.510057216826e-01 -1.413735902395e+00 -5.363837977954e+03 1.191311082886e+04 9.708070257099e+03 1.000000000000e-03 1.047197551197e-05 2.933957067854e-02 -4.673838176594e-02 9.922727650660e-02
322 2 2.002302202892e-03 4.672777409945e-03 6.866140122296e-03 -1.293057455295e+01 -1.180407089936e+01 -1.226519159751e+01 -3.879391278159e+03 -1.682163837135e+03 5.296620199547e+03 1.000000000000e-03 1.047197551197e-05 1.293069803202e-02 1.180418362101e-02 1.226530872258e-02
323 2 1.456122636166e-03 1.347644552019e-02 1.274521876718e-02 -1.396139304797e+01 9.238611509600e+00 -4.574748812530e+00 9.590038188055e+03 1.444481564526e+04 2.486148577629e+03 1.000000000000e-03 1.047197551197e-05 1.396152637073e-02 -9.238699732684e-03 4.574792498580e-03
324 2 3.187971002264e-03 3.569005294791e-05 1.443475175530e-02 8.996159393885e+00 -1.025520122198e+01 -1.250221102707e-01 -9.844349035184e+03 -7.919135617413e+03 1.160842118042e+03 1.000000000000e-03 1.047197551197e-05 -1.843644609816e-01 7.472509121960e-02 -5.609409439942e-01
325 2 1.283052853849e-02 5.261855219476e-03 1.372290196559e-02 -1.111548356147e+01 9.542807736404e+00 -9.270557783999e+00 7.990653550473e+03 -4.371636950971e+03 -2.860504645350e+03 1.000000000000e-03 1.047197551197e-05 1.111558970753e-02 -9.542898864376e-03 9.270646312150e-03
326 2 1.305352601574e-02 1.055675335267e-02 1.198834877126e-03 2.530864882703e+00 2.099200500351e+01 3.948098367876e+00 -1.218421659024e+04 4.959387146453e+02 3.844752272125e+03 1.000000000000e-03 1.047197551197e-05 -2.530889050913e-03 -2.099220546431e-02 -3.948136069798e-03
327 2 1.487417661561e-02 9.993750825028e-03 1.424421242731e-02 -5.447916740098e+00 3.631420517701e-01 1.501737659401e+01 -8.234139375357e+02 -3.793040114535e+03 2.236874224221e+03 1.000000000000e-03 1.047197551197e-05 5.447968764368e-03 -3.631455195543e-04 -1.501752000076e-02
328 2 4.602099922525e-03 5.513821008771e-03 1.292917585336e-02 1.248279384139e+01 5.968130537028e+00 -7.464979482528e+00 -5.075425430264e+03 -1.046357212866e+04 -3.416675905155e+02 1.000000000000e-03 1.047197551197e-05 -3.115157457491e+01 -1.758905483152e+01 -1.506332283801e+00
329 2 3.412112984968e-03 1.372305214749e-02 1.352602000680e-02 7.734296240859e+00 -4.195192325764e+00 3.050449126075e-01 6.946150639435e+03 2.728901333975e+03 3.753903265019e+03 1.000000000000e-03 1.047197551197e-05 -7.734370098653e-03 4.195232387282e-03 -3.050478255996e-04
330 2 7.084416205256e-03 7.180050064593e-04 1.147582670003e-02 -3.749806175033e+00 2.970474566654e+01 -2.122708757237e+01 -8.587520021766e+03 -8.475612168069e+03 -2.332164589022e+03 1.000000000000e-03 1.047197551197e-05 3.749841983386e-03 -2.970502932867e-02 2.122729027806e-02
331 2 1.330231906300e-02 4.226775611337e-03 6.068504738302e-03 -4.519411406589e+00 3.386838779913e+00 -9.889163318275e+00 6.410207014967e+03 1.283689042101e+04 -2.434377505976e+02 1.000000000000e-03 1.047197551197e-05 4.519454564201e-03 -3.386871122149e-03 9.889257753730e-03
332 2 1.777981321763e-03 3.535230151251e-03 1.440533972149e-02 -7.578996856523e+00 1.051592172965e+01 5.307341035994e+00 1.158594733563e+03 1.090226504968e+04 -2.411073355201e+03 1.000000000000e-03 1.047197551197e-05 2.555904879694e-01 6.928648007603e-01 -1.525451737621e+00
333 2 1.077544557102e-02 7.869609892330e-03 1.219070449917e-02 -3.132276335077e+01 1.201373086109e+01 2.116232537411e+01 -4.761798160865e+03 1.007743381984e+03 -8.069116617165e+02 1.000000000000e-03 1.047197551197e-05 3.132306246398e-02 -1.201384558486e-02 -2.116252746136e-02
334 2 3.271870064080e-03 6.388279552845e-03 1.290043782948e-03 -6.031413855287e+00 -1.648808884638e+01 -1.477487905185e+00 -1.531292117335e+04 -1.344345786782e+04 -3.633196271601e+03 1.000000000000e-03 1.047197551197e-05 6.031471451596e-03 1.648824629754e-02 1.477502014290e-03
335 2 2.084773493993e-03 7.530118891979e-03 1.007043980406e-03 -6.992546798912e+00 1.181155086441e+01 -9.816252360741e+00 9.989457493571e+03 -5.087139860456e+03 1.943716441158e+03 1.000000000000e-03 1.047197551197e-05 6.992613573453e-03 -1.181166365749e-02 9.816346099941e-03
336 2 1.282176591880e-02 9.497493084235e-03 8.382687414321e-03 3.419579150707e+00 -1.483387016571e+01 -1.088151900404e+01 -1.024446268503e+03 4.658881380128e+02 -2.959423770703e+03 1.000000000000e-03 1.047197551197e-05 -3.419611805595e-03 1.483401182009e-02 1.088162291589e-02
337 2 1.148199358470e-03 1.621038277831e-03 1.439935082181e-02 -8.838034928947e-01 -7.179441901948e+00 -6.635660909141e+00 -7.180326687575e+03 9.164242596626e+02 1.656004216149e+03 1.000000000000e-03 1.047197551197e-05 -7.186460626296e-03 6.641035888697e-03 1.357468511118e+00
338 2 5.693332464164e-03 5.283114793861e-03 1.310414135658e-02 5.339793039670e+00 -2.225111592572e+01 2.159132660449e+00 -1.142980641653e+04 -3.387544726323e+03 -1.441864801108e+04 1.000000000000e-03 1.047197551197e-05 -5.339844031425e-03 2.225132841026e-02 -2.159153278844e-03
339 2 8.841723609596e-03 1.189451147966e-02 3.893527911415e-03 -1.670191614402e+01 -6.363247107235e+00 8.259441862719e+00 -3.285269403411e+03 5.917882723294e+03 -9.647322259374e+03 1.000000000000e-03 1.047197551197e-05 1.670207563709e-02 6.363307872349e-03 -8.259520735333e-03
340 2 1.149004953769e-02 1.312130495699e-02 2.738942660220e-03 -7.675535008411e+00 -1.021913719201e+01 7.708260057862e+00 1.045425266926e+04 -1.479837307108e+02 -4.659705701420e+03 1.000000000000e-03 1.047197551197e-05 7.675608305072e-03 1.021923477851e-02 -7.708333667026e-03
341 2 1.263152616634e-03 7.756071508869e-03 2.116387024169e-03 2.241857784714e+01 -1.345648055564e+01 1.211956646211e+01 -1.725653841307e+04 1.737038864891e+04 -2.775875428513e+02 1.000000000000e-03 1.047197551197e-05 -2.241879193083e-02 1.345660905679e-02 -1.211968219655e-02
342 2 3.755447034407e-03 5.775634326488e-03 1.186680564232e-02 -3.865977163006e+00 1.945363333579e+00 -1.293668379177e+01 4.038705333092e+03 1.102103399624e+04 -2.410812100109e+03 1.000000000000e-03 1.047197551197e-05 3.866014080721e-03 -1.945381910608e-03 1.293680732918e-02
343 2 1.182874386097e-02 1.379857011564e-02 9.165129134147e-03 -1.735534906604e+01 -7.429759061074e+00 6.850726515480e+00 -2.907139588124e+03 -3.421315328750e+03 -5.947876979521e+03 1.000000000000e-03 1.047197551197e-05 1.735551479900e-02 7.429830010725e-03 -6.850791935724e-03
344 2 1.412091006528e-02 2.474941634372e-03 3.851150756256e-03 8.351069697288e+00 -4.425527363512e+00 -3.109866521516e+01 1.344116490612e+04 1.866348839559e+04 7.716217309563e+03 1.000000000000e-03 1.047197551197e-05 -8.351149444891e-03 4.425569624589e-03 3.109896218837e-02
345 2 1.001128119200e-02 3.211750904310e-03 2.562378931164e-03 5.658497763530e+00 6.952409794273e+00 6.227204158103e+00 -7.177353770943e+03 5.822718682252e+03 -1.663717536475e+04 1.000000000000e-03 1.047197551197e-05 -5.658551798720e-03 -6.952476185530e-03 -6.227263624091e-03
346 2 1.274791567127e-02 1.161360227601e-02 1.530509362765e-03 -8.273169860132e+00 2.952630604840e+01 -3.437656716244e+00 8.056298653594e+02 -6.664264978525e+03 7.428885909146e+03 1.000000000000e-03 1.047197551197e-05 8.273248863840e-03 -2.952658800655e-02 3.437689543761e-03
347 2 7.054929877846e-03 1.213139087269e-02 1.373153278512e-02 1.449810067686e+01 8.628161521784e+00 -6.474562158984e+00 7.098529797196e+03 -9.108501626237e+03 -2.449618315907e+03 1.000000000000e-03 1.047197551197e-05 -1.449823912484e-02 -8.628243915444e-03 6.474623987089e-03
348 2 4.111899466680e-03 9.154811247888e-03 1.132946814221e-02 -9.935788537754e+00 6.884746746577e+00 -9.518426756241e+00 1.098730189448e+04 7.174422562639e+03 -5.218154068402e+03 1.000000000000e-03 1.047197551197e-05 9.935883418451e-03 -6.884812491694e-03 9.518517651389e-03
349 2 7.911324946441e-03 1.243575028436e-03 4.162701960634e-03 7.161950963788e+00 -3.578953800205e-01 3.867569173291e+00 5.105130133841e+01 -1.085009363335e+04 7.211783878333e+03 1.000000000000e-03 1.047197551197e-05 -7.162019356035e-03 3.578987977022e-04 -3.867606106209e-03
350 2 7.528985074508e-03 1.324654560004e-02 3.380463554394e-03 4.016071203220e+00 1.343787193053e+01 1.003097279754e+01 -1.165356558738e+03 -1.649265375716e+04 1.926397384852e+03 1.000000000000e-03 1.047197551197e-05 -4.016109554241e-03 -1.343800025398e-02 -1.003106858719e-02
351 2 2.833969756580e-03 3.779574927076e-03 7.627428338271e-03 -4.906558670103e+00 7.329012174668e+00 -1.182271788282e+01 4.925282778913e+03 -5.925798217038e+03 2.072591517500e+03 1.000000000000e-03 1.047197551197e-05 4.906605524735e-03 -7.329082162248e-03 1.182283078254e-02
352 2 1.203244400039e-02 1.239075200610e-02 8.405101091345e-03 8.081814719252e+00 2.295784096087e+01 1.449444952676e+01 -9.374624205056e+03 -8.794005723686e+03 9.403012258361e+03 1.000000000000e-03 1.047197551197e-05 -8.081891895635e-03 -2.295806019420e-02 -1.449458793988e-02
353 2 1.046719243451e-02 5.346301274033e-03 9.961733164214e-03 -2.838294985205e+01 -1.875385328957e+01 1.382023859558e+01 4.843675952986e+03 -6.937241029567e+02 1.371344692771e+04 1.000000000000e-03 1.047197551197e-05 2.838322089184e-02 1.875403237738e-02 -1.382037057040e-02
354 2 4.290481675341e-03 1.007674496872e-02 4.658357412764e-03 -8.085024007279e+00 1.199600675641e+01 1.360518540419e+01 2.812325440573e+03 2.106778260719e+04 7.625077322367e+03 1.000000000000e-03 1.047197551197e-05 8.085101214308e-03 -1.199612131093e-02 -1.360531532538e-02
355 2 6.212733469553e-03 1.263896370941e-02 8.725650187871e-03 1.373190735134e+01 -4.154323644909e+01 1.413188875324e+01 1.107844442910e+04 -2.491841010825e+03 6.127309351830e+03 1.000000000000e-03 1.047197551197e-05 -1.373203848265e-02 4.154363316156e-02 -1.413202370413e-02
356 2 1.498870863500e-03 1.227077928808e-02 4.296752537925e-03 -3.629724105026e+00 2.270394054652e+00 -1.447852991320e+01 6.173414482800e+03 1.093355545365e+03 -9.072028150385e+02 1.000000000000e-03 1.047197551197e-05 3.629758766669e-03 -2.270415735525e-03 1.447866817430e-02
357 2 2.073169277819e-03 1.360813194649e-02 8.250302326948e-03 -1.145785022876e+01 -4.984745103261e+00 4.511052882195e+00 1.087208511368e+04 9.258219283009e+03 -1.384290827585e+03 1.000000000000e-03 1.047197551197e-05 1.145795964421e-02 4.984792704525e-03 -4.511095959989e-03
358 2 2.784645110480e-03 1.090811030925e-03 9.789204209038e-03 8.508442784477e-01 2.119536169425e+01 -4.366215485641e-01 -5.575650422113e+03 -1.975370858673e+02 -3.088244678904e+02 1.000000000000e-03 1.047197551197e-05 -8.508524034896e-04 -2.119556409698e-02 4.366257180326e-04
359 2 2.675164953926e-04 1.148320553794e-02 8.786641049827e-04 -2.296819208936e+01 -1.027761446794e+01 5.708812964101e-01 6.926210185944e+03 -7.675102984338e+03 -2.244150510032e+03 1.000000000000e-03 1.047197551197e-05 6.880694894315e-01 1.617178161279e-01 1.363677696059e+00
360 2 2.890053638157e-03 9.653445314528e-03 1.121480062597e-02 1.979127199871e+01 3.169900763560e+01 3.731891427116e+00 -6.662522746517e+03 5.240899424342e+03 3.048469685011e+03 1.000000000000e-03 1.047197551197e-05 -1.979146099324e-02 -3.169931034172e-02 -3.731927064394e-03
361 2 4.460400589471e-03 1.003881735122e-02 1.464237330339e-02 1.468456678172e+01 -1.952667322213e+01 -1.336573423597e+01 -2.002698550170e+04 -1.513022381892e+04 2.893092478383e+03 1.000000000000e-03 1.047197551197e-05 -3.773259938313e-04 3.380536424891e-03 2.167374828513e-01
362 2 9.633221260403e-03 5.397190765386e-03 1.163072101238e-03 -4.654461382103e+00 -1.314336991866e+01 1.205648040561e+00 -2.932667373528e+03 -6.168225738126e+03 8.117861363948e+03 1.000000000000e-03 1.047197551197e-05 4.654505829360e-03 1.314349542980e-02 -1.205659553762e-03
363 2 7.206241004824e-03 4.233982631397e-03 3.634138583363e-03 -6.180248202121e-01 1.497878340556e+01 -1.465000930485e+01 9.208306488156e+03 6.714452804816e+03 -3.742203877491e+03 1.000000000000e-03 1.047197551197e-05 6.180307219707e-04 -1.497892644377e-02 1.465014920347e-02
364 2 6.695502892329e-03 9.314770549813e-03 6.568063970142e-03 -2.278333785482e+01 1.288648158621e+00 -3.749392748738e+00 -2.350010805179e+03 -1.286786248139e+04 3.596336545577e+02 1.000000000000e-03 1.047197551197e-05 2.278355542175e-02 -1.288660464422e-03 3.749428553143e-03
365 2 8.898655709616e-03 7.775888773239e-03 1.903415113601e-03 8.952711183767e+00 1.106405305157e+01 9.567223731876e+00 -1.118484490484e+04 9.166794049830e+03 -8.355552525729e+03 1.000000000000e-03 1.047197551197e-05 -8.952796676678e-03 -1.106415870651e-02 -9.567315093005e-03
366 2 1.038626373824e-03 2.667261034281e-03 1.865534468635e-03 2.263339175329e+01 2.117021992330e+00 1.265493672324e+01 3.435590539921e+03 2.482929325283e+03 -1.034593987747e+04 1.000000000000e-03 1.047197551197e-05 -2.263360788833e-02 -2.117042208594e-03 -1.265505757014e-02
367 2 7.180034844153e-03 1.267228341216e-02 1.087060840077e-03 -1.757578066867e+01 1.429960427516e+01 2.662641926740e-01 -1.984313640222e+03 1.611696313143e+03 -6.803200341592e+02 1.000000000000e-03 1.047197551197e-05 1.757594850662e-02 -1.429974082762e-02 -2.662667353341e-04
368 2 7.852414977380e-03 1.277246306380e-02 5.993289583336e-03 -3.323787352336e+00 1.519093906858e+01 -5.535628143774e+00 -4.603635655659e+03 9.257523114757e+02 -3.465003808337e+03 1.000000000000e-03 1.047197551197e-05 3.323819092471e-03 -1.519108413275e-02 5.535681005633e-03
369 2 5.145031463176e-03 5.430866862833e-03 5.477843932271e-03 -9.456059676149e-01 -1.669503371465e+01 1.191086443285e+01 -2.382945126588e+04 -9.580239798232e+03 -8.130989749793e+02 1.000000000000e-03 1.047197551197e-05 9.456149975730e-04 1.669519314200e-02 -1.191097817431e-02
370 2 1.861438011688e-03 1.399263616326e-02 1.145600821614e-02 -3.032361916619e+00 1.060600426826e+01 -1.105407028379e+01 -6.373911362054e+03 -1.063346477636e+04 9.568240893223e+03 1.000000000000e-03 1.047197551197e-05 3.032390873819e-03 -1.060610554910e-02 1.105417584339e-02
371 2 1.520114464050e-02 3.969499889319e-04 5.320289996151e-03 -1.803432657404e+00 1.226544611674e+01 -1.327231879174e+01 3.072602284330e+03 -3.349173017161e+03 2.874997799636e+03 1.000000000000e-03 1.047197551197e-05 1.803449879082e-03 -1.226556324425e-02 1.327244553426e-02
372 2 6.085977940565e-03 9.612987485218e-03 2.044980372249e-03 2.019378610676e+01 -7.947627251061e+00 1.431729810394e+00 5.423507307256e+03 3.063277244151e+03 7.938306175341e+02 1.000000000000e-03 1.047197551197e-05 -2.019397894505e-02 7.947703146035e-03 -1.431743482537e-03
373 2 2.487435247331e-03 1.433032097286e-03 8.874607031219e-03 7.194274600499e+00 -2.481772738300e+00 -8.721437229771e+00 -2.614669293384e+03 -7.753727878399e+03 -4.056043602033e+03 1.000000000000e-03 1.047197551197e-05 -7.194343301417e-03 2.481796437711e-03 8.721520514157e-03
374 2 2.210743733536e-03 8.799580616897e-03 1.074769734068e-02 -2.018099853494e+01 -1.036787491819e+01 2.580012171351e-01 -6.808545359263e+03 8.808617544384e+03 2.192097185873e+02 1.000000000000e-03 1.047197551197e-05 2.018119125112e-02 1.036797392505e-02 -2.580036808887e-04
375 2 4.621655695400e-03 1.341665909944e-02 8.023619949153e-03 -2.903365352394e+01 1.808870669618e+01 -1.326523359843e+01 -1.826499861436e+03 5.261786712243e+03 -3.131378307484e+03 1.000000000000e-03 1.047197551197e-05 2.903393077756e-02 -1.808887943225e-02 1.326536027329e-02
376 2 3.799216064792e-03 6.980773336463e-03 1.330359510568e-02 -4.165385906153e+00 -3.958192830974e-01 1.358955754154e+01 1.568901502500e+04 -1.045643607890e+04 -2.582311366813e+03 1.000000000000e-03 1.047197551197e-05 -3.885910544917e+01 3.569315502534e+01 1.857115980396e+01
377 2 1.494620750361e-02 1.310742829069e-02 6.210390827023e-03 -8.524472391416e-01 -2.777960663314e+00 -1.103569780871e+01 -8.213966097279e+02 1.507723849343e+03 1.115257225564e+04 1.000000000000e-03 1.047197551197e-05 8.524553794908e-04 2.777987191138e-03 1.103580319287e-02
378 2 1.505963572073e-02 9.852514210269e-03 1.326445270049e-02 -2.110417991055e+00 6.397086321108e+00 -3.028891625119e+01 1.130437328837e+04 2.628084624833e+03 9.462366283934e+03 1.000000000000e-03 1.047197551197e-05 2.110438144255e-03 -6.397147409366e-03 3.028920549180e-02
379 2 1.206475188420e-02 1.176446263449e-02 5.304621637459e-03 7.959040457682e+00 5.826363996090e+00 4.158750925582e+00 -3.734015549094e+03 -2.770834907158e+03 -1.167981590299e+04 1.000000000000e-03 1.047197551197e-05 -7.959116461646e-03 -5.826419634299e-03 -4.158790639107e-03
380 2 1.113237929144e-02 3.555366448708e-03 9.949641122846e-04 5.126730594000e+00 1.430107397652e+01 1.448375500906e+00 -3.477349317112e+03 -8.792515844742e+02 1.011802517149e+04 1.000000000000e-03 1.047197551197e-05 -5.432427281146e-02 -1.029435726284e-01 -2.042079681357e-01
381 2 7.300372504962e-03 4.223411154343e-03 5.265895926229e-03 1.626564408967e+01 4.563732919144e+00 1.056274147436e+01 1.311333388941e+04 1.209782076637e+04 -4.807207782720e+03 1.000000000000e-03 1.047197551197e-05 -1.626579941661e-02 -4.563776499999e-03 -1.056284234208e-02
382 2 8.300160492654e-04 1.176534191973e-02 1.028778551157e-03 -7.914808976213e+00 3.013156755000e+00 6.392487952956e+00 1.433364235886e+04 2.598488177822e+03 -7.347990970415e+02 1.000000000000e-03 1.047197551197e-05 -2.271661714991e+01 -3.187397904364e+01 -1.798163814912e+01
383 2 2.177977708031e-03 1.013841352570e-02 2.605239146766e-03 -2.365560539152e+01 3.031705203593e+01 1.114846905292e+01 -1.314905050329e+04 -2.078450564279e+03 5.721951469930e+03 1.000000000000e-03 1.047197551197e-05 2.365583128807e-02 -3.031734154522e-02 -1.114857551397e-02
384 2 1.290713450838e-03 7.736843207773e-03 3.225246256071e-03 3.519824783072e+00 1.649564137889e+01 -2.006084057328e+00 5.303460608029e+03 8.610731218050e+02 4.288497368668e+03 1.000000000000e-03 1.047197551197e-05 -3.519858395244e-03 -1.649579890217e-02 2.006103214202e-03
385 2 1.077704883105e-02 7.181789443728e-03 1.938481609641e-03 -7.074979483311e+00 -8.029500292279e+00 5.344594336653e+00 8.200434059817e+03 -7.230107402786e+03 -7.945521722336e+03 1.000000000000e-03 1.047197551197e-05 7.075047045034e-03 8.029576969091e-03 -5.344645374257e-03
386 2 8.785170054046e-03 3.043580302082e-03 1.256553527525e-02 -1.785220996193e+01 5.734383195436e+00 -2.165496917744e+01 6.901436286357e+03 -8.153735874765e+03 6.790674915401e+03 1.000000000000e-03 1.047197551197e-05 1.785238043961e-02 -5.734437955285e-03 2.165517596914e-02
387 2 1.033288482738e-02 1.492121076441e-02 1.438115387477e-02 -8.137554348608e+00 4.685479965305e+00 -1.099600891172e+00 2.239879454945e+03 7.212595572705e+03 -5.157851510698e+03 1.000000000000e-03 1.047197551197e-05 3.583091986079e-02 -7.840212245980e-02 1.585931664770e-01
388 2 3.371909058670e-03 5.291349929036e-03 8.308978557457e-03 3.428810559042e+01 8.607460874118e-01 -9.004531573817e+00 -1.435508572771e+03 -3.634914667999e+03 8.086633003100e+03 1.000000000000e-03 1.047197551197e-05 -3.428843302084e-02 -8.607543070099e-04 9.004617561581e-03
389 2 1.439866204806e-03 8.607658108290e-03 2.732473447998e-03 2.197769670972e+01 -4.691477035947e-01 6.088813465321e+00 1.070188142517e+03 -2.269521374567e+03 3.333442563156e+02 1.000000000000e-03 1.047197551197e-05 -2.197790658326e-02 4.691521836681e-04 -6.088871609762e-03
390 2 1.400950403730e-02 1.434956218431e-02 1.429717761535e-02 6.980271922171e+00 5.240125581466e+00 -9.686391104635e+00 -1.329863438560e+04 1.673421253353e+03 -7.097670173755e+02 1.000000000000e-03 1.047197551197e-05 -6.980338579495e-03 -5.240175621457e-03 9.686483603740e-03
391 2 6.973387249789e-03 5.287680244404e-03 6.662030642285e-03 7.316699940647e+00 1.755640233138e+01 1.597542483056e+01 -4.778552346770e+03 3.501238017078e+03 -1.839272896748e+03 1.000000000000e-03 1.047197551197e-05 -7.316769810652e-03 -1.755656998427e-02 -1.597557738608e-02
392 2 1.002128218842e-02 2.151703203180e-03 1.351784355431e-02 -1.885071310315e+01 -2.564183253731e+01 1.536119182615e+01 -3.580227465317e+03 -8.433811645530e+03 4.287334861893e+03 1.000000000000e-03 1.047197551197e-05 1.885089311592e-02 2.564207740111e-02 -1.536133851613e-02
393 2 5.856248927249e-04 2.726391646740e-03 6.003099900195e-03 1.755681233996e+00 3.068627736827e+01 1.780504281283e+00 -1.187397680749e+04 4.875315798882e+03 4.573567924801e+03 1.000000000000e-03 1.047197551197e-05 -1.755697999677e-03 -3.068657040343e-02 -1.780521284009e-03
394 2 6.254893775833e-03 5.397494974315e-03 2.113286389436e-03 -3.506099963303e+01 7.131998227301e+00 1.584975894298e+01 -2.976763796215e+03 -5.437385139391e+02 4.518261552653e+03 1.000000000000e-03 1.047197551197e-05 3.506133444411e-02 -7.132066333517e-03 -1.584991029848e-02
395 2 1.169387262670e-03 8.199369524685e-03 8.658187276751e-03 1.410013499531e+01 -6.309458289637e+00 1.468279994106e+01 1.935479400835e+04 4.757276130194e+03 8.641089353796e+03 1.000000000000e-03 1.047197551197e-05 -1.410026964296e-02 6.309518541101e-03 -1.468294015281e-02
396 2 5.159642258997e-03 1.807973737284e-04 7.450369704515e-03 -1.030415931601e+01 2.368740382602e-01 -4.460037631347e+00 1.850531692915e+03 8.204748712907e+03 8.434094240983e+03 1.000000000000e-03 1.047197551197e-05 1.030425771443e-02 -2.368763002623e-04 4.460080221976e-03
397 2 1.031497515071e-02 7.805616171121e-04 2.266070281013e-03 -5.879097111777e+00 1.054319681762e+01 -1.397109943660e+01 9.188993254247e+03 -5.375664386803e+03 2.441802479345e+03 1.000000000000e-03 1.047197551197e-05 5.879153253555e-03 -1.054329749870e-02 1.397123285205e-02
398 2 1.621627965235e-03 5.875014765635e-03 3.176389606135e-03 -2.394094771247e+01 -3.847871143860e+01 5.064719690311e+00 -7.524474199692e+03 4.255220431416e+03 8.535123148586e+03 1.000000000000e-03 1.047197551197e-05 2.394117633386e-02 3.847907888674e-02 -5.064768055284e-03
399 2 1.449310269721e-02 3.946676241771e-03 7.969544259733e-04 4.154938711410e+00 1.629354639892e+01 8.209561422292e+00 -1.651605729028e+04 4.368087607919e+03 -3.241256899170e+03 1.000000000000e-03 1.047197551197e-05 4.089512485705e-02 3.384461040843e-02 2.653512146221e-01
400 2 6.713795655035e-03 6.692890529571e-03 6.659588491698e-03 -1.188226209121e+00 -7.221167638893e+00 1.013666449876e+01 4.618609945956e+03 -1.826638040175e+04 -8.753795064975e+03 1.000000000000e-03 1.047197551197e-05 1.188237555954e-03 7.221236596623e-03 -1.013676129770e-02
401 3 1.215193545359e-02 3.629308027155e-03 1.198555396910e-02 -9.493020149033e+00 3.946812258519e+00 -4.160673208674e+00 4.683548782587e+03 -1.928105860496e+03 1.846801709676e+03 1.250000000000e-03 2.045307717181e-05 9.493066562912e-03 -3.946831555525e-03 4.160693551302e-03
402 3 1.116903585179e-02 5.996839659879e-05 1.286816126729e-02 -3.923164645364e-01 3.053443867412e+00 -9.602400342732e+00 1.928469568138e+03 -4.076278676995e+03 2.160190487638e+03 1.250000000000e-03 2.045307717181e-05 3.923183826751e-04 -3.053458796504e-03 9.602447291400e-03
403 3 1.449564777052e-02 1.210694334741e-02 2.198883366410e-03 -1.651660402315e+01 4.674946822364e+00 1.043302496729e+01 -6.148145835355e+03 4.705767378312e+02 -4.584848318183e+03 1.250000000000e-03 2.045307717181e-05 1.651668477718e-02 -4.674969679412e-03 -1.043307597711e-02
404 3 9.728788411143e-03 9.250690616269e-03 1.146353749940e-03 -7.018324166302e-01 1.386251719578e+01 3.117886061653e+00 1.416958122519e+03 -6.024079803259e+03 -3.670360272607e+03 1.250000000000e-03 2.045307717181e-05 -1.816616269615e-02 -5.701415180560e-02 -9.731045067463e-02
405 3 3.402197778415e-03 1.363094179885e-02 8.464887451342e-03 1.771770058213e+01 1.282329691711e+01 6.481383929371e-01 -3.546867521973e+02 3.461557017924e+03 -3.892691907601e+02 1.250000000000e-03 2.045307717181e-05 -1.771778720864e-02 -1.282335961359e-02 -6.481415618566e-04
406 3 8.082892723237e-03 1.396336296124e-02 1.219976877776e-02 -1.561638132915e+00 1.407297640033e+01 -1.015635984855e+01 5.047461750545e+03 1.688512636098e+03 4.464743664750e+03 1.250000000000e-03 2.045307717181e-05 1.561645768176e-03 -1.407304520682e-02 1.015640950568e-02
407 3 1.482475358127e-02 1.191113663646e-02 1.026309469548e-02 -9.614977875162e+00 1.390962621998e+01 -4.077494596611e+00 8.666971095522e+03 6.094863776788e+03 5.770111804853e+03 1.250000000000e-03 2.045307717181e-05 9.615024885325e-03 -1.390969422781e-02 4.077514532557e-03
408 3 1.527298375590e-02 7.326576029504e-03 2.511335108476e-03 -3.492634578088e+00 -2.229557161109e+01 1.138216007742e+00 -3.815088177701e+03 -1.879671574004e+03 -1.625248033603e+03 1.250000000000e-03 2.045307717181e-05 3.492651654500e-03 2.229568062002e-02 -1.138221572780e-03
409 3 4.920065564317e-03 6.097972465466e-03 6.745786582347e-04 -2.127599411450e+00 6.041522273356e+00 3.643278783082e-01 -4.615146302664e+03 -1.351009938446e+03 2.721936404978e+03 1.250000000000e-03 2.045307717181e-05 1.190516282298e+00 5.648367487033e-01 1.767593639058e+01
410 3 9.018198608896e-03 1.146795830610e-02 9.609231892898e-03 1.454650525872e+01 -1.127978107392e+00 2.003846851173e+00 -1.527533081804e+03 4.008049454982e+03 5.041087618910e+03 1.250000000000e-03 2.045307717181e-05 -1.454657638042e-02 1.127983622375e-03 -2.003856648509e-03
411 3 9.741042730073e-04 2.761137535879e-04 2.997620647306e-03 -1.769693611072e+00 -1.463157825039e+01 1.338176534489e+01 4.846992177800e+03 7.490447686506e+03 -6.375150589094e+03 1.250000000000e-03 2.045307717181e-05 1.769702263570e-03 1.463164978803e-02 -1.338183077187e-02
412 3 3.139330071559e-03 9.080444409430e-03 1.676005495931e-03 7.649426259798e+00 -2.810994777574e+00 -1.228424454678e+01 1.974313078512e+03 -4.224195124570e+03 1.111041485835e+03 1.250000000000e-03 2.045307717181e-05 -7.649463659860e-03 2.811008521269e-03 1.228430460769e-02
413 3 6.191794806300e-03 8.205447440649e-03 3.298353421684e-03 1.113948623817e+00 -1.559080836267e+00 -1.451915411310e+00 -3.128463137861e+02 -3.896542922078e+03 3.122261995894e+03 1.250000000000e-03 2.045307717181e-05 -1.113954070205e-03 1.559088459025e-03 1.451922510108e-03
414 3 3.437818052797e-03 3.745917514487e-03 9.884884472806e-03 3.065428566597e+00 3.067648872459e+01 2.139500965961e+00 2.049165232661e+03 9.374836854124e+02 -1.814321931005e+03 1.250000000000e-03 2.045307717181e-05 -3.065443554286e-03 -3.067663871003e-02 -2.139511426546e-03
415 3 3.829464983741e-03 4.937789341693e-03 1.273315469787e-02 -1.213824129485e+01 1.630889216247e+00 -6.648602780678e+00 5.588893581694e+03 7.002054479163e+03 -7.908285660873e+02 1.250000000000e-03 2.045307717181e-05 1.213830064192e-02 -1.630897190094e-03 6.648635287451e-03
416 3 3.281436849196e-03 1.902336348670e-03 3.789104688960e-03 9.231210260125e+00 -1.830423924565e+01 2.550576606101e+00 3.371526800201e+03 6.272378006490e+03 -4.744007176812e+03 1.250000000000e-03 2.045307717181e-05 -9.231255393947e-03 1.830432873990e-02 -2.550589076542e-03
417 3 1.162150274709e-02 4.471640088145e-03 2.862222279006e-03 2.042867359145e+01 -2.209332951392e+00 -4.889428039758e+00 5.242630751439e+03 -3.308764196616e+03 -5.238313280948e+03 1.250000000000e-03 2.045307717181e-05 -2.042877347263e-02 2.209343753404e-03 4.889451945462e-03
418 3 1.399757308248e-03 4.100028912052e-04 1.435966715832e-02 5.683716723976e+00 -1.701231117687e+01 9.228838653245e+00 -4.326838482519e+03 2.882198556478e+03 -1.530524216246e+03 1.250000000000e-03 2.045307717181e-05 -8.957580263754e-01 1.125469495275e+00 -1.015141528835e+01
419 3 1.806056169146e-03 5.548812946112e-03 3.641412358070e-03 9.792126617330e+00 1.707394631153e+01 8.569487467249e+00 -6.908975742200e+03 -1.011380016404e+04 5.730870246406e+03 1.250000000000e-03 2.045307717181e-05 -9.792174493620e-03 -1.707402979056e-02 -8.569529365733e-03
420 3 5.519768308089e-03 6.638854318585e-03 1.393924040447e-02 3.555466333196e+00 -1.210410217008e+01 4.620775996530e+00 7.698168479880e+03 6.174861793567e+03 -2.369748514310e+03 1.250000000000e-03 2.045307717181e-05 -3.555483716809e-03 1.210416135023e-02 -4.620798588722e-03
421 3 1.057818325533e-02 5.263312658914e-03 1.375651959917e-02 -3.000377024385e+00 8.914545380173e+00 2.718728097638e+00 2.290553603929e+03 2.940002607761e+03 -1.345660249421e+03 1.250000000000e-03 2.045307717181e-05 3.000391694020e-03 -8.914588965737e-03 -2.718741390216e-03
422 3 2.611499608735e-03 1.371541788699e-02 4.528210751937e-03 -2.985591488790e+01 -2.440333919414e+00 3.039805896743e+00 -1.091430513240e+03 -2.710144205804e+03 -5.400160421857e+03 1.250000000000e-03 2.045307717181e-05 2.985606086134e-02 2.440345850850e-03 -3.039820759156e-03
423 3 5.769905451053e-03 1.010149460600e-02 4.550481698899e-03 7.305095272190e+00 3.914826032681e+00 -2.290976347281e+01 7.428530204872e+03 -1.800758723697e+03 -4.510692742664e+03 1.250000000000e-03 2.045307717181e-05 -7.305130988727e-03 -3.914845173298e-03 2.290987548469e-02
424 3 1.167423756055e-02 1.470338944760e-02 1.155912790629e-02 1.259161732996e+01 -2.458964578061e+00 2.253184910055e+01 -5.152834266581e+03 -1.014245791093e+04 4.258133562441e+03 1.250000000000e-03 2.045307717181e-05 -1.259167889370e-02 2.458976600588e-03 -2.253195926471e-02
425 3 1.244882771474e-03 9.394176718085e-03 1.340357744644e-02 8.635333442735e-01 4.363695976337e+00 -2.435153494104e+00 -4.475883848230e+03 1.200691897219e+04 6.717648133224e+03 1.250000000000e-03 2.045307717181e-05 -8.635375663157e-04 -4.363717311598e-03 2.435165400212e-03
426 3 5.378392516094e-03 4.667337249427e-03 9.421074635894e-03 5.059315219491e+00 9.543374294473e+00 -1.428747437746e+01 1.222678077910e+03 -1.340872423130e+03 9.261822213149e+02 1.250000000000e-03 2.045307717181e-05 -5.059339955817e-03 -9.543420954547e-03 1.428754423269e-02
427 3 7.581367754795e-03 1.351024260968e-02 9.777879880132e-03 -1.798419309845e+01 7.988001559110e+00 -5.175783934537e+00 -3.515276037996e+03 -2.818213872925e+03 4.633533921489e+03 1.250000000000e-03 2.045307717181e-05 1.798428102791e-02 -7.988040614557e-03 5.175809240309e-03
428 3 1.318591143576e-02 2.245340128516e-03 4.480699369445e-03 -2.011618080943e-01 9.361619282096e+00 7.884231652587e+00 -9.221022982851e+03 -1.006169238506e+04 2.401112280385e+03 1.250000000000e-03 2.045307717181e-05 2.011627916274e-04 -9.361665053522e-03 -7.884270200675e-03
429 3 1.184158478611e-02 1.487776335883e-02 6.749308769702e-03 -5.037960546481e+00 -2.720191088723e+00 -2.182322500139e+00 -1.907272663491e+03 -9.236402344635e+01 -4.299559205735e+02 1.250000000000e-03 2.045307717181e-05 5.037985178399e-03 2.720204388455e-03 2.182333170089e-03
430 3 1.315934705347e-03 7.662822292548e-03 1.265699581916e-02 -5.607738417745e+00 -1.260382805505e+01 5.027746088069e+00 -3.256047463736e+03 7.095528115734e+03 -1.915118818205e+03 1.250000000000e-03 2.045307717181e-05 5.607765835457e-03 1.260388967849e-02 -5.027770670045e-03
431 3 2.966505615193e-03 2.981257135868e-03 3.303870288233e-03 2.490557924658e+00 4.260706343272e+00 1.542341815020e-01 1.381340197504e+04 1.784030747399e+03 1.795639367121e+03 1.250000000000e-03 2.045307717181e-05 -2.490570101653e-03 -4.260727174989e-03 -1.542349355936e-04
432 3 5.933749290849e-03 1.448364083895e-02 1.262860336201e-02 -1.057082762858e+01 1.749678644074e+01 1.556163885222e+01 -3.702091270181e+03 6.618595148974e+01 -2.862298687687e+03 1.250000000000e-03 2.045307717181e-05 1.057087931214e-02 -1.749687198714e-02 -1.556171493718e-02
433 3 2.388413935651e-03 1.442958819069e-02 4.901248551637e-03 -1.782647374799e+00 -9.019445086042e-01 -1.225870164988e+01 -9.331704162874e+01 5.846267443328e+03 -2.638377910749e+03 1.250000000000e-03 2.045307717181e-05 1.782656090633e-03 9.019489184488e-04 1.225876158590e-02
434 3 1.521349951611e-02 4.004508383761e-03 3.393001681041e-03 9.610123466691e+00 -7.485618436161e+00 1.085125904543e+01 -2.470952632155e+03 1.518530272895e+03 8.168751317820e+02 1.250000000000e-03 2.045307717181e-05 -9.610170453119e-03 7.485655035324e-03 -1.085131210010e-02
435 3 8.291245813626e-03 6.342183713846e-03 2.394615891169e-03 -1.658226041517e+00 -5.786003793317e+00 -5.888000283498e+00 3.029139721969e+03 1.634842402934e+03 5.787737282736e+03 1.250000000000e-03 2.045307717181e-05 1.658234149021e-03 5.786032082616e-03 5.888029071484e-03
436 3 5.108710565016e-03 1.890567398883e-03 7.417892756628e-03 -1.485538389145e+01 -2.781709474163e+00 -1.750139749605e+01 4.453306548114e+03 2.538871967397e+03 -1.679026236840e+03 1.250000000000e-03 2.045307717181e-05 1.485545652334e-02 2.781723074674e-03 1.750148306500e-02
437 3 9.971763680592e-03 1.213930604267e-02 6.725785026461e-03 -1.931132026469e+01 1.484180099651e+01 -7.465117328252e+00 4.798515027296e+03 1.929496426399e+03 1.045101070740e+02 1.250000000000e-03 2.045307717181e-05 1.931141468283e-02 -1.484187356199e-02 7.465153827179e-03
438 3 6.173019340859e-03 7.559359366922e-03 7.649299671059e-03 -4.369529581378e+00 -1.051752923882e+01 3.180956293124e-01 5.959948451366e+03 3.341980006022e+03 4.642731141138e+03 1.250000000000e-03 2.045307717181e-05 2.729541123676e+01 -4.069692416001e+01 8.073637564537e+01
439 3 4.711492599116e-04 1.107135086284e-02 7.419783399587e-03 -5.436198273288e+00 5.352611850493e+00 4.101553514770e-02 2.223217193872e+03 -1.185938892973e+04 1.245711561858e+03 1.250000000000e-03 2.045307717181e-05 5.436224852295e-03 -5.352638020824e-03 -4.101573568347e-05
440 3 1.405210937992e-02 2.650726235075e-03 1.267964447643e-02 9.520140738423e+00 -1.941859942375e+00 -2.713153368170e+00 -4.008588135812e+02 -6.015642474472e+03 1.008503047703e+03 1.250000000000e-03 2.045307717181e-05 -9.520187284902e-03 1.941869436641e-03 2.713166633492e-03
441 3 1.400520693574e-02 8.538731510522e-03 8.280557578416e-03 -6.608553440897e+00 8.487764924986e-01 1.983814183904e+01 6.323751744876e+03 5.466376878836e+03 2.281285736533e+03 1.250000000000e-03 2.045307717181e-05 6.608585751858e-03 -8.487806423908e-04 -1.983823883294e-02
442 3 1.107199849995e-02 1.263458656901e-02 1.148285087794e-02 1.662471593392e+01 -1.051426378772e+01 -4.330707195284e+00 -8.490384093062e+02 4.672555090944e+02 2.202656556857e+03 1.250000000000e-03 2.045307717181e-05 -1.662479721654e-02 1.051431519473e-02 4.330728369254e-03
443 3 8.945109483275e-03 4.361347070750e-03 1.055749262132e-03 6.967055871231e+00 -7.883431504661e+00 6.360674358855e+00 6.431221433413e+03 6.025905239497e+03 1.015513952392e+03 1.250000000000e-03 2.045307717181e-05 1.341179307122e-03 2.269999304215e-03 1.369306143021e-02
444 3 1.116868918223e-02 1.824342860811e-03 7.277234608594e-03 9.438162261751e+00 -1.331572218738e+01 -9.495725797104e+00 -7.298208591090e+03 -6.404360867359e+03 6.472499149436e+03 1.250000000000e-03 2.045307717181e-05 -9.438208407416e-03 1.331578729146e-02 9.495772224212e-03
445 3 5.518710311439e-03 1.264772761457e-02 1.167340037939e-03 -6.326556048933e+00 -1.557583302323e+01 1.306827005734e+00 4.492844456525e+03 -3.402630655952e+03 -4.252611665193e+03 1.250000000000e-03 2.045307717181e-05 4.656123370189e-02 2.092593444528e-01 3.943298681215e-01
446 3 5.806813918938e-03 8.479016969481e-03 2.829329799946e-03 -9.799948679319e+00 -1.207401495347e+01 1.306999380931e+01 -1.628475124201e+03 -3.022881274167e+03 -1.985161722848e+02 1.250000000000e-03 2.045307717181e-05 9.799996593853e-03 1.207407398651e-02 -1.307005771196e-02
447 3 1.177194578053e-02 3.248781920239e-03 2.595892168094e-03 6.532440884218e+00 7.242408920829e+00 1.950462425637e+00 -1.070695189130e+03 -6.976833333473e+03 -4.584486374614e+02 1.250000000000e-03 2.045307717181e-05 -6.532472823044e-03 -7.242444330876e-03 -1.950471961963e-03
448 3 1.344487059089e-02 1.127945687031e-02 7.299707566839e-03 -1.731256746328e+01 2.645408195250e+00 8.564057298784e+00 5.134430952786e+03 4.105165806625e+03 3.498908022529e+03 1.250000000000e-03 2.045307717181e-05 1.731265210898e-02 -2.645421129348e-03 -8.564099170718e-03
449 3 1.437476493161e-02 1.525389639051e-03 9.192746443576e-03 1.010322342000e+01 -4.122032748321e+00 -1.371069929789e+01 -1.170982825917e+03 3.936627948337e+03 4.866049766197e+03 1.250000000000e-03 2.045307717181e-05 -1.010327281733e-02 4.122052902026e-03 1.371076633312e-02
450 3 9.488805094810e-03 2.545333694643e-04 4.048324171392e-03 -8.780024654322e+00 -1.803616007159e+01 -4.187298406771e+00 -1.533377677614e+03 -3.334151812645e+03 1.478025074350e+03 1.250000000000e-03 2.045307717181e-05 8.780067582178e-03 1.803624825513e-02 4.187318879578e-03
451 3 1.399705483673e-02 9.118745745923e-03 1.343970088146e-03 -1.406153296113e+01 2.078243544415e+00 -1.438432222843e-01 7.399097734749e+03 -4.798468845276e+03 5.956997037300e+03 1.250000000000e-03 2.045307717181e-05 1.406160171167e-02 -2.078253705495e-03 1.438439255718e-04
452 3 8.632388815400e-03 9.544738585372e-03 6.987105557042e-03 1.958772251824e+01 -1.500341473594e+00 -1.292658646959e+01 -2.674902014713e+03 1.556933240885e+03 -8.758122016652e+03 1.250000000000e-03 2.045307717181e-05 -1.958781828779e-02 1.500348809160e-03 1.292664967108e-02
453 3 9.435407781412e-03 1.239669297222e-02 1.223073531023e-03 6.582789519526e+00 -2.523212630319e+00 8.412063729790e-01 2.381221733087e+03 9.332294547935e+03 -3.942796582812e+03 1.250000000000e-03 2.045307717181e-05 4.348464681361e-02 -1.967349280117e-03 -1.013781024387e-01
454 3 1.242517373990e-02 1.240753848119e-03 7.533137755811e-03 1.168441747856e+01 -6.771989832920e+00 2.035865469528e+00 1.748461360337e+03 5.819572551500e+03 1.810473376625e+03 1.250000000000e-03 2.045307717181e-05 -1.168447460676e-02 6.772022942965e-03 -2.035875423411e-03
455 3 1.143574670434e-02 4.179852264275e-03 1.472051842268e-03 -1.193273117373e+01 3.366303197477e+00 2.365785180411e+00 -1.453786177656e+03 -6.523889511517e+03 -7.973901517672e+02 1.250000000000e-03 2.045307717181e-05 1.193278951600e-02 -3.366319656222e-03 -2.365796747359e-03
456 3 1.339664526777e-03 1.372958806742e-02 9.476678197417e-03 3.098800695342e+00 8.747480489549e+00 -7.522982150342e+00 -3.945495890025e+03 -6.567769543025e+03 5.408580046641e+02 1.250000000000e-03 2.045307717181e-05 -3.098815846196e-03 -8.747523258289e-03 7.523018932186e-03
457 3 4.427623711291e-04 5.769745473194e-03 1.335466288932e-02 -5.770146221896e-01 4.846545042805e-01 3.917533497198e+00 -5.175902836127e+03 2.535041091667e+03 3.006479506517e+03 1.250000000000e-03 2.045307717181e-05 5.770174433663e-04 -4.846568738842e-04 -3.917552651053e-03
458 3 1.307231457378e-02 1.725497825759e-03 1.071661453501e-02 -5.521787606314e+00 -1.911880110678e+01 -2.369362441122e+01 -9.363090416768e+03 -3.466106562958e+03 -5.299968596297e+03 1.250000000000e-03 2.045307717181e-05 5.521814603790e-03 1.911889458364e-02 2.369374025560e-02
459 3 2.052503430031e-03 1.312017767653e-02 2.020561575680e-03 1.339747685385e+01 -1.165986001530e+01 -1.344856344233e+01 5.689033482061e+03 4.545352998595e+02 -3.572495308937e+03 1.250000000000e-03 2.045307717181e-05 -1.339754235765e-02 1.165991702343e-02 1.344862919591e-02
460 3 1.372805800448e-02 9.359024646402e-03 1.146472638733e-02 3.712651426125e+00 -1.375766983012e+01 -1.199895649181e+01 -3.158042312041e+03 -7.270947753909e+03 3.893990677490e+03 1.250000000000e-03 2.045307717181e-05 -3.712669578257e-03 1.375773709500e-02 1.199901515787e-02
461 3 8.466512570576e-03 1.201923452014e-02 1.425608414838e-02 -3.414582346703e+00 5.776457841637e+00 -3.501854722452e+00 -6.212198173749e+03 5.199040577618e+02 2.250256330180e+03 1.250000000000e-03 2.045307717181e-05 3.223174372584e-02 -1.470522273916e-01 -2.848677722568e-01
462 3 6.454043954570e-03 2.460092854578e-03 2.502367701926e-03 1.265572200835e+01 -1.511930719507e+01 5.036426642250e+00 8.811073191011e+03 1.308620748436e+04 2.524964349501e+03 1.250000000000e-03 2.045307717181e-05 -1.265578388552e-02 1.511938111735e-02 -5.036451266669e-03
463 3 1.316997841769e-02 1.448020470016e-02 6.349044855598e-03 1.252194298308e+01 -8.367447264619e+00 1.800880474203e+00 1.101239525891e+04 8.665811433483e+02 -9.025561041197e+02 1.250000000000e-03 2.045307717181e-05 -1.252200420616e-02 8.367488175275e-03 -1.800889279182e-03
464 3 9.456891223380e-04 8.434972644019e-03 1.372730001197e-02 -1.228540707379e+01 -1.812943434230e+00 -5.560303111250e+00 -1.428371845728e+03 1.002988803159e+04 4.352233907362e+03 1.250000000000e-03 2.045307717181e-05 1.228546714039e-02 1.812952298188e-03 5.560330297038e-03
465 3 7.381047540519e-03 1.526130500843e-02 7.417813814427e-03 9.688759752596e+00 -5.537216187857e+00 -4.716810127453e+00 -3.660034436722e+03 -7.022451363725e+03 4.059318488628e+03 1.250000000000e-03 2.045307717181e-05 -9.688807123498e-03 5.537243260767e-03 4.716833189182e-03
466 3 6.384259181927e-03 1.023098985758e-02 8.763129382555e-03 -1.073612698552e+01 1.168373620519e+01 1.571646329325e+01 2.634155309099e+03 -5.476842652253e+03 8.676937311003e+02 1.250000000000e-03 2.045307717181e-05 1.073617947728e-02 -1.168379333006e-02 -1.571654013519e-02
467 3 7.600256375647e-04 7.102083103036e-03 4.456884963973e-03 6.024200256856e+00 -1.006516172408e+01 -1.898711130695e+01 -7.676855017883e+03 -3.339341884308e+03 -1.675748243690e+03 1.250000000000e-03 2.045307717181e-05 -6.024229710760e-03 1.006521093531e-02 1.898720413994e-02
468 3 9.356970702573e-03 1.810145123010e-03 1.328430612258e-03 -1.510637187019e+01 4.962956418500e-01 -6.770904832754e+00 4.139489110716e+03 6.126217801125e+03 -1.519174074099e+03 1.250000000000e-03 2.045307717181e-05 1.510644572922e-02 -4.962980683703e-04 6.770937937493e-03
469 3 1.431434663510e-02 5.768622899192e-03 8.164253781014e-03 7.172038726196e+00 1.374154595274e+01 1.598321477202e+01 7.516227294437e+03 1.824726968982e+03 2.602208713892e+03 1.250000000000e-03 2.045307717181e-05 -7.172073792185e-03 -1.374161313878e-02 -1.598329291818e-02
470 3 1.322325915085e-02 9.531923999836e-03 6.755039602296e-03 -1.321564368555e+01 3.558587465204e+00 -6.275827290842e+00 4.314985701728e+03 6.375312619066e+03 -4.066525878629e+02 1.250000000000e-03 2.045307717181e-05 1.321570830032e-02 -3.558604864077e-03 6.275857975017e-03
471 3 2.081094286284e-03 2.587005267860e-03 6.643389816383e-03 -2.377597149974e+01 -1.585126794413e+01 -1.479678643386e+01 3.387498138501e+03 -6.917989559505e+02 1.794457521060e+03 1.250000000000e-03 2.045307717181e-05 2.377608774673e-02 1.585134544516e-02 1.479685877925e-02
472 3 1.037679704645e-02 1.295713916637e-02 3.199305902241e-03 6.625592419904e+00 1.093323193233e+01 -4.742678789401e+00 2.862598428545e+03 -7.176693280297e+03 5.271901962289e+03 1.250000000000e-03 2.045307717181e-05 -6.625624814173e-03 -1.093328538778e-02 4.742701977609e-03
473 3 4.474505435936e-03 1.012015274986e-02 6.817091553224e-03 1.443401859305e+01 2.023826103052e+01 -7.734757237277e+00 -6.739865485093e+02 1.892779474031e+03 3.480833616335e+03 1.250000000000e-03 2.045307717181e-05 -1.443408916477e-02 -2.023835998071e-02 7.734795054545e-03
474 3 1.254201868802e-02 4.760354831421e-03 2.803926391256e-03 -1.262248404399e+01 -5.613088615334e+00 -1.649960974618e+00 -5.110225524894e+03 3.782452483338e+03 -7.859737489538e+03 1.250000000000e-03 2.045307717181e-05 1.262254575864e-02 5.613116059205e-03 1.649969041712e-03
475 3 4.493515565640e-03 1.292559674173e-02 7.270919980068e-03 8.545866233699e+00 1.148844225693e+01 1.259935106439e+00 -6.141639575978e+03 5.066794847385e+02 -2.128030755891e+01 1.250000000000e-03 2.045307717181e-05 -8.545908016693e-03 -1.148849842695e-02 -1.259941266594e-03
476 3 7.328176787633e-03 4.122074963488e-03 1.137151985910e-02 -1.356175478593e+01 -1.544854627877e+01 1.422344397795e+00 2.288110957957e+03 3.427071877404e+03 -5.055307373191e+03 1.250000000000e-03 2.045307717181e-05 1.356182109292e-02 1.544862181079e-02 -1.422351352012e-03
477 3 4.831329354866e-03 1.283595523392e-02 8.076246938711e-04 7.169001736572e+00 -1.581620551228e+00 -1.683818503586e+01 7.026717857723e+02 5.981048973587e+03 -7.594577987725e+02 1.250000000000e-03 2.045307717181e-05 -1.228484532411e+00 -2.829348972230e+00 2.348104088454e+01
478 3 3.988190405841e-04 4.760603506864e-04 4.158326776346e-03 2.678491579602e+01 -1.790610694203e+01 -1.825518097531e+01 -3.109210189876e+03 -2.164419074570e+03 3.343080568639e+03 1.250000000000e-03 2.045307717181e-05 -2.678504675453e-02 1.790619448971e-02 1.825527022970e-02
479 3 5.916287320951e-03 6.099608753442e-03 2.149651036402e-03 -2.288161254853e+00 -2.763608695941e+00 5.928729603533e+00 2.380602230165e+03 -1.798897671886e+03 -1.412129535130e+03 1.250000000000e-03 2.045307717181e-05 2.288172442277e-03 2.763622207952e-03 -5.928758590656e-03
480 3 1.005606658802e-02 1.077208850045e-02 3.881429608179e-03 -7.898175264843e-01 -1.353717964578e+01 1.815332353243e-01 2.204060613559e+03 -2.802953034057e+03 -2.264674829983e+03 1.250000000000e-03 2.045307717181e-05 7.898213881105e-04 1.353724583262e-02 -1.815341228882e-04
481 3 1.279933102014e-02 1.523947856406e-02 1.375187796156e-02 -1.806033490177e+01 -1.690644387592e+01 1.727399312689e+01 5.748034512052e+02 3.962856976764e+03 1.033609401160e+03 1.250000000000e-03 2.045307717181e-05 1.806042320351e-02 1.690652653598e-02 -1.727407758400e-02
482 3 7.373895296754e-03 8.427938993827e-03 9.409974672494e-03 2.160745482918e-01 1.211830777222e+01 1.526564009041e+01 1.792905636833e+03 -4.298458965988e+03 -8.649668665595e+03 1.250000000000e-03 2.045307717181e-05 -2.160756047373e-04 -1.211836702183e-02 -1.526571472815e-02
483 3 1.239031058862e-02 3.667557510324e-03 8.433519226022e-03 -1.984489305074e+00 7.561455285439e+00 -4.369188308878e+00 3.217586545539e+03 -8.483755172429e+03 -2.809995564189e+03 1.250000000000e-03 2.045307717181e-05 1.984499007766e-03 -7.561492255388e-03 4.369209670992e-03
484 3 1.294656910467e-02 1.520034143496e-02 2.013348402486e-03 -1.064179409104e+00 1.906863477938e+00 -9.252508189441e+00 2.782490546738e+03 -2.241158731546e+02 1.427995788729e+03 1.250000000000e-03 2.045307717181e-05 1.064184612158e-03 -1.906872801097e-03 9.252553427394e-03
485 3 7.842328211474e-04 9.715371578032e-03 5.127389795909e-03 -6.069161207997e-01 -1.882433370905e+01 4.973329372458e+00 1.580323763178e+04 -4.891452307387e+02 -6.557587895745e+03 1.250000000000e-03 2.045307717181e-05 6.069190881726e-04 1.882442574618e-02 -4.973353688377e-03
486 3 3.372900333541e-03 6.037431220696e-03 7.949404289661e-03 8.607018131212e-01 4.431394382206e+00 1.697112601277e+00 -2.746093177491e+03 -1.845680383899e+03 -6.979325106517e+02 1.250000000000e-03 2.045307717181e-05 -8.607060213194e-04 -4.431416048462e-03 -1.697120898908e-03
487 3 8.788096181107e-03 1.249225509590e-02 6.195449799270e-03 -5.022032836415e+00 -3.630569736484e-01 5.727097005388e-01 6.332032198823e+03 -9.502255968959e+01 -3.962619162966e+03 1.250000000000e-03 2.045307717181e-05 5.022057390458e-03 3.630587487297e-04 -5.727125006676e-04
488 3 6.134909933799e-03 7.728147448020e-03 7.215651613753e-03 1.199412662464e+01 -2.193241545297e+01 8.129260417867e+00 -4.519073331103e+02 8.785112384579e+03 3.081607419908e+03 1.250000000000e-03 2.045307717181e-05 -2.730303587108e+01 4.072937426335e+01 -8.074482304272e+01
489 3 4.151606216215e-03 6.555737488226e-03 1.300260028095e-02 -7.271154994410e+00 3.265545191733e+00 -4.221297248883e+00 2.114639782513e+03 -6.462688726155e+03 2.496634546168e+03 1.250000000000e-03 2.045307717181e-05 3.887036095946e+01 -3.569585843234e+01 -1.858044156698e+01
490 3 9.003738059362e-03 5.654993459616e-03 4.259736623198e-03 4.831090246193e+00 9.244651945482e+00 9.772617914050e+00 4.119573954295e+03 2.354915409271e+03 -4.332256548325e+03 1.250000000000e-03 2.045307717181e-05 -4.831113866667e-03 -9.244697145024e-03 -9.772665694956e-03
491 3 5.821629376267e-03 1.180634053969e-02 1.099507291034e-03 -5.797286705381e+00 2.747226373497e+00 5.518372031502e+00 -2.953562930435e+03 -2.741645407984e+03 2.127157770722e+02 1.250000000000e-03 2.045307717181e-05 2.136410259775e-01 8.049170152491e-02 -4.533028539723e-01
492 3 2.206173352405e-03 6.387509921865e-03 3.589039287259e-03 6.674284480234e+00 -1.330099377997e+01 6.820133326422e-01 -5.722294563131e+03 1.712945907700e+03 -3.229265828537e+03 1.250000000000e-03 2.045307717181e-05 -6.674317112571e-03 1.330105881203e-02 -6.820166671853e-04
493 3 6.421820897971e-03 5.125394331208e-03 1.401775118981e-02 5.603525881811e-01 -1.881141055095e+00 8.851146205781e+00 1.143198898954e+04 -7.372284222790e+02 6.509729779050e+02 1.250000000000e-03 2.045307717181e-05 -5.603553278927e-04 1.881150252490e-03 -8.851189481370e-03
494 3 7.899802151531e-03 5.655964146368e-03 4.777234798175e-03 4.484445481837e+00 1.953732107184e+00 1.345120875545e+01 -9.483573877747e+03 3.100434303986e+03 -2.245976206023e+03 1.250000000000e-03 2.045307717181e-05 -4.484467407474e-03 -1.953741659496e-03 -1.345127452196e-02
495 3 1.255391329202e-02 1.068538885050e-03 1.172986203033e-03 3.351479968585e+00 -2.740713447002e+01 -3.848923209165e+00 -6.031698044774e+03 8.023496051237e+02 3.208864460563e+03 1.250000000000e-03 2.045307717181e-05 -2.846851422547e-02 4.071495327586e-01 2.558508558155e+00
496 3 1.319042392460e-02 1.073297407248e-02 1.407190267927e-02 -7.957176274275e-01 -1.253390645902e+00 -4.135592474474e+00 -1.029500276230e+03 6.203720846778e+02 -1.180508371991e+04 1.250000000000e-03 2.045307717181e-05 7.957215179008e-04 1.253396774059e-03 4.135612694477e-03
497 3 1.503969100192e-02 5.592467319377e-03 1.026676880390e-02 -3.267904134020e-01 -7.203395902385e+00 -5.714780056067e+00 1.562701547878e+03 -5.598990077421e+02 1.350211065005e+03 1.250000000000e-03 2.045307717181e-05 3.267920111665e-04 7.203431121687e-03 5.714807997134e-03
498 3 1.191029447331e-02 6.028294938799e-03 3.953391482099e-03 1.585202391830e+01 -1.004374534637e+01 -7.340580485722e+00 6.839580546355e+03 -2.945011280857e+03 4.955682261464e+03 1.250000000000e-03 2.045307717181e-05 -1.585210142303e-02 1.004379445289e-02 7.340616375756e-03
499 3 2.563774783085e-03 1.307037655129e-02 2.507849620719e-03 -1.142426775396e+01 -2.550306025829e+00 -1.179210331890e+01 5.382822836948e+03 8.843417878419e+02 -3.245534997820e+03 1.250000000000e-03 2.045307717181e-05 1.142432361022e-02 2.550318494948e-03 1.179216097361e-02
500 3 6.082759168641e-04 5.565710263514e-03 1.543556400683e-03 -3.098397743907e+00 -8.088563980972e-01 1.243577291390e+01 6.119609494321e+03 5.941036806041e+03 1.240139790036e+02 1.250000000000e-03 2.045307717181e-05 3.098412892791e-03 8.088603528095e-04 -1.243583371567e-02
