ITEM: TIMESTEP
75000
ITEM: NUMBER OF ATOMS
500
ITEM: BOX BOUNDS pp pp ff
0.0000000000000000e+00 1.5370634520482899e-02
0.0000000000000000e+00 1.5370634520482899e-02
0.0000000000000000e+00 1.5370634520482899e-02
ITEM: ATOMS id type x y z vx vy vz omegax omegay omegaz radius mass fx fy fz
1 1 5.906431296645e-03 1.228590836179e-03 1.506403469318e-03 1.034642364270e-03 1.781788287862e-03 -2.004780034841e-03 -4.648792562305e+01 5.055033734386e+01 2.057871172746e+01 7.500000000000e-04 4.417864669111e-06 -9.789063584025e-07 -1.329568144772e-06 1.045354384030e-06
2 1 5.584554264802e-03 4.028747580758e-03 1.461571954266e-02 -2.245151568799e-93 3.746616388728e-93 1.940938972740e-95 -7.383888520185e+01 1.340356251913e+02 -1.560420119521e+01 7.500000000000e-04 4.417864669111e-06 2.250245081729e-94 -3.755116233143e-94 -1.945342327014e-96
3 1 1.470833076654e-02 1.346423591833e-02 1.473847305780e-02 1.383048106296e-08 2.943725072418e-07 2.635302809950e-07 3.044565908532e-04 5.382278852621e-05 1.493242987319e-04 7.500000000000e-04 4.417864669111e-06 -3.649625352333e-10 -6.431620408193e-10 -4.025380089934e-10
4 1 1.513377632174e-02 9.205372716762e-04 1.328123178020e-02 -3.687623641121e-08 7.079899873242e-08 2.372589249045e-07 -3.746847055214e-05 1.743671094985e-05 -2.210993751965e-04 7.500000000000e-04 4.417864669111e-06 -3.336004335476e-10 -4.168614216191e-10 1.864715044897e-12
5 1 1.570123257409e-03 7.155737487643e-03 1.472224422368e-02 1.293137711861e-07 1.109393655897e-08 1.263466472043e-07 1.312793386386e-04 -5.381443244736e-05 -2.288460978884e-05 7.500000000000e-04 4.417864669111e-06 -2.641047878067e-10 -2.862046308166e-10 -2.414421114716e-10
6 1 4.697721625963e-03 1.052307154860e-02 1.094542975835e-02 -7.088384089719e-07 -5.090022567999e-07 4.778279156556e-07 3.320378313470e-04 7.271182699640e-04 1.041963863661e-04 7.500000000000e-04 4.417864669111e-06 -1.030525535425e-09 -1.620283823096e-09 -9.844090361402e-10
7 1 8.283734474166e-03 1.169934028365e-02 2.999355450987e-03 -1.387522327716e-06 1.673265758014e-06 1.846124369371e-06 1.683813893826e-03 5.470183443315e-03 1.412542874045e-03 7.500000000000e-04 4.417864669111e-06 2.653170215692e-09 -5.815216890899e-09 -6.158265442322e-09
8 1 1.902319509042e-03 6.549690145144e-03 1.159562020289e-02 4.679440894188e-07 -2.545729474200e-07 1.995246468578e-07 -2.298057037292e-05 -1.668687891360e-04 6.868496508454e-04 7.500000000000e-04 4.417864669111e-06 -7.710653701269e-10 -8.511458252162e-10 -1.137247721839e-10
9 1 6.202304506360e-03 7.213017552777e-03 1.213654540777e-02 -1.494499714005e-07 5.749335360451e-07 2.764403842068e-07 7.127024482538e-04 5.450304222112e-04 2.280209489262e-04 7.500000000000e-04 4.417864669111e-06 -3.494276895211e-10 -2.033272527047e-09 -3.138452529139e-10
10 1 1.636612115163e-03 7.477830413461e-03 1.050895669322e-02 -6.923912150098e-08 -8.408828667491e-08 5.131614253535e-07 9.018127440240e-04 5.850117550551e-05 6.070631415551e-04 7.500000000000e-04 4.417864669111e-06 1.271386304002e-10 -1.501586714504e-09 -6.869884338084e-10
11 1 6.061605443402e-04 5.983278572469e-03 1.143083101724e-02 4.874850360853e-07 9.950497547211e-08 -3.389392366590e-12 -2.407844117672e-04 -1.727974655658e-04 -1.208471818055e-03 7.500000000000e-04 4.417864669111e-06 -7.635953149695e-10 -1.138854741995e-09 2.517670463366e-10
12 1 3.080803383836e-03 6.042670961469e-03 2.609270681170e-03 5.053536284596e-07 -1.416823569538e-06 7.796004805624e-08 8.405266604493e-04 -1.640104504443e-04 7.400012245555e-04 7.500000000000e-04 4.417864669111e-06 -1.329531732262e-09 2.861781070345e-09 -5.279464660519e-10
13 1 9.606332745371e-03 6.925404873999e-03 6.682465799630e-03 1.239177939360e-07 4.026531686237e-07 6.332654092173e-07 1.544754786210e-04 2.359460316507e-04 -4.533905439108e-04 7.500000000000e-04 4.417864669111e-06 9.679990976093e-11 7.049889278170e-10 7.189190596854e-10
14 1 3.653449275273e-03 9.183388160801e-03 6.974513368331e-03 -5.240387160884e-07 -1.087766344665e-06 9.836073069300e-08 -3.108226837232e-04 -8.013025735379e-04 -1.263503762891e-04 7.500000000000e-04 4.417864669111e-06 2.454971117864e-10 5.384825332946e-10 -1.114112258857e-10
15 1 4.075342525678e-03 1.178841188226e-02 1.468931144094e-02 -1.101387944904e-08 4.048209892215e-08 8.999711584390e-08 8.683001786087e-05 -3.286924623671e-05 9.557316735149e-05 7.500000000000e-04 4.417864669111e-06 -4.748961854797e-10 -5.624142065731e-10 -2.986473664681e-10
16 1 1.447102245823e-02 5.196843943327e-03 6.513770318998e-03 -1.978836246812e-07 -4.940160277407e-07 -1.290681078586e-07 3.597614073378e-04 2.281414630135e-04 1.371785180256e-04 7.500000000000e-04 4.417864669111e-06 4.798732125134e-10 -1.679261185323e-10 -3.269474615798e-11
17 1 3.814250170361e-03 2.866219402995e-03 6.478172600043e-04 -1.288876945834e-05 4.450441649140e-06 2.646231385565e-06 -8.886470971262e-03 -1.842067782759e-02 -9.171478643322e-03 7.500000000000e-04 4.417864669111e-06 6.302757818644e-09 1.089523242964e-10 -4.279723184339e-10
18 1 6.067098071490e-03 1.631670676303e-03 9.622292288952e-03 -2.370759377122e-07 -3.735157859804e-08 2.025715307739e-07 -1.369251754005e-07 4.416036536183e-04 1.476019723051e-03 7.500000000000e-04 4.417864669111e-06 9.509977297527e-11 -2.541666764546e-09 -1.911235246940e-11
19 1 8.538238916340e-03 6.736582551097e-03 1.468294066792e-02 -1.171673398009e-07 -9.138437090896e-07 -1.000286947242e-07 -1.179838864051e-03 2.819621953773e-04 3.546727316440e-03 7.500000000000e-04 4.417864669111e-06 3.463898098418e-11 9.555218774800e-10 1.310497617833e-10
20 1 9.867181995063e-03 1.506580317734e-02 1.509249686912e-03 -1.718663924793e-05 -1.335588974895e-05 1.046001237261e-05 2.215889485383e-02 -3.846256265122e-02 7.911477038148e-02 7.500000000000e-04 4.417864669111e-06 3.878837656056e-08 3.186590071174e-08 -2.375627093554e-08
21 1 1.110181468404e-02 1.454338182066e-03 4.708793225128e-03 -1.126579045373e-06 -3.764694033882e-07 3.033451809938e-08 -3.799037769880e-04 1.831509810440e-04 -1.504398416599e-03 7.500000000000e-04 4.417864669111e-06 -3.557912285178e-09 -1.573848035551e-09 -5.278081196026e-10
22 1 5.589708135965e-03 9.336000997790e-03 6.785459652348e-04 -2.859436670129e-07 -3.884186060065e-07 8.482883913234e-08 5.910669268708e-04 -3.005248969074e-04 9.410172531026e-04 7.500000000000e-04 4.417864669111e-06 -7.479101000228e-10 4.595237387296e-09 1.558167089744e-09
23 1 1.257749611802e-02 6.398306750427e-03 8.607630890494e-03 2.859369631276e-07 -3.212146588861e-07 7.990426146180e-08 -1.491418926870e-04 1.768486767275e-04 -2.506081140972e-04 7.500000000000e-04 4.417864669111e-06 -6.406668519760e-10 -1.817120364779e-09 1.221167210136e-09
24 1 2.693300288691e-03 1.507764166813e-02 1.315123029162e-02 -2.862119745546e-08 2.570068105174e-08 1.637832471194e-07 -6.990374696029e-05 6.883903553449e-05 -4.886404979037e-05 7.500000000000e-04 4.417864669111e-06 -5.661379870419e-10 -6.748202656493e-10 -1.211321373082e-10
25 1 2.618321329868e-03 1.503733940666e-02 4.036518371198e-03 2.955776821270e-141 -1.114022310809e-140 1.240542703756e-141 -2.895655014510e+02 4.030772948193e+03 5.535434622080e+03 7.500000000000e-04 4.417864669111e-06 -2.962482509950e-142 1.116549662247e-141 -1.243357088491e-142
26 1 8.754446929726e-03 1.052106083720e-02 2.308116945249e-03 -9.260231624970e-07 2.231448511609e-06 3.364177921472e-07 -2.495066556807e-04 -1.185199106592e-03 7.450321362601e-04 7.500000000000e-04 4.417864669111e-06 5.244302817705e-09 -8.434374052267e-09 -1.682212044813e-09
27 1 3.897410212057e-03 1.500563857838e-02 9.913007254381e-03 -2.602110566193e-73 -2.864036319018e-73 2.473717155734e-73 -5.212634733471e+00 -2.060635224776e+00 2.595519974007e+00 7.500000000000e-04 4.417864669111e-06 2.608013902074e-74 2.870533878571e-74 -2.479329209056e-74
28 1 4.952588706839e-03 8.897324232706e-03 4.798306873011e-03 -5.710166519801e-08 -6.964875964581e-07 3.407311294753e-07 4.250088936926e-04 -5.855471099145e-04 4.251273501099e-04 7.500000000000e-04 4.417864669111e-06 -2.535293494429e-10 2.297681255927e-09 8.701130501127e-10
29 1 5.957872833720e-03 7.906819205501e-03 1.085392456108e-02 -2.676666902629e-07 3.363622516336e-07 1.925591174989e-07 -1.056070681008e-03 -4.387565774827e-04 -1.345447607946e-04 7.500000000000e-04 4.417864669111e-06 -9.548085291514e-10 -2.837873741774e-09 -3.431191325397e-10
30 1 7.864492417423e-03 2.343863019626e-03 9.785806262614e-03 3.503967744390e-07 1.825812728722e-07 3.825128544307e-07 4.218745069489e-05 -5.100200144012e-04 1.588897679979e-04 7.500000000000e-04 4.417864669111e-06 1.037164876148e-10 -2.130568716942e-09 1.651627499434e-09
31 1 1.391661476507e-02 8.139827623128e-03 5.401477973981e-03 2.121961366417e-07 -3.255151849676e-07 4.035624033271e-07 4.594781617742e-05 -2.532938772951e-04 -2.786349783524e-05 7.500000000000e-04 4.417864669111e-06 -7.566289753703e-10 -2.063887634307e-09 -6.897168958907e-10
32 1 1.262143532059e-03 3.391003937728e-03 1.174540076677e-02 -2.444664644485e-07 -5.312955786008e-08 1.152872406916e-07 3.304596976702e-05 2.380613393471e-04 -6.629991039321e-05 7.500000000000e-04 4.417864669111e-06 -6.990517634672e-10 -6.466276353630e-10 2.877809673261e-10
33 1 3.560959911115e-04 1.121166532096e-02 6.313161272283e-04 -5.828521785028e-07 -7.550360406068e-07 1.903837453562e-08 6.164275269151e-04 -5.318690903427e-04 1.778994073901e-06 7.500000000000e-04 4.417864669111e-06 2.652073154611e-09 -3.505061694793e-11 -3.740042208135e-10
34 1 4.754670741290e-03 5.624223176718e-03 1.097191972924e-02 1.283145831183e-07 -1.369662110793e-07 2.387329632463e-07 -1.338347763480e-04 1.668803711818e-04 -7.948164914328e-05 7.500000000000e-04 4.417864669111e-06 -4.630535656043e-11 -1.740237690483e-09 -7.770893106887e-10
35 1 5.617892245724e-03 3.724727454782e-03 7.702502015315e-03 -2.600038863005e-07 2.696125987985e-07 -1.078640571173e-06 2.399910283327e-03 2.316280093203e-04 -1.284743351448e-03 7.500000000000e-04 4.417864669111e-06 -2.449145653470e-09 -2.318467012826e-09 3.278995006010e-10
36 1 1.404526951050e-02 1.511074245813e-03 8.413545167733e-03 -6.118240159233e-07 -4.396148571403e-07 3.958212966745e-07 -4.457174866632e-04 -1.286704825173e-05 1.798951404739e-04 7.500000000000e-04 4.417864669111e-06 -1.951935311413e-09 -8.114702798131e-10 4.068441082037e-10
37 1 1.411954937547e-02 5.597481082991e-03 1.993449126833e-03 3.887177061542e-07 -1.749328860816e-07 4.484278819675e-07 3.486202126676e-04 2.787288820982e-04 4.637726668960e-04 7.500000000000e-04 4.417864669111e-06 -5.068135054524e-09 -4.772031171089e-09 -4.428155078159e-10
38 1 8.547735798444e-03 1.246046150490e-02 1.053828148693e-02 1.473567600083e-07 7.449439700728e-08 2.779970736683e-07 -1.602149426446e-04 -5.771267306551e-04 -1.959778905130e-04 7.500000000000e-04 4.417864669111e-06 -2.590372818655e-09 -1.135628514638e-09 2.718901053092e-10
39 1 3.286443896152e-03 1.300142487852e-02 1.006844914221e-02 -4.091303241924e-07 -4.767643280709e-07 4.643111926718e-07 -3.702081817892e-04 -1.926573019674e-05 2.508061897264e-04 7.500000000000e-04 4.417864669111e-06 -2.020860473098e-09 -1.881807325822e-10 2.106912689388e-10
40 1 9.488633802970e-03 1.052901822509e-02 1.467922873473e-02 1.262987943336e-06 1.565185454133e-07 -8.987070647203e-07 -3.510314328196e-04 1.772022555843e-04 4.871314893103e-03 7.500000000000e-04 4.417864669111e-06 -1.491748269588e-09 -4.288592756493e-10 9.132757151159e-10
41 1 7.376342713629e-03 6.906321210010e-03 1.121833465145e-02 4.621115897569e-08 9.228831771143e-08 3.318805183443e-07 6.276000984291e-06 1.326924646925e-04 1.314417023489e-04 7.500000000000e-04 4.417864669111e-06 -5.743200058559e-10 -1.733551387952e-09 -4.795874130211e-10
42 1 6.945104477571e-03 1.431015068086e-02 3.770387648551e-03 -1.119605757186e-06 7.715758814023e-07 6.110308010798e-06 3.657443136306e-03 2.157438613633e-03 -4.071930754315e-03 7.500000000000e-04 4.417864669111e-06 6.055664034586e-09 -6.912729729141e-10 -2.484287117667e-09
43 1 2.262143607246e-03 4.577050955202e-03 9.172290214100e-03 -1.940369281759e-07 -3.314249979816e-07 3.458520910481e-07 1.371464426835e-04 4.003655702067e-04 1.138631214258e-04 7.500000000000e-04 4.417864669111e-06 -5.137589907406e-10 -1.366644919447e-09 -5.800511133114e-10
44 1 1.323736293773e-02 1.673648586163e-03 6.766151539991e-04 1.518990847473e-07 -5.133310429939e-07 -1.186474771217e-07 4.598572497011e-04 2.847438335779e-04 -1.145388055259e-04 7.500000000000e-04 4.417864669111e-06 -2.136349704414e-09 -1.819537122937e-09 -2.498998210356e-11
45 1 8.644763231105e-03 9.103749517067e-03 1.976067532211e-03 -1.936804516962e-07 1.551580557424e-06 7.950774474908e-07 3.001444200223e-05 1.055909082093e-04 3.631476446623e-04 7.500000000000e-04 4.417864669111e-06 -7.927588420798e-10 -6.665714716102e-09 -1.953261062625e-09
46 1 2.086266197067e-03 7.705778549086e-03 1.331471004087e-02 6.371260467327e-08 2.886535358888e-08 1.273217236170e-07 1.110378030646e-04 6.749814665727e-06 5.553296050419e-04 7.500000000000e-04 4.417864669111e-06 -6.898529473193e-10 -7.797510820386e-10 -1.437543335574e-10
47 1 1.486536232817e-02 3.237483795528e-03 9.358005631087e-03 -1.430523256816e-146 -8.270688092419e-147 -2.065616032679e-146 -2.225336016832e+03 -2.168334929616e+03 -6.473661247452e+03 7.500000000000e-04 4.417864669111e-06 1.433768645148e-147 8.289451572501e-148 2.070302238331e-147
48 1 8.954226316929e-03 1.405503488285e-02 7.455805107163e-04 -5.129391881090e-06 -3.747371335226e-06 -4.424936151625e-06 3.176365673972e-03 -6.639334538953e-03 6.938678069752e-02 7.500000000000e-04 4.417864669111e-06 6.361409423484e-09 1.442780251523e-08 1.245884846096e-08
49 1 2.201283240434e-05 5.251585624224e-03 1.468698197551e-02 -2.383912315233e-08 -3.070576159038e-08 2.568885355299e-08 5.968821410884e-05 8.871509488204e-06 2.401221382881e-04 7.500000000000e-04 4.417864669111e-06 -6.892620331796e-11 -2.259375634100e-10 5.210922268828e-11
50 1 1.164048234523e-02 7.306905334663e-03 7.997634143790e-03 1.750154558287e-07 -2.154159327264e-07 7.792702680873e-07 8.415064680721e-04 2.039485119332e-04 5.508516717257e-04 7.500000000000e-04 4.417864669111e-06 1.143755529607e-09 -1.625921466856e-09 -1.302834722720e-11
51 1 1.448147182701e-02 6.340874335403e-03 7.558642595929e-04 8.094406529904e-07 -3.068205924124e-08 2.298087564719e-07 -2.973785050567e-05 1.491197763164e-04 -1.394905157348e-03 7.500000000000e-04 4.417864669111e-06 -2.843017801679e-09 1.470507487585e-09 -1.509128808275e-09
52 1 1.000026225413e-02 1.048604211302e-02 1.276211389371e-02 -1.356385969362e-06 1.410913308473e-05 -1.936133055895e-06 2.895218468374e-02 6.488622873204e-03 -3.862222657213e-03 7.500000000000e-04 4.417864669111e-06 1.342535265618e-09 -1.742011055931e-08 2.263791653225e-09
53 1 1.502466994715e-02 1.343214967651e-02 1.182053805744e-02 -1.194569612041e-08 4.158789507653e-07 1.617841349673e-07 -8.416536373772e-04 7.287680216628e-04 -2.255676269920e-04 7.500000000000e-04 4.417864669111e-06 -1.605445110397e-09 -1.535834023396e-09 -2.672835733304e-10
54 1 2.666197776507e-03 1.532444371223e-02 2.552524084236e-03 -2.005932529874e-06 -4.065990328417e-06 -1.239089564280e-06 1.077974421610e-03 4.111626342135e-03 -7.598272690639e-05 7.500000000000e-04 4.417864669111e-06 -2.689745989530e-09 3.566526506416e-09 9.090650250475e-10
55 1 1.388301594453e-02 1.419044534313e-02 7.835541672716e-03 -5.552187456592e-07 -7.064129480080e-08 2.250265691043e-07 -2.573761003026e-04 1.470376200864e-04 -2.315439926270e-04 7.500000000000e-04 4.417864669111e-06 -1.538317963619e-09 -1.773121233087e-09 -4.462262753847e-10
56 1 3.993951731805e-03 2.271734559701e-03 7.555628431424e-03 6.654824677933e-08 -1.902976757601e-07 6.949933155546e-07 9.994085981786e-04 -1.421362151404e-03 -6.758216418360e-04 7.500000000000e-04 4.417864669111e-06 -2.912977474630e-09 -1.642780009958e-09 -1.170000931766e-09
57 1 7.455807926558e-03 8.878848951127e-03 1.440289438492e-02 6.017090732982e-103 8.433505633169e-103 7.525939015663e-103 -7.605634170850e+03 -2.608992579472e+03 1.278439354630e+03 7.500000000000e-04 4.417864669111e-06 -6.030741539404e-104 -8.452638492879e-104 -7.543012904225e-104
58 1 1.133935212005e-02 4.566033118664e-03 1.397695636340e-02 1.109127706480e-142 4.464775069045e-142 3.348466788028e-142 -9.658792729049e+02 -2.688292425673e+03 -3.755103404466e+03 7.500000000000e-04 4.417864669111e-06 -1.111643953665e-143 -4.474904180087e-143 -3.356063361515e-143
59 1 1.456598396646e-02 1.002144974786e-02 7.830290834972e-03 -3.850803358874e-07 -9.769104714240e-08 -9.590840044763e-08 1.148532714544e-04 2.262370198478e-04 -3.745972807594e-06 7.500000000000e-04 4.417864669111e-06 2.241547823567e-10 -2.482989021072e-09 6.362190072993e-10
60 1 8.058010070365e-03 4.569617241045e-03 1.241835647638e-02 4.423113363605e-07 -6.237820573408e-08 3.478320626366e-07 -4.191165286739e-05 -5.027982876844e-04 -3.339502976690e-04 7.500000000000e-04 4.417864669111e-06 -5.934645891717e-10 -1.268052707451e-09 -3.320014456288e-10
61 1 5.278867476944e-03 6.206941657326e-03 9.861656800259e-03 1.290542539947e-07 -3.541385323465e-07 1.961729082736e-07 -5.673292422656e-05 -1.406915230840e-04 1.050077014060e-05 7.500000000000e-04 4.417864669111e-06 -1.155362218518e-09 -1.408301967134e-09 -1.064352826144e-09
62 1 3.765489309473e-03 4.633128524070e-03 5.374302204584e-03 -2.995072063503e-08 -3.045721109638e-06 1.087755102195e-06 -2.538385284743e-03 -4.350658016793e-04 -1.661661486712e-03 7.500000000000e-04 4.417864669111e-06 6.077770793150e-11 -2.042463832716e-09 -1.332418118801e-09
63 1 1.041304970423e-02 1.372497280074e-02 7.453527110032e-04 8.648141016119e-06 2.553833476650e-05 8.084707548143e-06 -3.524503155236e-02 1.124664244620e-02 -3.194118737774e-02 7.500000000000e-04 4.417864669111e-06 -2.546323307028e-08 -4.996065512841e-08 -1.392564784496e-08
64 1 1.447931092721e-02 6.656466400918e-03 1.325663938372e-02 3.392230245014e-07 -1.353078392308e-07 1.325522555445e-07 -9.814047519347e-04 8.316050979299e-04 6.899532251923e-04 7.500000000000e-04 4.417864669111e-06 -6.225233449740e-10 -1.768737455523e-10 5.962725447168e-11
65 1 1.364545046293e-02 1.252405265152e-02 1.472571155842e-02 1.223287321854e-07 4.049350223934e-07 9.140385244647e-08 4.267901324158e-04 -3.284361891950e-05 -3.119468384280e-04 7.500000000000e-04 4.417864669111e-06 -4.435132753255e-10 -6.091364600987e-10 6.819847749789e-11
66 1 1.761571892524e-03 9.571048938768e-03 6.700438274074e-04 -2.041789403988e-08 -5.512769642197e-07 8.479892486211e-08 3.232131322736e-04 -1.708847529614e-05 5.210856944509e-04 7.500000000000e-04 4.417864669111e-06 -8.814380752841e-10 1.705685772427e-09 -4.952876186623e-10
67 1 1.216515618444e-02 1.036795858557e-03 8.876620438008e-03 -1.597042516416e-142 -1.330977275028e-142 1.543349958675e-141 -3.902536519156e+03 1.497687331423e+03 -5.574865175916e+02 7.500000000000e-04 4.417864669111e-06 1.600665682363e-143 1.333996826160e-143 -1.546851313808e-142
68 1 3.164700042442e-03 1.115542684355e-02 2.375904491852e-03 -9.953238049232e-07 -6.650259006832e-07 5.196684903506e-07 7.732524458426e-07 -8.436069648659e-04 1.085347942631e-03 7.500000000000e-04 4.417864669111e-06 2.326180079266e-09 4.152813363723e-09 -6.667247011386e-10
69 1 8.776566638321e-03 1.578356546468e-04 6.987722621964e-04 1.454865057357e-06 -2.952815066154e-06 -1.427427870935e-06 3.944420996498e-03 2.626261083315e-03 -8.012683555613e-02 7.500000000000e-04 4.417864669111e-06 7.221959399817e-09 1.417420384905e-08 -3.639947948177e-10
70 1 3.832610316793e-03 8.765100953659e-03 8.376180459212e-03 -6.383979705234e-07 -6.382072207993e-07 8.034545488710e-07 1.392129604339e-05 8.986221616837e-04 -5.003226251152e-04 7.500000000000e-04 4.417864669111e-06 3.885977332289e-10 -1.159625533260e-09 -1.472332281719e-09
71 1 7.901001131338e-03 1.083580941384e-02 6.972417182574e-04 -1.593832898636e-07 5.026959032702e-07 3.682759615251e-07 -2.855493144068e-04 7.583785830905e-05 1.503705508334e-03 7.500000000000e-04 4.417864669111e-06 3.906379913252e-09 5.801066512477e-10 1.508265522756e-09
72 1 1.308992161354e-02 1.007321132117e-02 4.406435912282e-03 -2.898563777672e-07 -4.630806996311e-07 5.269255817482e-07 -8.147777840565e-04 2.453899748433e-04 1.384561293745e-03 7.500000000000e-04 4.417864669111e-06 1.190653484346e-09 -1.701457588796e-09 2.056038623469e-09
73 1 1.482727091604e-02 6.529789311939e-03 1.467363387336e-02 1.184643951703e-07 -2.796102458138e-07 3.131640843065e-07 2.275152047217e-04 1.948989162487e-04 -3.728393242657e-04 7.500000000000e-04 4.417864669111e-06 -9.069069296686e-11 6.627578462968e-11 -2.213537315756e-10
74 1 7.224492861391e-03 5.983956641605e-03 1.239495759620e-02 -8.053721797435e-07 1.237627030302e-06 -6.525244180669e-07 -1.215571845490e-03 -2.000782741342e-04 2.032196910231e-03 7.500000000000e-04 4.417864669111e-06 9.324489632374e-10 -2.850959048637e-09 7.301677835540e-10
75 1 8.388635226182e-03 3.656261969717e-03 1.357373523210e-02 1.332929093487e-07 7.040868286538e-08 7.874084580488e-08 6.497544946776e-05 1.275032157156e-04 -1.430198992390e-04 7.500000000000e-04 4.417864669111e-06 -8.347184857255e-10 -8.154318011466e-10 1.559326456488e-10
76 1 1.008846601689e-02 2.214320345823e-03 3.988221602067e-03 -9.301921213432e-07 8.793651219099e-07 -1.756919965559e-07 -2.773928721697e-03 1.963145481420e-03 -1.682002616473e-03 7.500000000000e-04 4.417864669111e-06 -2.013077278802e-09 -2.855739242278e-09 -1.306420252191e-10
77 1 8.049434882447e-03 1.022874972163e-02 1.467750757947e-02 7.433290141054e-07 -9.379683863750e-07 -1.149655315246e-07 -1.413542845429e-03 -5.318697542451e-04 -3.196593620789e-03 7.500000000000e-04 4.417864669111e-06 -1.116900510847e-09 5.992294983307e-10 -8.612066283790e-12
78 1 1.413360287587e-02 7.785661545121e-03 7.377717412322e-04 8.816895971025e-07 2.554825735272e-07 -6.238948986983e-08 -6.120308691614e-04 1.040396765868e-03 1.173191733426e-03 7.500000000000e-04 4.417864669111e-06 3.116472954508e-09 2.392748980767e-09 -1.280839580901e-09
79 1 6.389599718225e-03 1.409197757133e-02 1.460018906012e-02 -1.441549251835e-07 9.239484437234e-08 1.853060543155e-07 -3.652708235212e-04 8.762499949440e-05 5.094204313845e-05 7.500000000000e-04 4.417864669111e-06 -5.583714803236e-10 -9.528905433691e-10 6.371553090478e-11
80 1 1.074675613429e-02 1.097242610744e-03 1.030358557309e-02 -2.404695446494e-07 -1.314006785844e-07 9.089982840608e-08 4.750561349989e-04 -7.835653379789e-04 2.741274376307e-04 7.500000000000e-04 4.417864669111e-06 -1.267419500043e-09 -1.534282003313e-09 4.642044351291e-10
81 1 3.070004153915e-03 6.344207335746e-04 6.987110298061e-04 1.537168007769e-06 -7.022904261072e-07 9.773050386089e-07 2.372883224942e-03 6.033311508074e-04 4.728738872104e-03 7.500000000000e-04 4.417864669111e-06 -3.567017204243e-09 2.206454779081e-09 -1.361229513944e-09
82 1 4.335289791798e-03 1.344953876954e-03 7.022669316725e-04 1.671188506668e-06 7.322900969845e-06 -3.397924510426e-06 -1.256614678970e-02 3.049479404317e-03 3.790484261089e-03 7.500000000000e-04 4.417864669111e-06 -6.322958676617e-09 -1.189050950689e-09 2.190611944643e-09
83 1 4.496649304603e-03 1.437990100693e-02 3.421605290345e-03 -1.454511171931e-07 1.277753151176e-06 6.354014877700e-08 -9.962627281431e-04 4.619432538854e-03 -6.867658806081e-04 7.500000000000e-04 4.417864669111e-06 1.022609808722e-09 -3.025739056381e-09 1.129427579524e-10
84 1 8.503999202854e-03 1.535220199487e-02 8.001659174289e-03 -1.316627560883e-07 -1.415855587539e-08 4.586037855887e-07 1.856615103622e-04 -2.809227478576e-05 -1.654657360699e-04 7.500000000000e-04 4.417864669111e-06 -1.646052719997e-09 -2.635069411655e-09 -9.123446807114e-10
85 1 1.450285875287e-02 4.872971106908e-03 4.899704658070e-03 1.994158225383e-07 -6.351718822208e-07 -3.516063969228e-07 1.399558038063e-04 -5.834555424493e-04 3.276362275457e-04 7.500000000000e-04 4.417864669111e-06 -3.891666823979e-10 1.272987774832e-09 8.277848402270e-11
86 1 2.185790871052e-03 8.127477244478e-03 7.150351206381e-03 1.963840600454e-07 -9.663778201170e-07 1.482570649149e-07 3.028505776973e-04 4.897107561225e-04 -7.917922025399e-04 7.500000000000e-04 4.417864669111e-06 -9.400411819846e-10 -1.132339935868e-09 -1.510535079738e-09
87 1 7.698057671032e-04 7.024459266285e-03 5.920234406153e-04 1.320591783021e-07 -2.931017905017e-07 2.735822568380e-07 -1.676365329838e-05 1.998584065177e-04 6.899412808267e-04 7.500000000000e-04 4.417864669111e-06 -2.576496480583e-09 -1.254216422781e-09 1.385045253959e-10
88 1 8.092719162137e-03 6.646319187393e-03 1.333418542683e-02 -8.786776466339e-08 -9.565278787173e-08 -1.597014370737e-07 1.981778058109e-03 -3.794039719589e-04 -4.495914700141e-03 7.500000000000e-04 4.417864669111e-06 -2.570803929630e-10 -8.090774285385e-10 3.119696627928e-10
89 1 7.455330931442e-03 1.110788793390e-02 4.311032130811e-03 -1.147469361245e-06 -4.446886131573e-08 -2.378288873679e-07 -7.140720218343e-04 3.109634585552e-03 2.159237582048e-04 7.500000000000e-04 4.417864669111e-06 -3.506543546489e-10 1.569701560660e-09 2.999220004401e-09
90 1 6.134316542528e-03 6.396224489264e-03 6.532447489660e-03 4.985826179577e-07 -1.608663042048e-06 -5.058116330345e-08 -8.337963055700e-04 -2.928866106260e-04 9.091159928573e-04 7.500000000000e-04 4.417864669111e-06 -2.548427363865e-09 9.185140708271e-10 1.029180659707e-09
91 1 6.641006270959e-03 1.753264641248e-03 6.332180937298e-03 -2.368429071299e-07 -8.195341375150e-07 -3.514418976833e-07 1.268974265135e-03 1.095698152360e-03 1.386682704363e-03 7.500000000000e-04 4.417864669111e-06 -1.827600537071e-09 4.929867729270e-10 9.004772420068e-11
92 1 5.487825674625e-03 1.285221919368e-02 1.134685917300e-02 1.427007880423e-143 5.557774015819e-144 1.295892863912e-143 1.322965260710e+03 -3.397704098716e+03 1.546867952080e+03 7.500000000000e-04 4.417864669111e-06 -1.430245293518e-144 -5.570382783177e-145 -1.298832820016e-144
93 1 7.287340243366e-03 1.434924644410e-02 2.281020643964e-03 -1.921280640458e-05 6.163635896758e-06 6.578077495619e-07 -5.405756046263e-04 3.023197830879e-02 1.548356757807e-02 7.500000000000e-04 4.417864669111e-06 1.551020516837e-08 -4.215799358090e-09 -2.457105179081e-09
94 1 1.359631093285e-02 4.960157018930e-03 1.186784143218e-02 1.163864702784e-07 2.198818990638e-07 3.319578151429e-07 -2.027072342450e-05 -2.087714093477e-04 -1.933236594138e-05 7.500000000000e-04 4.417864669111e-06 -2.659833173076e-10 -1.276045148471e-09 -2.898364195649e-11
95 1 1.007661731714e-02 1.343644479826e-02 6.769008914074e-03 -5.602680135544e-07 3.976815875728e-07 1.208509494026e-06 3.623044418407e-03 5.310002271547e-04 5.910347184753e-04 7.500000000000e-04 4.417864669111e-06 2.610938031867e-10 -5.155683661876e-09 -7.471579517130e-10
96 1 5.629797359527e-03 1.216057438595e-02 1.471299408670e-02 5.246681092368e-07 -5.837589583844e-07 2.371419895932e-08 -7.674531237126e-04 -6.999679874008e-04 3.174161145769e-03 7.500000000000e-04 4.417864669111e-06 -1.114831291059e-09 9.455216054990e-12 2.746684497989e-10
97 1 8.585989657047e-03 6.710820064783e-03 1.199318396665e-02 1.460007935439e-07 1.928564814362e-07 1.871613819944e-07 -2.350083506181e-04 1.056425880019e-04 3.439098122901e-05 7.500000000000e-04 4.417864669111e-06 -8.352287340402e-10 -1.650948359549e-09 -7.633820628532e-11
98 1 1.635937279995e-03 1.061632190188e-02 9.505291790324e-03 -2.024258752143e-06 -4.798984597753e-07 7.097250169761e-07 -7.454716500035e-04 -1.033290168085e-03 -1.174144742172e-03 7.500000000000e-04 4.417864669111e-06 1.373714679974e-09 -1.709658925893e-09 -4.040360614903e-10
99 1 4.902945227066e-03 1.405143234261e-02 1.285723067346e-02 -1.538233146417e-07 8.248573951891e-08 2.421540055173e-07 2.038457640496e-04 7.431155131096e-05 -1.078182928586e-05 7.500000000000e-04 4.417864669111e-06 -8.031770556158e-10 -6.784557465935e-10 1.786631876028e-10
100 1 1.228191401536e-02 8.096326647853e-04 4.265767465555e-03 -1.380289360364e-06 -9.260002761994e-07 6.029517095314e-08 -3.576530790784e-04 -3.446944945441e-04 -1.547703276653e-04 7.500000000000e-04 4.417864669111e-06 -4.693531705274e-09 -3.448548519164e-09 -1.570777156139e-10
101 2 6.437694211886e-03 5.564774755780e-03 1.089467166320e-02 1.712055719457e-07 -9.932995948393e-08 1.834290213835e-07 -3.464720320338e-05 -6.593823532075e-05 7.528800957801e-05 1.000000000000e-03 1.047197551197e-05 -1.187238388489e-09 -3.177354100592e-09 -1.316448457102e-09
102 2 1.522533146908e-02 8.592480964784e-03 4.457628030911e-03 3.649591652782e-07 -8.507448037869e-07 8.153567831493e-08 -5.379599398616e-05 3.215221216732e-04 -3.777822796823e-04 1.000000000000e-03 1.047197551197e-05 -3.027446632828e-10 -6.132647847545e-09 2.646670055736e-09
103 2 1.319042607520e-02 3.719523519533e-03 4.114449966524e-03 -1.516221049198e-08 -5.055216910466e-07 2.391283354437e-08 3.470578298675e-04 -1.840865192868e-05 3.081790422751e-04 1.000000000000e-03 1.047197551197e-05 -9.480194125474e-09 2.398253633927e-09 1.991410142567e-09
104 2 1.010083431983e-02 4.829395087274e-03 1.157179021522e-02 3.448791506595e-07 3.400818204758e-07 6.006573558136e-07 4.075055998711e-04 -1.626247473129e-04 -1.786074991490e-05 1.000000000000e-03 1.047197551197e-05 -1.514413840898e-09 -3.221950604370e-09 -4.463542690696e-11
105 2 1.151818348154e-02 1.110585795822e-02 4.104943623469e-03 -4.659897431819e-08 -1.767121802405e-07 3.849036642403e-06 2.521583282313e-03 -3.213917806248e-03 -3.326810906589e-04 1.000000000000e-03 1.047197551197e-05 1.269852221258e-09 -3.619240423476e-09 -1.942791384715e-08
106 2 1.863698289771e-04 7.283917730777e-03 9.703510551097e-03 6.265227254569e-08 -2.866361022982e-07 3.400798746568e-07 -9.859085909814e-04 1.300687803554e-05 -4.758494117461e-05 1.000000000000e-03 1.047197551197e-05 6.785088891644e-10 -2.698687313806e-09 -1.725277352493e-09
107 2 4.744617010398e-03 5.553715366162e-03 1.443820288526e-02 5.238091575057e-08 4.368290066777e-08 6.096539143551e-08 4.314861702820e-05 8.849995603692e-07 -4.088715721816e-05 1.000000000000e-03 1.047197551197e-05 -9.430520753154e-10 -1.862272962064e-09 -7.255910110477e-10
108 2 9.300451502023e-03 7.358304801320e-03 8.695417671107e-04 8.657752027974e-07 1.460629576002e-06 -1.052157401691e-07 -1.125027708406e-03 8.177991118520e-04 2.288297035841e-04 1.000000000000e-03 1.047197551197e-05 5.411692702818e-09 -8.392584827683e-09 2.565063758868e-09
109 2 2.881035988019e-03 6.100156865946e-03 1.438608703300e-02 5.414519522051e-08 -7.133242652648e-08 1.611204245491e-07 -5.990368483638e-05 5.916954799094e-05 1.295647347598e-04 1.000000000000e-03 1.047197551197e-05 -1.004507077459e-09 -1.364689499675e-09 -6.057813849830e-10
110 2 4.386858043421e-03 6.866663534862e-03 2.797515163393e-03 3.462526708475e-07 -1.665173579132e-06 -1.061479744615e-07 6.946058712521e-04 6.313484814710e-04 -4.655024152300e-05 1.000000000000e-03 1.047197551197e-05 -2.782379887921e-09 1.008015020404e-08 9.183604434916e-11
111 2 5.475738526723e-03 1.520167288774e-04 1.438757284727e-02 -1.145953059497e-08 4.890676843259e-08 7.759020266917e-08 5.018463178699e-05 -1.136418990518e-05 -3.965725275698e-05 1.000000000000e-03 1.047197551197e-05 -5.380254526333e-10 -1.310789725321e-09 -3.654833955476e-11
112 2 9.120923033829e-03 2.287551316738e-03 8.574786353557e-03 -2.507987964507e-07 -1.967622216059e-07 -1.497378571892e-07 -6.292341588378e-05 1.280990751019e-03 -8.306645440080e-04 1.000000000000e-03 1.047197551197e-05 -3.309098340522e-09 2.175800694898e-10 3.397464140948e-09
113 2 4.121979242005e-03 1.395401273482e-02 1.138737698568e-02 -3.064282703334e-07 1.581185729682e-07 3.908448854550e-07 7.014654670480e-05 7.106552653487e-05 2.958955746802e-04 1.000000000000e-03 1.047197551197e-05 4.459099975390e-10 -1.304795778243e-09 -1.515148234726e-11
114 2 1.135051068230e-02 4.416349225262e-03 8.811395542675e-03 1.154723345490e-07 -8.006191013904e-09 2.794802455049e-07 -5.512113573459e-04 -3.926458394537e-05 9.572485259615e-05 1.000000000000e-03 1.047197551197e-05 1.680994422770e-11 -3.501949184860e-09 5.247858086355e-10
115 2 8.864421048163e-03 2.423577567161e-03 1.443532677070e-02 -2.597589710699e-08 -5.925215136868e-08 4.232151690600e-08 -5.540260939187e-05 2.982844476321e-05 -1.864344855738e-04 1.000000000000e-03 1.047197551197e-05 -7.957919815177e-10 -7.550204904341e-10 2.137420122213e-10
116 2 3.006907170030e-03 1.234780212150e-02 1.161177692949e-02 -1.999192890552e-07 -3.157668736134e-08 4.884624941486e-07 -1.258192741552e-04 1.392665055683e-04 -5.674496216878e-05 1.000000000000e-03 1.047197551197e-05 -7.802179685353e-10 -1.976090051741e-09 -9.825100186318e-10
117 2 1.363784140506e-02 5.563624156186e-04 1.260484668505e-02 -7.309360501535e-09 6.079645211383e-08 9.107230451114e-08 -9.285752818250e-05 -1.800449433187e-04 1.367388376760e-04 1.000000000000e-03 1.047197551197e-05 -1.126329918462e-09 -1.104498728875e-09 2.442864616013e-10
118 2 1.472417188703e-02 3.426106819746e-04 2.735698549121e-03 -4.600996973976e-07 -4.270494944481e-07 3.670831595598e-07 -3.193824319223e-05 -2.661388903432e-04 -2.057952762926e-04 1.000000000000e-03 1.047197551197e-05 -6.232645104068e-09 -3.611242122371e-09 2.531464162027e-09
119 2 1.410567886820e-02 9.868990217267e-03 9.438430496500e-03 3.157199282891e-07 -5.398666958316e-07 8.182430294613e-08 3.086526765911e-04 6.625685514348e-04 6.333862624557e-04 1.000000000000e-03 1.047197551197e-05 -8.452879846655e-10 -3.973330900093e-09 1.073310801795e-09
120 2 3.309598059026e-03 2.360334064098e-03 1.181086831726e-02 -1.219007885151e-07 -1.946388728369e-08 3.434847567019e-07 -8.885896591223e-05 1.134830047830e-04 5.697618644062e-05 1.000000000000e-03 1.047197551197e-05 -1.096312485475e-09 -4.518508754088e-09 -1.612718274226e-09
121 2 2.384314272361e-03 8.092584373107e-05 9.032473968918e-03 -4.017203324847e-07 -3.454633670326e-07 5.417366657529e-07 -1.573866019016e-04 1.098590764414e-04 -1.878917395429e-04 1.000000000000e-03 1.047197551197e-05 -5.216434492902e-09 -2.147514897808e-09 -4.254879387664e-09
122 2 3.571195129619e-04 9.201760633877e-03 8.795483799701e-03 -7.422866168838e-07 -7.031603544712e-07 -1.252939289460e-06 7.492714628941e-04 7.405631558508e-04 -1.020650787293e-03 1.000000000000e-03 1.047197551197e-05 4.368880834846e-10 -7.224667590459e-09 3.174773824138e-09
123 2 9.738712724633e-03 8.770415010665e-03 9.369776622763e-03 2.794162994007e-07 9.603871323866e-08 1.613696958656e-06 7.703300428696e-04 -7.759985031841e-04 -4.733523256401e-04 1.000000000000e-03 1.047197551197e-05 -4.069108356596e-09 -2.814558386681e-09 -1.199360980765e-09
124 2 1.365107752045e-02 5.286909372374e-03 1.446276049620e-02 -1.620428769597e-07 -3.169004070848e-07 1.438593014725e-07 -1.998858407130e-04 1.295333235469e-04 4.969673520419e-04 1.000000000000e-03 1.047197551197e-05 6.025299497627e-10 7.099572739396e-10 -7.316065237635e-11
125 2 2.455331364887e-03 6.459470662849e-03 6.739919254803e-03 -2.020270581602e-07 -1.123200114953e-06 -1.898516989976e-07 1.857347087740e-04 -1.008501808621e-05 -1.055691044993e-04 1.000000000000e-03 1.047197551197e-05 6.810587373922e-10 2.702429893533e-09 2.530422744244e-09
126 2 4.158980813771e-03 7.610529171740e-03 9.889552114576e-04 -3.258974230455e-07 -4.845629021616e-07 1.138341910992e-08 2.968130600840e-06 5.022705587722e-05 -1.051433735678e-03 1.000000000000e-03 1.047197551197e-05 -1.685544524090e-09 7.402361827761e-09 1.103146319104e-09
127 2 1.754848522857e-03 1.980763522399e-03 4.461706085433e-03 1.101955982124e-06 -2.086695388860e-06 -2.596946329290e-07 1.280701759100e-03 8.423698487282e-04 1.580300056430e-03 1.000000000000e-03 1.047197551197e-05 -4.310254723931e-09 -1.164566048893e-09 -4.462454139970e-09
128 2 3.151919159904e-03 8.065118438002e-03 3.682880302290e-03 6.325747387460e-07 -2.205118829186e-06 1.235626067667e-07 8.079217037507e-05 -4.217631694738e-05 5.009869510810e-04 1.000000000000e-03 1.047197551197e-05 -4.333040029575e-10 7.103607905787e-09 2.513915057542e-09
129 2 1.075522618747e-02 7.581115968993e-03 4.005708653480e-03 3.406989455611e-07 4.817704560833e-07 -1.085543239151e-07 8.968078354647e-04 -7.320685863705e-04 -1.280426415989e-04 1.000000000000e-03 1.047197551197e-05 -2.682698440354e-09 -4.885868358086e-09 3.988455367686e-09
130 2 1.286908515646e-02 6.252323271121e-03 1.103468702039e-02 2.251596207038e-07 -1.103508103215e-07 7.703756974964e-08 -8.217029088876e-04 2.433596088885e-04 1.655870333929e-04 1.000000000000e-03 1.047197551197e-05 -2.752504502928e-10 -2.414113170158e-09 1.196618840046e-09
131 2 9.094592385567e-03 1.402607853862e-02 8.863821323358e-03 -4.679359981364e-07 -3.399955745552e-07 7.943318908125e-09 2.518523262467e-04 -4.567992113805e-05 -2.225197410774e-04 1.000000000000e-03 1.047197551197e-05 -5.930616774041e-10 1.087096959933e-09 1.094833442303e-08
132 2 1.345541245168e-02 7.469586447137e-03 1.448181132507e-02 5.465551955653e-07 -1.109220490076e-06 1.251344191215e-07 -9.974011467510e-04 -5.286234726749e-04 4.706559927496e-04 1.000000000000e-03 1.047197551197e-05 -1.639015543942e-09 3.074024155222e-09 -2.499643457873e-10
133 2 2.000046005548e-03 1.425393857048e-02 1.444505722594e-02 -1.344537944067e-08 9.403574506222e-08 1.569847749286e-07 -4.589799390913e-05 2.472226543234e-05 -5.316881586278e-05 1.000000000000e-03 1.047197551197e-05 -7.592463095176e-10 -9.031082978232e-10 -1.181624929518e-10
134 2 8.113769697318e-04 1.902320435531e-03 9.180414072051e-04 7.004031379290e-07 -9.370582072711e-07 1.793673279334e-07 9.443232867226e-04 4.231871296276e-04 -2.586387695549e-03 1.000000000000e-03 1.047197551197e-05 -7.048064387960e-09 3.431336645268e-09 5.542866504473e-10
135 2 2.108960155779e-03 4.847085493737e-03 1.185269614508e-02 7.135733710119e-08 -2.542272442466e-07 2.075216593627e-07 2.061414210961e-04 4.673586791486e-05 -2.964786869965e-04 1.000000000000e-03 1.047197551197e-05 -7.029013960456e-10 -2.522365092409e-09 -3.484237267736e-10
136 2 1.203151578768e-02 6.225929725616e-03 1.453089988357e-02 6.152349285278e-08 -1.717708675751e-09 1.203135820866e-07 1.778094423285e-04 -7.421462210492e-05 -1.069577562573e-03 1.000000000000e-03 1.047197551197e-05 -5.182995135283e-11 -2.950730286814e-10 -3.622138344011e-10
137 2 1.057240724916e-02 9.044046677857e-03 6.905483113159e-03 1.973742797232e-08 -2.119319701621e-07 5.343999354264e-07 8.601210482445e-04 2.986154598664e-04 2.625014236517e-04 1.000000000000e-03 1.047197551197e-05 -1.435982208958e-09 -1.284667343540e-09 1.031065503309e-09
138 2 4.223734026155e-03 7.237443611013e-03 1.068947491453e-02 -5.744633831213e-08 -1.678827779681e-07 2.032006823255e-07 -3.853447370591e-04 4.417731133130e-04 2.218280476437e-04 1.000000000000e-03 1.047197551197e-05 1.860313752028e-10 -3.611743900893e-09 -1.040444403330e-09
139 2 1.370263860943e-02 1.316936020047e-02 2.335725066186e-03 -6.817535128297e-07 -5.456135589548e-07 -2.152626457993e-08 -2.004100651035e-04 -2.756879287916e-04 -2.413748989896e-04 1.000000000000e-03 1.047197551197e-05 -1.498658842504e-09 -6.642867283767e-09 -6.606879425631e-09
140 2 3.979288393980e-03 3.965678362594e-04 1.244887237238e-02 2.784784076210e-08 6.812764058690e-08 2.995910261327e-07 7.707598982990e-06 -2.354461322241e-04 1.084797568773e-04 1.000000000000e-03 1.047197551197e-05 -6.096901182140e-10 -3.283323579614e-09 -1.104814426530e-10
141 2 1.535395648934e-03 5.889407385267e-03 1.002368366742e-02 1.002751547896e-07 -3.818112425721e-07 3.262510986407e-07 -1.544988089393e-04 3.852393286188e-04 -1.150369340082e-04 1.000000000000e-03 1.047197551197e-05 -6.657303063028e-11 -2.699084689012e-09 4.879779837820e-10
142 2 7.977188199138e-04 1.899175668037e-03 1.238362281162e-02 -7.391437816220e-08 -6.423855575834e-08 2.350867529402e-07 -8.283493040221e-05 1.052359411383e-04 1.302512158987e-04 1.000000000000e-03 1.047197551197e-05 -3.140504561026e-10 -1.678289031570e-09 1.314119610698e-10
143 2 7.752775188102e-03 9.694656457272e-03 5.151172029619e-03 -9.074027225687e-09 1.481704060907e-07 5.836470652543e-07 -3.728049616961e-04 -2.499700557140e-04 5.026573381098e-05 1.000000000000e-03 1.047197551197e-05 -6.582998112539e-10 -5.099281437854e-10 2.073216000306e-09
144 2 9.405284741138e-03 7.734095725303e-03 1.300893086369e-02 7.600813133357e-08 5.600219300336e-07 -1.314267760123e-07 4.567098652271e-04 5.775625633735e-04 5.703645057292e-04 1.000000000000e-03 1.047197551197e-05 -1.742615390474e-09 -3.553252577508e-09 2.272011031172e-10
145 2 2.526793198077e-03 3.519437092108e-03 1.048909018505e-02 -1.904260446542e-08 -2.669378825048e-07 3.073807574204e-07 -1.831975357950e-04 -2.158708683209e-04 -4.313855606792e-05 1.000000000000e-03 1.047197551197e-05 -1.708463802118e-09 -4.371917637286e-09 -1.240173180282e-09
146 2 1.350797302566e-03 3.155868282855e-03 9.028380914291e-03 -2.588341673051e-07 -3.141476856707e-07 4.269195829658e-07 1.036464635583e-04 3.058646651307e-04 -7.983346470545e-05 1.000000000000e-03 1.047197551197e-05 -3.277821619774e-09 -1.622640099456e-09 -1.062580964112e-09
147 2 4.400327047039e-03 6.225384504214e-03 6.956054467589e-03 1.100671170389e-07 -1.242586960223e-06 -3.117679005893e-07 -1.073940048273e-04 1.871748903372e-05 8.933615540728e-05 1.000000000000e-03 1.047197551197e-05 -3.511829499513e-09 4.660790674949e-09 5.090802602543e-09
148 2 4.741759424847e-03 2.400339514240e-03 1.938487398375e-03 -6.658460330459e-06 1.071283155142e-05 -8.920416820154e-07 2.600934139097e-02 1.450856752386e-02 3.427455775065e-02 1.000000000000e-03 1.047197551197e-05 3.783977023282e-09 -1.263014282317e-08 1.095219036394e-09
149 2 1.102360837993e-02 1.385128264097e-02 1.198871359892e-02 -3.716432756911e-07 -3.240725718359e-07 2.438623379011e-07 5.209009144646e-05 -4.684239101390e-04 -1.027674458912e-03 1.000000000000e-03 1.047197551197e-05 -1.113611409468e-09 -1.316734365797e-09 1.022035645604e-09
150 2 2.047797721384e-03 4.841555051261e-04 1.195596078250e-02 -1.189195015609e-07 -1.022262754698e-07 2.602138615394e-07 -1.579161074280e-04 1.685383566135e-04 -1.253158106714e-04 1.000000000000e-03 1.047197551197e-05 -1.136935931776e-09 -2.816569841289e-09 -1.242350192427e-09
151 2 5.245959718090e-03 5.503657066223e-03 5.397069010859e-03 1.622946736593e-07 -2.865588437682e-06 -5.694284896042e-07 -5.393381653302e-04 -5.920046545808e-04 -1.793574278623e-03 1.000000000000e-03 1.047197551197e-05 -8.571908257434e-09 1.194822872657e-08 1.381938130934e-09
152 2 1.452779686079e-02 1.070730584232e-02 5.647517266938e-03 -6.567156241927e-07 -3.851854797245e-07 7.598929345898e-08 -9.875835437448e-05 7.302974354444e-04 3.171898330135e-04 1.000000000000e-03 1.047197551197e-05 1.381583838121e-09 -3.385576271405e-09 1.975057195917e-09
153 2 2.969641132215e-03 1.581531824440e-03 2.116599032648e-03 2.535923952320e-06 -5.583260503972e-06 1.324292815134e-06 9.518852082627e-04 -2.221482704623e-03 -8.244970632651e-03 1.000000000000e-03 1.047197551197e-05 -1.438315734347e-08 1.485597338361e-08 -1.567218184495e-09
154 2 4.533029103763e-03 2.341210526588e-04 8.361578682012e-03 -6.002201432521e-07 -4.088249557201e-07 9.654261860605e-07 1.503445808524e-04 2.998610483167e-05 -1.158344210141e-04 1.000000000000e-03 1.047197551197e-05 -3.019481286149e-09 -3.429260903442e-09 -3.484127006650e-09
155 2 9.356971118898e-04 2.766487844937e-04 1.048189869335e-02 -3.146382406357e-07 -1.842740636402e-07 4.093821192362e-07 -7.874074037875e-05 6.199866406859e-05 -1.090045772185e-04 1.000000000000e-03 1.047197551197e-05 -2.425631116278e-09 -1.745475973970e-09 -1.292436656471e-09
156 2 1.237995621946e-02 5.285420244738e-03 7.331892619469e-03 -7.200481011580e-09 -3.787027693432e-07 1.309755704981e-07 2.438876209346e-05 -6.211585237901e-05 -2.397385240707e-04 1.000000000000e-03 1.047197551197e-05 -6.243938003436e-10 -3.529870489196e-09 1.045979594647e-09
157 2 3.169144042983e-03 1.081490071222e-02 1.025482171063e-02 -1.678869585465e-06 -8.873302995508e-07 6.919754237350e-07 3.023467820092e-04 -5.170256073236e-04 5.674460725485e-04 1.000000000000e-03 1.047197551197e-05 7.495440834979e-10 -3.902980321690e-09 -3.494758855875e-09
158 2 1.529775962846e-02 9.876779545195e-03 1.097440127512e-02 -3.568656524665e-06 8.830046614981e-07 2.955165018693e-06 -4.434168839950e-04 -5.068266582826e-03 1.083636746735e-03 1.000000000000e-03 1.047197551197e-05 8.387604416756e-09 -6.648656858682e-09 -8.151197141435e-09
159 2 9.412450270619e-03 1.825224608563e-03 1.098682761637e-02 -1.583943601775e-07 -2.534782136155e-07 8.162246141644e-08 3.939083305181e-05 3.506693790603e-04 -1.597745487099e-04 1.000000000000e-03 1.047197551197e-05 -7.687273834626e-10 -9.479570384868e-10 1.420199054059e-09
160 2 1.143564263534e-02 1.360397479646e-02 1.445410397234e-02 1.439322579255e-07 -2.482208398602e-09 -1.528700390016e-07 1.721857404468e-04 2.867171906057e-05 5.890263363901e-04 1.000000000000e-03 1.047197551197e-05 -1.249550998462e-09 -6.568323118379e-10 1.544037343040e-10
161 2 1.329806654310e-02 4.534732905988e-03 8.883886391741e-03 -1.403479839293e-07 -3.752304581490e-07 2.931387216006e-07 -1.409224148984e-04 -2.754602310403e-05 -3.177478627256e-04 1.000000000000e-03 1.047197551197e-05 -2.145646738014e-11 -2.866243376257e-09 2.052975280101e-09
162 2 1.003220769117e-04 1.070782274642e-02 1.437094211030e-02 3.969446598379e-04 5.394580137102e-05 -3.677559555071e-05 5.549106821041e-02 -3.991719061255e-01 -2.538291056816e+00 1.000000000000e-03 1.047197551197e-05 -8.423549932228e-07 -4.297423533070e-08 7.073565389721e-08
163 2 9.239068890194e-03 1.304759603299e-02 1.199164566875e-02 -2.567698084375e-07 6.512785120829e-07 3.618192760650e-08 -3.542048343986e-04 1.474850798515e-04 5.870712954185e-04 1.000000000000e-03 1.047197551197e-05 -3.025727145578e-09 -5.356435279850e-09 2.397178548970e-10
164 2 7.583451548800e-04 1.240531250758e-02 3.914008745637e-03 -1.287845004740e-06 -1.077818421009e-06 6.861383393504e-07 6.369407332918e-04 1.656762777400e-04 6.803742177276e-04 1.000000000000e-03 1.047197551197e-05 9.083739688527e-10 -2.814467611199e-09 8.672520546025e-10
165 2 1.331317989128e-02 3.573770226052e-03 2.274910434119e-03 2.869792415998e-08 4.205926654538e-08 2.404324761745e-07 6.113040929653e-05 2.855571309614e-05 5.601008309674e-05 1.000000000000e-03 1.047197551197e-05 -6.127563152703e-09 -4.615388960381e-09 2.405503829285e-09
166 2 6.189997035055e-03 1.458736084542e-02 8.234501305870e-03 -6.158463381641e-07 -5.146251343080e-07 1.030478486630e-06 3.700565802954e-04 -2.800865356142e-04 3.028604842710e-04 1.000000000000e-03 1.047197551197e-05 2.374628668119e-09 -1.942044788940e-09 -7.368883084260e-09
167 2 1.009592765727e-02 1.055309501541e-02 8.599549928911e-03 1.958196051160e-07 -4.527639867536e-07 1.518498256785e-06 -5.212972208333e-04 1.127044224939e-03 1.824517213261e-04 1.000000000000e-03 1.047197551197e-05 -3.456253979106e-09 8.527977797188e-10 -1.485763703343e-09
168 2 1.243436102197e-02 1.217094721016e-02 1.369315471955e-02 7.498315658448e-07 2.633093447945e-07 1.309453377935e-07 -8.462954800636e-04 -3.071681382198e-04 2.809608340804e-04 1.000000000000e-03 1.047197551197e-05 -2.609495231578e-09 -2.862252862351e-09 1.999192650686e-10
169 2 1.220301199014e-02 2.946384900036e-03 8.960353743781e-04 -7.536794764809e-08 -8.616119379047e-08 2.193900718608e-07 -4.810209303477e-05 -1.595129633074e-06 -2.578204322512e-05 1.000000000000e-03 1.047197551197e-05 -5.490552388241e-09 -9.753695194871e-09 2.582335913900e-09
170 2 7.952097092942e-03 8.495782200207e-03 6.722073893855e-03 -3.840576520361e-07 1.205434890993e-07 4.639098005115e-07 2.557589407128e-04 1.755857631686e-05 1.698036562837e-04 1.000000000000e-03 1.047197551197e-05 -1.107620599988e-09 6.977839184502e-10 2.407049801005e-09
171 2 7.470923590076e-03 2.989868204821e-03 1.224348563978e-02 1.062015337944e-07 5.297374566098e-08 2.236463776702e-07 -2.823313065723e-05 -2.132234391258e-05 -1.148974561014e-04 1.000000000000e-03 1.047197551197e-05 -1.818949949073e-09 -2.489861317045e-09 4.466320001386e-11
172 2 8.461155812768e-03 9.767404760303e-03 1.311368484998e-02 2.163537939958e-06 1.226678752017e-06 -2.394229614121e-07 2.880093653400e-03 -2.534615621054e-04 5.061906267984e-03 1.000000000000e-03 1.047197551197e-05 -8.174838742415e-09 -5.108315043154e-09 -1.087747668505e-11
173 2 1.258907344667e-03 1.272331465049e-02 5.776302746846e-03 -6.675181549834e-07 -7.049047825232e-07 5.268831560857e-07 -6.853396800605e-04 1.318416434922e-04 -2.597332177509e-04 1.000000000000e-03 1.047197551197e-05 -1.144477383311e-10 -6.226200652398e-09 2.623834833244e-09
174 2 9.179293979012e-03 7.275891029979e-03 8.284744870503e-03 2.606582980502e-07 4.423984489031e-07 7.694673386813e-07 -9.145646297344e-05 2.308260680081e-05 3.510016139239e-06 1.000000000000e-03 1.047197551197e-05 -1.356864844531e-09 -2.932781738622e-09 2.527531012641e-09
175 2 8.147118975485e-03 6.893627799437e-03 5.756419723688e-03 5.209460400339e-07 2.299540513696e-07 7.170749618487e-07 -6.544381489737e-04 -5.868458811012e-05 9.022875014396e-04 1.000000000000e-03 1.047197551197e-05 -2.683882402612e-09 1.150430291800e-09 2.250312634812e-09
176 2 1.447480923172e-02 2.080565169500e-03 6.831263460786e-03 -6.608630562200e-07 -7.320110092237e-07 2.807021261179e-07 -2.308521851505e-04 -3.733002250654e-04 1.317269194223e-04 1.000000000000e-03 1.047197551197e-05 -5.697024220535e-09 -1.152358775593e-09 -6.597356870155e-10
177 2 1.077485621339e-02 2.782725175882e-03 5.620894230567e-03 -2.949804389525e-07 -2.838300639243e-07 1.467540258817e-08 3.379610455159e-04 1.136727739889e-04 2.076405933149e-04 1.000000000000e-03 1.047197551197e-05 -4.940169340379e-09 -9.202380707304e-10 9.247173240136e-10
178 2 8.377963123105e-03 1.352281451109e-03 1.283742510199e-02 -7.214856364688e-08 -9.159711189907e-08 7.593889846162e-08 9.470675577547e-05 5.008541974544e-05 -1.143516169520e-04 1.000000000000e-03 1.047197551197e-05 -4.607057188707e-10 -2.945176671771e-09 1.109974446586e-09
179 2 7.233200744276e-03 9.878434543085e-03 1.167959381196e-02 1.051045449020e-07 1.636139441387e-07 4.272310111680e-07 -8.897160760231e-05 8.681317618431e-04 2.194208625740e-04 1.000000000000e-03 1.047197551197e-05 -4.669734417544e-09 -4.699528333180e-09 -7.588963891420e-10
180 2 9.455199806376e-03 5.472037916803e-04 9.376857447186e-03 -3.487705768436e-07 -1.451996448752e-07 -2.009873332130e-07 -8.019734066985e-05 5.507662655743e-04 -1.147798466317e-04 1.000000000000e-03 1.047197551197e-05 -4.121132032367e-09 -8.962017616557e-11 3.926696163302e-09
181 2 2.567876671709e-03 1.246591923950e-02 1.449952244911e-02 -7.842818320773e-08 5.656120658266e-08 2.325920142607e-07 -2.045052840544e-05 1.082928196410e-04 -7.927637984879e-05 1.000000000000e-03 1.047197551197e-05 -7.150986638972e-10 -9.932960406629e-10 -6.821995761896e-10
182 2 2.133854322341e-03 9.631513014073e-03 6.269695754673e-03 -1.948595899346e-07 -8.483898859374e-07 -5.808873043393e-08 -5.447418711337e-04 5.191706185658e-04 -1.812074672027e-04 1.000000000000e-03 1.047197551197e-05 1.419792823150e-11 1.095406833614e-09 9.447386863792e-10
183 2 9.492768682356e-03 4.019668721556e-03 9.208749106248e-03 5.427142415003e-07 -2.080406764386e-07 1.362216410955e-07 3.466228409770e-04 -1.938016934935e-04 1.552895744770e-04 1.000000000000e-03 1.047197551197e-05 -2.352925547648e-09 -7.288506957614e-10 2.462057261851e-09
184 2 1.399030804770e-03 2.534595750265e-04 6.941607759443e-03 -6.345330674389e-07 -7.383626677771e-07 6.153901267677e-07 -9.179623717759e-05 -3.679947957741e-04 -2.203656299808e-04 1.000000000000e-03 1.047197551197e-05 -7.119081516120e-09 -2.419364202672e-09 -2.041202762149e-09
185 2 9.208833466113e-03 3.217628196234e-03 6.553058957871e-03 -3.098020684918e-07 -8.756856425598e-07 1.391054214965e-07 5.418039360270e-04 -2.021155485356e-04 7.603521545897e-06 1.000000000000e-03 1.047197551197e-05 -3.029975604743e-09 -2.439171164557e-09 6.540609273958e-09
186 2 9.835008487154e-03 1.240987979925e-02 8.115942207847e-03 -2.914263134842e-07 -7.241294050855e-07 5.599766775229e-07 -8.042985369923e-04 -4.480519734294e-04 9.931918000590e-05 1.000000000000e-03 1.047197551197e-05 1.264149850338e-09 3.286418922080e-09 1.383392583201e-08
187 2 1.361939583859e-02 7.195929548642e-03 9.702240299884e-03 1.097724530895e-07 -6.012283274873e-07 6.431979666793e-08 3.392226858627e-04 -3.316738634167e-04 5.605851389741e-05 1.000000000000e-03 1.047197551197e-05 -2.797310494614e-10 -2.784311026722e-09 9.333680120601e-10
188 2 1.212480771326e-02 1.837603788078e-03 1.265390300436e-02 -1.519648088661e-08 -8.024870152398e-09 8.175094444078e-08 1.358662540690e-04 8.156304885652e-05 -8.903066390330e-05 1.000000000000e-03 1.047197551197e-05 -2.134458927994e-09 -1.612031289028e-09 4.209773467354e-10
189 2 6.152463935450e-03 1.061368214749e-02 1.431812782810e-02 1.065028125697e-06 -5.719283896032e-07 3.984432667095e-07 2.774722176360e-04 4.980348155571e-04 -1.799995591257e-03 1.000000000000e-03 1.047197551197e-05 -5.304707348496e-09 1.797441065391e-10 -1.842586760150e-09
190 2 1.482542732944e-02 4.070526599823e-03 1.371425717124e-02 4.241561273952e-08 -1.009064752221e-07 1.806481051864e-07 -1.487363500207e-04 1.343886832166e-04 4.339345209104e-05 1.000000000000e-03 1.047197551197e-05 -4.892869466219e-10 -3.661791707214e-10 3.166561714061e-11
191 2 2.073955210644e-04 1.195074371757e-02 1.227763626064e-02 -2.246875609628e-07 6.630486626917e-07 6.968237171683e-07 -1.938901364280e-04 1.264185083182e-04 -1.475174140029e-04 1.000000000000e-03 1.047197551197e-05 -1.266456586764e-09 -4.598166245363e-09 -1.002926763798e-09
192 2 1.191395713963e-02 9.390844675415e-03 3.373746122323e-03 4.453587336371e-08 4.511505398914e-07 3.689604633964e-07 1.470941681742e-03 -1.762831454982e-04 -1.051101222123e-03 1.000000000000e-03 1.047197551197e-05 6.779267823118e-09 3.023987741423e-09 -2.839882396819e-09
193 2 1.155321868959e-02 8.843547678788e-03 8.502691091375e-03 -2.899073904594e-07 -2.421558118759e-07 7.987449101346e-07 -7.391865921843e-04 -6.366588758066e-04 -1.805147909081e-04 1.000000000000e-03 1.047197551197e-05 -2.418116865480e-09 -4.525954278104e-09 -1.420442374553e-09
194 2 1.120244305194e-02 8.975954012008e-03 5.089575884741e-03 -5.823475890382e-08 1.198099040123e-07 2.096268119123e-07 -4.945458877246e-04 -4.348931657612e-05 -3.688455765388e-04 1.000000000000e-03 1.047197551197e-05 3.069917075954e-09 -8.200980053354e-09 3.338253239942e-09
195 2 3.848014894409e-04 8.122022931677e-03 1.676019259384e-03 -4.643389064930e-07 -7.707288913648e-07 3.927076396639e-07 3.299594067504e-04 -1.503231686395e-05 5.558047162891e-04 1.000000000000e-03 1.047197551197e-05 -5.869871081294e-09 -4.104687069659e-09 1.780774701213e-10
196 2 1.419906161399e-02 1.289510892058e-02 1.316552242181e-02 2.293060818827e-07 7.293221757234e-07 3.175913499698e-07 3.624669200115e-04 -2.453407583590e-04 -9.903182072845e-05 1.000000000000e-03 1.047197551197e-05 -2.194286310841e-09 -3.947172906008e-09 -6.385144033484e-10
197 2 7.837082163287e-03 4.224224824878e-03 3.420910213902e-03 3.499905436596e-06 4.801819362966e-06 1.562464297411e-06 4.666930036883e-04 5.713281636954e-04 -2.688333618251e-03 1.000000000000e-03 1.047197551197e-05 -9.549798130070e-09 -3.190753616924e-09 6.234737017333e-09
198 2 5.037605154282e-03 1.349278926933e-02 9.772370715482e-03 -3.891594079967e-07 -4.537272184268e-07 8.088755959354e-07 -6.661361341054e-04 -1.636234184263e-04 -6.177952658692e-04 1.000000000000e-03 1.047197551197e-05 -2.444992153202e-09 5.686140062691e-10 -1.992751811205e-09
199 2 1.352805627244e-02 1.526536664227e-02 9.010067728802e-03 -2.318591696978e-07 -1.146017816860e-07 2.411151812940e-07 1.683174034622e-04 2.529226443966e-04 2.249691874371e-04 1.000000000000e-03 1.047197551197e-05 -2.219743555646e-09 -1.376246357782e-09 -9.575991852635e-10
200 2 4.678794748195e-03 1.372901262749e-02 1.446937798083e-02 -8.271338522947e-08 -7.311764641115e-09 1.052750340029e-07 -5.332531231169e-05 6.554460810496e-05 -9.838992995623e-05 1.000000000000e-03 1.047197551197e-05 -1.074229013942e-09 -1.120771911665e-09 1.643959666213e-10
201 2 1.296236714216e-02 4.047988845954e-03 1.313996854786e-02 4.609390599604e-09 -1.116430840512e-07 1.888339507827e-07 3.360697073425e-04 1.751025251395e-05 -5.233906313316e-05 1.000000000000e-03 1.047197551197e-05 -4.109249520871e-10 -8.797437408811e-10 2.669648357243e-11
202 2 1.071352008522e-02 1.498281734242e-02 8.329276219298e-03 -5.514232200519e-07 -3.795455220428e-07 -7.582263558069e-08 -1.005901766102e-03 -1.876285403871e-04 4.932527091683e-04 1.000000000000e-03 1.047197551197e-05 -2.686444854536e-09 -1.404394068191e-09 6.047381891121e-09
203 2 1.518777085455e-03 1.100119140803e-02 1.118429143735e-02 -1.681314006066e-06 -8.455053926578e-09 1.285842282952e-06 -7.437412550116e-04 1.703088206975e-03 -1.492007985295e-03 1.000000000000e-03 1.047197551197e-05 2.378526517320e-09 -2.475040992510e-09 -2.661652208157e-09
204 2 7.027982149852e-03 2.904209580350e-03 1.414714158538e-02 6.193630218571e-08 1.397226146447e-07 1.062242104311e-07 -2.316794603337e-05 4.459389939697e-06 -4.471364172474e-05 1.000000000000e-03 1.047197551197e-05 -1.860607892985e-09 -1.382362650474e-09 -4.254828390696e-11
205 2 8.563292405011e-04 7.399778558413e-03 7.906372871859e-03 -4.054792547830e-08 -6.250074966639e-07 1.561162679318e-07 6.063017360735e-04 1.749172426548e-04 -5.705547247857e-05 1.000000000000e-03 1.047197551197e-05 -6.574475631078e-10 -3.946174115983e-09 -3.193711528749e-09
206 2 3.736121853351e-03 1.978694695358e-03 1.363570257459e-02 5.342086118869e-09 7.680339058594e-08 2.072349952849e-07 1.456120888933e-06 7.992145995745e-05 -6.010592717347e-05 1.000000000000e-03 1.047197551197e-05 -1.317674474812e-09 -2.572257543475e-09 -9.932316673922e-10
207 2 1.285717889196e-02 1.100065614817e-02 1.020161579291e-02 4.691029015946e-07 -1.384186753070e-07 5.490610630074e-07 -1.234889066482e-03 7.798330949666e-04 -9.959494485497e-05 1.000000000000e-03 1.047197551197e-05 -2.918876310060e-09 -4.788813883097e-09 6.919917678509e-10
208 2 1.237572605720e-02 2.244686960535e-03 1.078717107629e-02 -3.676389678815e-07 1.927071884897e-08 4.187791773658e-08 -1.616152779064e-04 2.838566307967e-04 8.135466436199e-05 1.000000000000e-03 1.047197551197e-05 -6.188969093142e-10 -2.163019941249e-09 5.071801241355e-10
209 2 1.111702996003e-03 1.073883867189e-03 2.883129093244e-03 6.848689497776e-07 -1.769469332911e-06 1.193671150424e-07 -1.049999881762e-03 -1.417279809117e-04 -1.549959753282e-03 1.000000000000e-03 1.047197551197e-05 -9.329409290383e-09 -2.071414269686e-09 -8.865250818555e-10
210 2 3.173036364567e-03 4.841966137860e-04 7.195127877884e-03 -7.710509551124e-07 -4.978495726449e-07 1.213906832636e-06 -2.431137806349e-05 2.966943585763e-05 4.298709164327e-04 1.000000000000e-03 1.047197551197e-05 -5.693423447767e-09 -1.452184719341e-09 -5.166124240401e-09
211 2 9.375795135757e-03 5.064355765162e-03 1.335603363181e-02 3.210729451610e-07 2.452906993889e-07 5.513606284185e-07 -4.115515835762e-04 4.192648448320e-05 3.101323337884e-04 1.000000000000e-03 1.047197551197e-05 -1.532314946968e-09 -2.548305407116e-09 -9.407244746529e-10
212 2 7.492636088351e-03 9.541303651956e-03 8.270764070836e-03 -4.418933920724e-07 -1.365103600584e-07 6.519065623088e-07 -1.162431419652e-04 2.726257498393e-04 2.041018022466e-04 1.000000000000e-03 1.047197551197e-05 -1.209419768418e-09 5.186459414557e-10 7.087233780056e-10
213 2 6.115424618844e-03 1.121941343321e-03 7.994612139782e-03 -3.897195617468e-07 -5.840540088107e-07 5.992024064198e-07 -5.617655330198e-04 2.675942601879e-04 -2.531545124000e-04 1.000000000000e-03 1.047197551197e-05 -2.942207369338e-09 -3.384476022499e-09 -3.961821086208e-09
214 2 5.186297158406e-03 9.660568243249e-03 8.190686073561e-03 -4.853968432001e-07 -8.795442142211e-07 3.010216826847e-07 -1.183608079504e-04 1.146054886444e-04 1.407724374732e-04 1.000000000000e-03 1.047197551197e-05 -1.127177984028e-09 6.505366809304e-10 6.217726004932e-10
215 2 7.912816877020e-03 1.474391824787e-03 7.383808125403e-03 -4.655499310371e-07 -1.448661548416e-07 3.193924305699e-07 -2.109862984579e-04 -7.355882712084e-04 5.401792026923e-04 1.000000000000e-03 1.047197551197e-05 -1.111259420332e-09 -2.547420750890e-09 -1.159835148186e-09
216 2 6.360696697556e-03 3.108318201393e-03 9.567371897232e-04 6.199584985091e-06 -1.834403509569e-06 -2.357944295385e-06 2.679558821979e-03 5.466398350199e-03 -1.586162911328e-03 1.000000000000e-03 1.047197551197e-05 -2.546941503802e-08 1.595750202924e-08 5.041810229270e-09
217 2 1.019520872131e-02 6.523117287036e-03 1.427906685995e-02 3.023498673287e-07 1.026484161987e-06 -1.770083781100e-07 -7.744290469525e-04 -1.436015347528e-04 -2.289514350092e-04 1.000000000000e-03 1.047197551197e-05 -1.319674681572e-09 -4.109730588803e-09 2.506117215467e-10
218 2 5.384059602789e-03 8.862350613606e-03 1.452225205346e-02 -2.354294197645e-07 -3.051584585879e-08 1.763578257991e-07 3.139529767737e-05 1.749374494220e-04 2.275196601704e-04 1.000000000000e-03 1.047197551197e-05 -1.527696001130e-09 -1.116295152617e-09 -5.297913856824e-10
219 2 1.256744104011e-02 1.402019305976e-02 9.406925770530e-04 -1.845680537890e-07 -7.430374922075e-08 -2.678936165825e-07 4.051245553964e-04 -3.669976661343e-04 -3.727074195133e-04 1.000000000000e-03 1.047197551197e-05 4.091425166867e-11 2.898347017256e-09 -3.409088792762e-09
220 2 4.295218931905e-03 9.072732410823e-03 1.177170188590e-02 -2.950610893460e-07 -7.622647947029e-08 2.608123757683e-07 -1.907467653452e-04 2.711486900982e-04 -1.201649544231e-04 1.000000000000e-03 1.047197551197e-05 -1.630884785914e-09 -2.939039745865e-09 -1.322252327256e-09
221 2 4.240214251884e-03 7.081992810241e-05 1.847009290064e-03 1.283471670464e-06 -2.163573920098e-07 -7.716481081535e-08 7.817730578651e-03 -4.700322579586e-03 2.641995430799e-03 1.000000000000e-03 1.047197551197e-05 -1.236594470968e-08 1.002080567175e-08 -5.939771426145e-09
222 2 1.146990706861e-02 4.791401812410e-03 5.370808588716e-03 9.387119914356e-08 -2.209183268979e-07 7.168377219537e-08 9.202596349319e-05 -4.847073660567e-04 -8.348847433313e-04 1.000000000000e-03 1.047197551197e-05 -4.835168648909e-09 -1.961416062820e-09 1.377004663120e-09
223 2 2.012108204067e-03 3.324611348440e-03 9.554880230143e-04 4.035828409307e-07 -3.298109616660e-07 -1.855393205213e-07 2.786732443825e-04 1.642538808765e-03 3.819419910787e-03 1.000000000000e-03 1.047197551197e-05 -2.913809392059e-09 7.890811007003e-10 -3.794168872321e-10
224 2 9.453248649993e-03 3.718115436125e-03 4.678745887846e-03 6.436741991924e-08 1.410623879331e-07 6.275722100906e-07 7.887723196373e-05 4.757277068720e-05 -5.657341270456e-04 1.000000000000e-03 1.047197551197e-05 -2.609264744754e-09 1.832607860673e-09 6.057459686350e-09
225 2 8.606331748962e-03 3.542606175223e-03 1.081939149556e-02 3.045750447801e-07 -1.492679914261e-07 1.978185526926e-07 -6.868386135543e-05 6.032611795745e-05 -3.503697825964e-04 1.000000000000e-03 1.047197551197e-05 -1.081181715366e-09 -2.217145088393e-09 1.243291115471e-09
226 2 1.371199407277e-02 1.772185429617e-04 1.109763541464e-03 -1.368452338361e-07 -6.437682992187e-07 1.564273651815e-07 -4.032752381973e-04 -3.074373891714e-04 -5.032587069594e-05 1.000000000000e-03 1.047197551197e-05 -1.669787244183e-09 -1.594765316151e-09 1.317227739096e-10
227 2 1.119771036388e-02 3.511145054107e-03 1.258032004029e-02 2.958919384159e-08 -9.204615918707e-08 2.243433377355e-07 -6.323021853760e-05 4.413027421983e-05 1.099964622323e-04 1.000000000000e-03 1.047197551197e-05 -1.025954149576e-09 -1.157599921872e-09 7.504149029117e-10
228 2 3.509593880020e-03 4.476638154343e-03 8.607035177551e-04 -9.776053656991e-07 6.198904640972e-07 -1.179486825757e-06 1.652474102380e-03 2.051691822815e-04 -3.217844334283e-03 1.000000000000e-03 1.047197551197e-05 -4.084107167719e-10 2.450418092273e-09 1.891624869673e-09
229 2 1.407853831118e-02 1.484985481577e-03 1.443828951825e-02 5.069975975586e-08 5.995813187767e-08 1.128789546565e-07 7.465497290505e-05 -6.532165821808e-05 3.847253312500e-05 1.000000000000e-03 1.047197551197e-05 -3.154881265659e-10 -2.482239259037e-10 3.028341048484e-10
230 2 7.653747911610e-03 1.174785628609e-02 1.173685191500e-02 -3.632817935619e-07 2.592250523737e-07 1.422671915142e-07 5.277246054783e-05 1.236441342584e-04 6.304660077596e-05 1.000000000000e-03 1.047197551197e-05 -4.630079198610e-09 -5.112220068999e-09 -6.187909638868e-10
231 2 8.047972816636e-03 1.369917357727e-02 1.445667822045e-02 -2.741527391478e-07 -1.351761349506e-07 1.323097763915e-07 -1.484320159310e-04 1.732792321855e-04 -4.139645882798e-04 1.000000000000e-03 1.047197551197e-05 -2.687984531370e-10 -1.337803534045e-09 3.434480223247e-11
232 2 1.135532103949e-02 8.895603751753e-03 1.035484057154e-02 5.043678780111e-07 -1.285481583476e-07 1.300327537251e-06 8.592787027053e-04 1.698220276783e-03 1.146158042292e-03 1.000000000000e-03 1.047197551197e-05 -3.890817054837e-09 -2.752280561643e-09 -2.588578260824e-09
233 2 6.081083831650e-04 4.853026205792e-03 8.719485069117e-03 2.084571882483e-08 -3.670353833152e-07 4.154239207286e-07 -1.139734282241e-04 -3.438341836733e-04 -7.736843936235e-05 1.000000000000e-03 1.047197551197e-05 1.138908741292e-10 -1.753147420427e-09 -3.498772713506e-10
234 2 7.175421992089e-04 2.229365041614e-03 1.053097661000e-02 -1.937205211984e-07 -2.142283282184e-07 3.342304373466e-07 -3.940463349804e-05 -4.391326694653e-05 -1.489129756566e-04 1.000000000000e-03 1.047197551197e-05 -7.954592424336e-10 -1.753527843989e-09 -4.090686321543e-10
235 2 5.649615372708e-03 2.768241173762e-03 1.284189425041e-02 2.875315253229e-08 1.501578047710e-07 1.143618324358e-07 5.419631290519e-05 -5.797613374368e-06 9.229889442059e-05 1.000000000000e-03 1.047197551197e-05 -1.567250685674e-09 -2.506586234602e-09 -7.939598122169e-10
236 2 2.945046122664e-03 8.128020494003e-04 5.324882566275e-03 1.236546463180e-06 -1.524766632254e-06 8.030224642917e-07 -1.416734180428e-03 -2.913062494857e-03 -3.361643551439e-04 1.000000000000e-03 1.047197551197e-05 -3.805135684550e-09 -2.609198854807e-09 -8.022075003940e-09
237 2 2.727403347707e-03 8.012729973460e-03 1.164853415667e-02 -3.281301645775e-07 2.305819116134e-09 3.633425502575e-07 -1.921489781191e-04 -1.843345257800e-04 1.940577581624e-04 1.000000000000e-03 1.047197551197e-05 4.756417427119e-11 -2.911523501716e-09 -1.478161294707e-09
238 2 5.810908409598e-03 1.121845168475e-02 1.199408108725e-02 -2.509369384554e-07 -1.361436676790e-07 2.209216647256e-07 -3.778168640804e-04 -9.207793316501e-05 3.658564875684e-04 1.000000000000e-03 1.047197551197e-05 -4.423124350940e-09 -3.231180568606e-09 -1.946404274524e-09
239 2 4.294332617623e-03 3.729217911681e-03 6.775496867346e-03 -7.389774240740e-07 -1.845367551924e-07 1.453517068488e-07 -1.614163630898e-03 1.781083087498e-03 1.554601144459e-03 1.000000000000e-03 1.047197551197e-05 -6.063445392490e-09 -6.369679924904e-09 5.616835410204e-11
240 2 1.441958135925e-02 1.974951391836e-03 1.691722838136e-03 3.462837169493e-08 -3.533171903881e-07 -4.710992084556e-08 -2.007327644873e-04 -4.874031116403e-04 6.300146787777e-04 1.000000000000e-03 1.047197551197e-05 -8.715457842295e-09 -1.536596668712e-09 3.016708697709e-09
241 2 1.246948574341e-02 1.040036701971e-02 1.227217168116e-02 7.088927468143e-06 -2.080660479780e-07 -1.696559456644e-06 1.598604326302e-04 6.618050505663e-03 7.155707444984e-05 1.000000000000e-03 1.047197551197e-05 -2.170167415922e-08 -2.189713858853e-09 3.953565383068e-09
242 2 1.021042305557e-02 1.236246663148e-02 1.049771704937e-02 2.516577172464e-07 -4.742843893155e-08 1.017594166745e-06 -1.314221805419e-03 -3.224413793244e-04 2.055812488811e-04 1.000000000000e-03 1.047197551197e-05 -3.596040102722e-09 -4.607282791184e-09 1.025170526895e-09
243 2 6.953830847321e-03 1.536560924333e-02 9.611539757740e-04 -1.636366547348e-06 1.782472475216e-05 -1.071060695275e-05 -2.020870074038e-02 -7.585635829799e-03 -8.491869066973e-02 1.000000000000e-03 1.047197551197e-05 -2.227561076148e-08 -3.545977248586e-08 1.740027613580e-08
244 2 3.386959296482e-03 1.062175872595e-02 1.239030226967e-02 -3.216666539761e-07 8.644632765217e-09 3.692783951922e-07 1.673805065439e-04 1.185969397704e-05 -6.638026330428e-05 1.000000000000e-03 1.047197551197e-05 -1.152729751691e-09 -2.044718780458e-09 -1.372457182091e-09
245 2 7.949710720179e-03 1.189040059424e-02 9.011929257906e-03 -2.307905116856e-07 -6.704324058007e-07 6.412698538088e-07 -7.317991506537e-04 1.445120182467e-03 4.391540535778e-04 1.000000000000e-03 1.047197551197e-05 -3.537333826722e-10 4.587707388248e-09 -3.701154544650e-09
246 2 5.629758863964e-03 1.491351690022e-02 4.643820676344e-03 3.554360425510e-07 -1.261814598409e-06 2.507644395503e-06 -8.394320277983e-04 -3.843838237523e-03 1.020911661037e-03 1.000000000000e-03 1.047197551197e-05 1.505602953149e-09 -5.275701873566e-09 -1.248179859471e-08
247 2 1.979856712669e-03 1.472625000954e-02 9.133787414176e-04 -1.268972644533e-07 -8.222543595767e-07 4.334810738743e-08 5.049311507567e-04 -2.446189954335e-04 -3.031234543443e-03 1.000000000000e-03 1.047197551197e-05 -5.025641908691e-09 1.722680683834e-09 -6.184065614879e-10
248 2 5.659539301524e-03 1.529151058201e-02 1.025480280535e-02 -2.643209045765e-07 -1.939003029187e-07 3.725147349101e-07 1.294810455769e-04 2.348656453423e-04 5.642993284747e-04 1.000000000000e-03 1.047197551197e-05 1.237044337113e-10 -2.740121461972e-09 -1.800888426481e-09
249 2 8.675678934095e-03 1.474878269918e-02 1.302757290100e-02 -7.004933679873e-08 -2.037159398836e-07 8.210744823461e-08 1.969566457844e-04 9.157222405955e-05 -1.768724381661e-04 1.000000000000e-03 1.047197551197e-05 -1.074844777501e-09 -2.889325178486e-09 -9.252828765865e-10
250 2 1.441173467948e-02 1.411021006743e-02 3.851047154008e-03 -1.032301360482e-06 -7.033429731078e-07 2.034307761880e-07 2.024204161442e-04 -2.341735601654e-04 -2.129501073614e-04 1.000000000000e-03 1.047197551197e-05 -6.944876891329e-09 -8.526872332616e-09 -1.687289750047e-09
251 2 3.912411881473e-03 9.745725693571e-03 3.254007638806e-03 -2.752942592194e-07 -1.383062381526e-06 -2.270144647992e-08 2.933430037754e-05 1.061509264441e-04 3.942579554571e-04 1.000000000000e-03 1.047197551197e-05 -5.248809262736e-09 1.221715300033e-08 1.424567378494e-09
252 2 9.492220636508e-03 4.401959720558e-06 6.628790915706e-03 -1.437102325424e-06 -1.086587685929e-06 -8.586426476138e-07 -4.475377715428e-04 2.169188274405e-03 -9.886371510513e-04 1.000000000000e-03 1.047197551197e-05 -3.366017451490e-10 2.435441039307e-09 4.611249775522e-09
253 2 5.410760666816e-03 2.055718248654e-03 1.455196653672e-02 3.419349245144e-08 5.968754873235e-08 7.233465837688e-08 2.821631549804e-05 -1.574327989519e-05 5.052682047010e-05 1.000000000000e-03 1.047197551197e-05 -1.073953237889e-09 -1.161000461495e-09 -2.713418355708e-10
254 2 3.208095232019e-03 8.022199906650e-03 5.808345837048e-03 3.996532884605e-08 -1.588330167380e-06 5.339309453488e-09 -3.742709701448e-04 -1.456578803348e-04 -1.399505161290e-04 1.000000000000e-03 1.047197551197e-05 -5.167620848301e-10 3.753579578975e-09 -7.998043587018e-10
255 2 1.816765982985e-03 1.161852473576e-02 1.298336902873e-02 -1.586226116457e-07 2.204624630038e-07 5.719601632160e-07 -1.596340868063e-05 -6.601693047573e-05 -2.428636306151e-04 1.000000000000e-03 1.047197551197e-05 -1.251737497733e-09 -2.042039608000e-09 -1.442182709157e-09
256 2 9.413147624247e-03 3.226173669295e-03 2.794415939966e-03 -7.319446734145e-07 2.010764261138e-06 4.557919462730e-07 2.451770024339e-03 2.162956610657e-04 -2.540812712164e-03 1.000000000000e-03 1.047197551197e-05 -5.780377258279e-09 -6.529711750951e-09 4.619767358326e-09
257 2 1.505989143399e-02 1.019837798291e-02 3.418470383795e-03 -5.021067857164e-07 -4.152555342619e-07 1.281820166697e-07 7.741150497624e-05 2.957553068533e-04 7.458560592421e-04 1.000000000000e-03 1.047197551197e-05 5.771887899676e-09 -8.571321750921e-09 4.363985359112e-10
258 2 9.213200011219e-03 9.847209588913e-03 7.885957282198e-04 -2.063149086646e-07 1.132941154566e-06 6.263685687842e-07 -5.628897553399e-04 -1.290362663625e-04 -2.561208973337e-04 1.000000000000e-03 1.047197551197e-05 1.970422684838e-09 -1.923412356090e-08 -6.434463958806e-09
259 2 6.654387799080e-03 2.815873325824e-03 8.584662101414e-03 -1.114588951247e-06 1.024350520417e-07 -5.418607801902e-07 -1.189390820934e-03 -1.378183524536e-03 9.358362778886e-04 1.000000000000e-03 1.047197551197e-05 -3.878391594730e-09 -4.928191411227e-09 -5.982947501277e-10
260 2 1.248806518451e-02 2.614452178453e-03 1.441412630649e-02 1.902861489539e-08 -1.048935335980e-07 3.261211757675e-08 -1.176422671066e-04 -2.431009486819e-05 7.992572537367e-05 1.000000000000e-03 1.047197551197e-05 -5.281490609497e-10 -4.118748809050e-10 3.315688602151e-10
261 2 1.396809292773e-03 1.279363255692e-02 1.048384667250e-02 -3.470018241794e-07 -2.876524371849e-07 5.107251329978e-07 -2.923033138566e-04 -2.992962645786e-05 -1.783287130064e-04 1.000000000000e-03 1.047197551197e-05 -1.568368513106e-09 -3.233373651569e-09 -8.163630013118e-10
262 2 2.364491615516e-03 1.060680260973e-02 1.441643792088e-02 -7.592765908370e-08 3.750267372898e-08 3.234062272069e-07 5.769693207027e-05 1.962655494067e-04 1.553798426406e-04 1.000000000000e-03 1.047197551197e-05 -1.042429643498e-09 -1.139962744351e-09 -1.097384765202e-09
263 2 1.362796222650e-02 6.578230345961e-03 6.043032927185e-03 -4.082732948632e-08 -2.895306726803e-07 3.007735970376e-07 9.267606942986e-05 2.092883887344e-04 -3.837032232142e-04 1.000000000000e-03 1.047197551197e-05 1.812833282323e-10 -8.328662743899e-09 -1.154734245067e-09
264 2 1.273486663934e-02 1.377260444108e-02 9.905101841709e-03 -2.166444528537e-07 1.571758257078e-08 1.824192649762e-07 -4.972163746710e-04 -6.207464159686e-04 -2.906133807635e-04 1.000000000000e-03 1.047197551197e-05 -2.886740513197e-09 -5.802259745601e-10 4.876435461689e-10
265 2 7.541139233239e-03 7.266988168344e-04 9.183172600959e-03 -2.998847734854e-07 -2.302030248755e-07 3.758380419554e-07 4.691931860121e-05 1.014784073383e-04 3.096094911146e-04 1.000000000000e-03 1.047197551197e-05 -4.744964367072e-09 -2.885783435670e-09 -4.044278518464e-09
266 2 5.445266604443e-06 3.517698366548e-03 2.109631970882e-03 4.979984063755e-07 -1.261310851950e-06 -3.214125038371e-07 8.542996761900e-04 1.133125002901e-03 -1.096493199927e-03 1.000000000000e-03 1.047197551197e-05 -9.398448942186e-09 -1.953114608122e-11 1.894261136888e-09
267 2 4.059757915880e-03 1.169648831590e-02 8.706341242182e-04 -9.383744656052e-07 9.559308671094e-08 5.079377282079e-07 -2.150530113066e-05 -5.975262601976e-04 1.723397484151e-03 1.000000000000e-03 1.047197551197e-05 3.845329203130e-09 3.896101371693e-09 2.235098512255e-10
268 2 1.721038001450e-04 1.514876841645e-02 1.212458586048e-02 -2.520198580399e-07 1.972534462097e-08 3.012905383348e-07 -6.949283646263e-06 -3.741252810133e-05 -7.481106213895e-06 1.000000000000e-03 1.047197551197e-05 -2.291339852996e-09 -1.137001277548e-09 -3.981732743009e-10
269 2 7.915458902168e-04 1.285732277265e-02 9.455861300801e-04 -7.116609686044e-07 -9.298900809297e-07 1.026961883139e-07 3.826085993382e-04 -3.215132095920e-04 -4.797108353966e-04 1.000000000000e-03 1.047197551197e-05 1.676544705333e-09 -1.723500381215e-09 2.287966872635e-10
270 2 5.081579315848e-03 1.617838951353e-03 1.154667381889e-02 -3.187165489096e-09 6.879558361393e-08 2.415180594719e-07 -1.879582544500e-04 1.574549781435e-04 1.411518360014e-05 1.000000000000e-03 1.047197551197e-05 -8.718700987449e-10 -3.581211973133e-09 -8.051048082958e-10
271 2 8.931841023807e-03 5.508108528356e-03 7.263413940678e-03 6.999765635087e-07 -8.064549174495e-08 9.306550197662e-07 -7.750858163244e-05 2.330761985015e-04 8.452836415325e-04 1.000000000000e-03 1.047197551197e-05 -9.684476520209e-10 -5.246155210875e-10 3.976189418874e-09
272 2 1.382593193906e-02 1.286593617991e-02 8.732607207639e-03 -4.772184429230e-08 -1.665047308868e-07 1.174778683346e-07 4.255471342139e-04 6.414315528565e-04 3.364292880473e-04 1.000000000000e-03 1.047197551197e-05 -3.103360148449e-09 -2.576723859759e-09 1.725967219153e-09
273 2 1.257357527907e-02 7.732734270430e-03 4.491733640091e-03 1.595313817103e-07 -1.323577645308e-07 3.796525348217e-07 -9.396904970617e-05 2.466216852858e-04 -2.223150987921e-04 1.000000000000e-03 1.047197551197e-05 -2.190174093378e-09 -1.675576536929e-09 -5.018695668510e-09
274 2 9.470107373224e-03 8.887137277219e-03 1.447372361095e-02 1.422831231214e-06 1.892417666014e-08 -1.588199958783e-07 -2.160024210162e-04 -1.499326462550e-03 -3.783659001494e-03 1.000000000000e-03 1.047197551197e-05 -5.125619614527e-09 -6.076953579944e-10 -2.207787419573e-10
275 2 7.702917807820e-03 9.164487936092e-03 3.280840817329e-03 -1.835148044597e-07 6.196498117235e-07 8.174488966987e-07 4.132338682170e-04 1.058368019568e-04 6.083355588798e-04 1.000000000000e-03 1.047197551197e-05 2.612492450190e-09 -1.887714893033e-09 2.744223728068e-09
276 2 7.043838400640e-04 1.288886423702e-02 1.395505216888e-02 -6.336972596455e-08 3.665537792791e-07 3.393041184946e-07 4.613751894986e-07 -6.273947670990e-05 -1.231307541130e-04 1.000000000000e-03 1.047197551197e-05 -9.380038578976e-10 -1.557602999293e-09 -1.279783256991e-09
277 2 1.384464781482e-02 3.584994137904e-04 4.844586680755e-03 -9.426968057579e-07 -7.606647684570e-07 8.340458385535e-08 -6.514266725040e-05 -4.138320123583e-05 5.159271307605e-05 1.000000000000e-03 1.047197551197e-05 -6.951070242549e-09 -6.356978205024e-09 -9.164314865987e-10
278 2 4.451201671504e-03 1.206337975155e-02 1.305404302719e-02 -2.040058089887e-07 -3.123652133739e-08 1.546283587162e-07 -1.523933365039e-04 2.883606396203e-04 -4.287062669330e-05 1.000000000000e-03 1.047197551197e-05 -1.780609035788e-09 -2.045570632476e-09 -8.955695350950e-10
279 2 2.914310629595e-03 1.215801412444e-02 6.863038922136e-03 -6.769597541696e-07 -9.370374214171e-07 5.944205212274e-07 -3.363944102460e-04 2.390338264780e-04 -1.181162738771e-04 1.000000000000e-03 1.047197551197e-05 5.197813668153e-10 -2.143215180498e-09 9.316058354470e-10
280 2 9.908095455132e-03 9.175125774674e-03 1.163195998813e-02 2.469569946099e-06 4.226158018803e-06 3.898163449229e-06 -7.057653627820e-03 8.486235604419e-03 -2.959358408523e-03 1.000000000000e-03 1.047197551197e-05 -1.008858865605e-08 -1.394434233254e-08 -1.025630470061e-08
281 2 7.445792716324e-03 4.439360008689e-03 9.565463399787e-03 4.190661449519e-07 -1.525836184068e-07 3.557418526041e-07 -1.750958122660e-04 1.608928008667e-04 -4.276379731642e-05 1.000000000000e-03 1.047197551197e-05 -3.987022066972e-09 -2.889487347069e-09 3.118350247875e-10
282 2 1.148639249545e-02 1.690432252228e-05 5.499643320434e-03 -7.948588769854e-07 -9.093689721284e-07 1.111213573885e-06 -2.920927306284e-04 1.732669351306e-03 6.998765933131e-04 1.000000000000e-03 1.047197551197e-05 -4.088594912893e-09 -5.229345463358e-09 2.329128661385e-09
283 2 1.333359595071e-02 8.616631990546e-03 1.302547753925e-02 9.891067088485e-07 -1.434487879458e-06 9.200477203805e-08 1.176587093083e-03 4.044825621414e-05 9.607926698329e-04 1.000000000000e-03 1.047197551197e-05 -4.323754533603e-09 2.764754558732e-09 -6.582469185527e-10
284 2 1.106157971750e-02 1.070543663720e-02 1.093925880916e-02 6.877313306985e-07 1.537240322864e-08 2.586040343477e-06 -2.178065480149e-04 7.097732507384e-04 -1.707268372550e-04 1.000000000000e-03 1.047197551197e-05 -5.786995024947e-09 -5.068643562519e-09 -4.875308243666e-09
285 2 1.170607052945e-02 8.223137981356e-03 1.443826694074e-02 1.077311789587e-06 -2.414472189006e-07 -3.417059469280e-07 -6.715828775230e-06 -3.795399336008e-04 -2.418720776519e-03 1.000000000000e-03 1.047197551197e-05 -4.097074736031e-09 -1.063121007870e-11 1.503464654322e-09
286 2 8.787913290303e-03 1.352876538525e-02 2.392320616790e-03 -8.132637049841e-06 2.944126354263e-06 -3.008361503171e-06 3.743421706229e-03 -1.055671760296e-02 3.949559805320e-03 1.000000000000e-03 1.047197551197e-05 2.783409527553e-08 -5.112068216816e-09 2.719333489488e-09
287 2 1.066320243477e-02 6.002151850750e-03 7.959968729552e-03 2.600535998193e-07 1.607833733562e-08 3.144986546945e-07 3.676277432970e-04 1.945629658753e-04 -4.214560270986e-04 1.000000000000e-03 1.047197551197e-05 6.629484051670e-10 -2.959610682477e-09 8.822832368263e-10
288 2 2.100798214064e-03 3.007372991611e-03 1.322891725859e-02 -5.706866091115e-08 9.344722254645e-08 1.095605844140e-07 -1.152646059213e-04 -4.369281068365e-05 3.859120698958e-05 1.000000000000e-03 1.047197551197e-05 -1.772628908299e-10 -1.946516097833e-09 -8.256959631428e-10
289 2 7.289941993053e-03 8.866660594813e-04 1.439829378730e-02 -2.102549717967e-08 -3.782115548978e-08 5.392991433805e-08 -4.010682722878e-05 2.479753955513e-05 -3.666134395241e-05 1.000000000000e-03 1.047197551197e-05 1.029515793893e-10 -1.996355275415e-09 5.854529860069e-10
290 2 4.169672023003e-05 9.938373635513e-03 1.593437061795e-03 -1.026805693989e-06 -7.100121919799e-07 1.783722962545e-07 -4.694744628769e-04 3.189644921782e-04 -1.523953364103e-04 1.000000000000e-03 1.047197551197e-05 8.954437574541e-09 -6.449745145868e-09 -1.799828747269e-09
291 2 7.652943514101e-03 8.137048548197e-03 1.236217485488e-02 2.802897864604e-08 5.426940826838e-07 4.043152289418e-07 -1.103784862881e-04 -2.854074898357e-04 -1.960184261529e-04 1.000000000000e-03 1.047197551197e-05 -2.267002985091e-09 -4.877375497451e-09 -6.487698969356e-10
292 2 2.521149610503e-04 9.559425319600e-05 9.881658009091e-04 -1.650633766825e-07 1.256718736649e-07 1.037687196125e-07 -3.452470999296e-04 2.485925405741e-04 1.320594806917e-03 1.000000000000e-03 1.047197551197e-05 -3.590312882958e-09 7.725455072796e-10 1.100189249174e-09
293 2 1.423105168786e-02 1.450670123253e-02 1.086383009040e-02 -3.866505949134e-07 5.956209980778e-08 2.817985030994e-07 8.162676699919e-05 2.821267711599e-04 5.164971218410e-05 1.000000000000e-03 1.047197551197e-05 -2.621067129675e-09 -1.213835542395e-09 -8.411623780889e-11
294 2 8.615101190277e-03 7.611186574706e-03 4.000590894237e-03 5.513467076021e-07 6.201714138508e-07 3.418697363190e-07 4.477121892267e-04 -5.096870668845e-04 3.810457533564e-04 1.000000000000e-03 1.047197551197e-05 -1.924286911884e-09 -2.267106013104e-09 1.416710224239e-10
295 2 4.365504683416e-03 1.320455924756e-03 9.859446039419e-03 -1.956977246394e-07 -2.611524566206e-07 6.040490116380e-07 -2.854940436109e-04 -1.316401049342e-05 -5.339823891676e-04 1.000000000000e-03 1.047197551197e-05 -3.501005982001e-10 -3.558653539852e-09 -2.106388388813e-09
296 2 5.853208215124e-03 9.452471802537e-03 1.282513185886e-02 -6.744862964694e-09 1.409681658667e-09 4.122834949773e-07 2.503720357605e-05 -5.847833437776e-04 4.409440797204e-07 1.000000000000e-03 1.047197551197e-05 -3.867210367961e-09 -2.383771597250e-09 -1.163007710204e-09
297 2 8.372665024598e-03 5.433706447590e-03 1.093842846088e-02 3.133479744751e-07 7.015691809377e-08 2.998424054238e-07 2.606058122027e-06 -8.541584531610e-05 2.410216356667e-04 1.000000000000e-03 1.047197551197e-05 -1.686864575425e-09 -3.470584111178e-09 -4.995918042780e-10
298 2 1.151737878860e-02 1.246078702375e-02 1.220776998967e-03 -7.941778015885e-07 1.010719298875e-06 -1.418201893466e-06 -5.459290055826e-04 -1.290491441645e-03 -3.382723434882e-04 1.000000000000e-03 1.047197551197e-05 1.597008494114e-08 -5.544805363552e-11 -7.180458290984e-09
299 2 6.998381096122e-03 1.151100486312e-02 7.455634953075e-03 -5.514564715485e-07 -6.287052136806e-07 9.864151603009e-07 9.203370689812e-04 -9.777209221134e-04 -2.124892813947e-04 1.000000000000e-03 1.047197551197e-05 1.900101652565e-09 6.945870025651e-09 -8.481997035787e-09
300 2 9.538410350190e-03 7.407162052737e-03 1.074483312137e-02 -1.252418170844e-07 -9.976982042630e-08 1.806318973623e-07 3.285423033407e-04 4.792876356269e-04 2.240878172231e-06 1.000000000000e-03 1.047197551197e-05 -1.969091554471e-09 -2.551665825921e-09 9.443804865257e-10
301 2 3.506050944320e-03 2.642104304958e-03 5.459432508884e-03 -4.307614562685e-07 -9.768547807077e-07 2.164649568770e-06 1.881400400234e-03 1.329424467662e-04 1.354336864538e-03 1.000000000000e-03 1.047197551197e-05 -2.675716003521e-09 -4.822444969658e-09 -4.294855065614e-09
302 2 1.137659463168e-02 6.994712520002e-03 9.970589998079e-03 4.036538495307e-07 -8.854919619830e-08 -2.559571199644e-08 3.459244882199e-04 -1.740572099543e-05 -7.731316828775e-04 1.000000000000e-03 1.047197551197e-05 -2.583414905487e-09 -1.592798464685e-09 2.052304761824e-09
303 2 4.570207699129e-03 5.218101858701e-03 3.630493503795e-03 2.808921993678e-06 -4.035599653822e-06 -2.261884413250e-06 1.223313265120e-03 -1.217022318212e-03 3.125943156170e-03 1.000000000000e-03 1.047197551197e-05 -6.198926902527e-09 1.499526967849e-08 3.963118388738e-09
304 2 6.910963937319e-03 1.000690674438e-03 4.846057831093e-03 -3.130934237314e-06 -6.893027656936e-07 -7.587424687804e-07 -2.155939595391e-03 3.204216442636e-03 1.077534985867e-03 1.000000000000e-03 1.047197551197e-05 7.021921448942e-09 3.683559560797e-09 -3.698353012091e-09
305 2 1.063813362542e-02 1.413705278176e-02 2.689550182221e-03 -3.509229019505e-06 9.815455220950e-07 7.164776252328e-06 2.374616183748e-03 7.028899546826e-03 -3.748305720928e-03 1.000000000000e-03 1.047197551197e-05 8.339348619803e-09 1.311186861784e-09 -4.092699560004e-08
306 2 1.317076377379e-02 9.217618936309e-03 9.056136369973e-04 -1.483375143090e-07 -4.716997670845e-07 1.378667541487e-07 4.634625010936e-04 -8.721574271889e-05 4.861771496210e-04 1.000000000000e-03 1.047197551197e-05 1.456015605361e-08 2.088305856348e-09 -2.189778729268e-09
307 2 6.381829570507e-03 1.147231416137e-02 5.490413273141e-03 -1.934196508519e-07 -5.878458155229e-07 9.280314387761e-07 8.061300631686e-04 -7.542233631730e-04 1.025690253515e-04 1.000000000000e-03 1.047197551197e-05 -1.625865833855e-09 -5.093060713766e-10 4.686485113222e-09
308 2 1.086408418783e-02 4.070791273429e-03 7.037428205725e-03 -2.196074913915e-07 -5.084120329578e-07 2.604576168329e-07 1.688599074869e-04 4.523259193161e-04 3.938358687160e-04 1.000000000000e-03 1.047197551197e-05 -1.730659840659e-10 -6.266396885658e-09 2.349552979971e-09
309 2 1.095566949538e-02 2.548446279986e-03 9.385659795190e-03 -1.241572340016e-07 3.223920518126e-08 7.475744997624e-07 1.961523094882e-04 5.804972392533e-04 -4.995641009657e-04 1.000000000000e-03 1.047197551197e-05 -4.168444262230e-09 -5.001012565851e-09 -3.962708680919e-09
310 2 6.483364209096e-03 2.707557330005e-04 2.949615640786e-03 -1.221990558202e-05 -1.356690823619e-06 7.828182292798e-06 -1.127420799121e-02 2.091353710970e-02 3.058810288799e-03 1.000000000000e-03 1.047197551197e-05 3.496749899857e-08 9.669771937261e-09 -2.651069181206e-09
311 2 9.567748031418e-03 8.159968169277e-03 5.524892306660e-03 -3.960885259810e-08 5.227499612011e-07 4.936975081029e-07 -2.749964980284e-06 9.763752602184e-05 1.323890464656e-05 1.000000000000e-03 1.047197551197e-05 -1.731701104123e-09 1.463641656880e-09 1.417461728629e-09
312 2 2.324049006822e-03 1.206927755814e-02 8.959028387630e-03 -6.504910751739e-07 -7.037578553495e-07 5.312010630319e-07 7.626701172614e-05 5.248685122203e-05 -3.265619086993e-04 1.000000000000e-03 1.047197551197e-05 -2.163313492790e-09 -3.923465402796e-09 2.858549118305e-11
313 2 2.425506226803e-03 4.587702546495e-03 2.362799497520e-03 1.042156171300e-06 -1.410483164705e-06 7.497412621062e-08 1.322973389096e-03 1.669729884427e-03 -5.443130590068e-04 1.000000000000e-03 1.047197551197e-05 -5.236228452210e-09 2.238487258386e-09 -2.849856092669e-09
314 2 8.431624464229e-03 3.671299733431e-05 2.662407496621e-03 -2.588793725230e-06 1.176149948245e-06 -1.122897740196e-06 1.301368452789e-03 -1.843113413209e-02 -2.264728274794e-02 1.000000000000e-03 1.047197551197e-05 -4.371766850367e-09 1.551795540880e-09 -1.358565022672e-08
315 2 7.521291468830e-03 6.411275437522e-03 9.504190706632e-03 1.850573209434e-07 -3.091809767668e-08 2.816539967632e-07 5.485307939405e-05 -2.641039734176e-05 1.839179045433e-04 1.000000000000e-03 1.047197551197e-05 -2.824134046138e-09 -3.663628302666e-09 -7.705504750859e-10
316 2 7.437309076621e-03 1.358839096667e-02 1.216978349662e-02 -2.703673851534e-07 1.016860616049e-07 1.611082839042e-07 -2.161916472725e-05 1.086998401206e-04 -6.735850132164e-05 1.000000000000e-03 1.047197551197e-05 -1.896366074949e-09 -4.190842815280e-09 8.386616468062e-10
317 2 1.452975749905e-02 1.388651924325e-02 8.389132291052e-04 -6.201403331546e-08 -5.247790481724e-07 1.587066031340e-07 5.129927373264e-04 -1.076900334543e-04 -2.448931427162e-04 1.000000000000e-03 1.047197551197e-05 6.890022153747e-10 -6.219116390870e-10 -1.750183467227e-10
318 2 1.893904671968e-03 1.116314771727e-02 1.164972239159e-03 -8.468581535377e-07 -1.086234392406e-06 4.484305305063e-07 3.189830145077e-04 -1.408361251560e-04 1.182689118665e-04 1.000000000000e-03 1.047197551197e-05 8.606605476702e-09 3.078144638262e-09 -1.482071151371e-09
319 2 4.570899322972e-03 7.200649816084e-03 4.732357468974e-03 8.873443993595e-07 -1.695020244560e-06 -3.352204716407e-07 3.801397087550e-04 -9.224456276562e-05 1.327990110741e-03 1.000000000000e-03 1.047197551197e-05 -2.611733958657e-09 7.667479604275e-09 1.914061024692e-09
320 2 6.107002467352e-03 1.296119022331e-02 1.334286518031e-02 -1.693953803767e-07 -2.716150873856e-08 5.954906585930e-08 2.855127324329e-04 -6.380848077017e-05 2.985173740328e-05 1.000000000000e-03 1.047197551197e-05 -1.848580324668e-09 -2.612243967248e-09 7.396790397263e-10
321 2 2.818466582884e-04 1.482936881375e-02 1.399404542263e-02 -5.077110400735e-08 2.158944801504e-07 3.346866707310e-07 -1.754512419010e-04 2.631542232027e-04 -1.153261722285e-04 1.000000000000e-03 1.047197551197e-05 -9.207258697698e-10 -1.751153407286e-09 -2.997469843699e-10
322 2 1.314063221143e-03 4.905682338125e-03 7.046519514416e-03 -3.653764665904e-07 -7.681497790454e-07 2.890043210548e-07 -2.402576707611e-04 8.205338362343e-04 -1.667723638283e-04 1.000000000000e-03 1.047197551197e-05 1.041569113734e-09 6.376246306824e-10 -1.542584356146e-09
323 2 1.351712599775e-03 1.357394344310e-02 1.226009671694e-02 -1.534229221721e-07 2.168434535890e-07 2.826348663450e-07 -1.595037282557e-04 1.812030158575e-04 5.810674557459e-05 1.000000000000e-03 1.047197551197e-05 -1.658186185334e-09 -1.403526884182e-09 -1.913202111540e-09
324 2 3.588533179410e-03 1.531425112441e-02 1.448554104097e-02 3.854025349302e-09 4.871189809602e-08 7.647457715515e-08 1.548185701868e-05 1.029737256246e-05 5.130525750090e-06 1.000000000000e-03 1.047197551197e-05 -6.254062485343e-10 -6.811683152051e-10 -2.861967422170e-10
325 2 1.292272551900e-02 6.039498281884e-03 1.290156747452e-02 1.614209461897e-07 1.718588647096e-07 2.806881743438e-07 7.096461821273e-04 -3.757779918992e-04 -8.880147655070e-04 1.000000000000e-03 1.047197551197e-05 -4.613567431200e-10 -1.434925596973e-09 -3.598017126345e-10
326 2 1.264346809328e-02 1.121614916092e-02 2.179066340993e-03 -5.986591127224e-07 6.572048057576e-07 -9.072725347082e-07 1.064228452066e-03 -3.141497711161e-04 8.709593403297e-04 1.000000000000e-03 1.047197551197e-05 -6.853136978008e-10 -4.490787576543e-09 -4.377780693829e-09
327 2 1.343720981089e-02 9.592302380745e-03 1.453218960262e-02 1.798642489868e-06 -1.463350455354e-06 4.162550350915e-08 -1.438473415153e-03 -1.724475607784e-03 -4.950666797929e-03 1.000000000000e-03 1.047197551197e-05 -5.090090199271e-09 4.288059321402e-09 -7.221107564949e-10
328 2 5.097029975242e-03 5.940838753698e-03 1.252493932022e-02 9.954291692189e-08 1.095056957524e-07 1.397260025060e-07 -7.260814028435e-05 -1.477473406704e-04 1.925969950414e-04 1.000000000000e-03 1.047197551197e-05 -1.305190952451e-09 -2.858113017141e-09 -9.519386577311e-10
329 2 3.269611954836e-03 1.357231922944e-02 1.310570345523e-02 -1.074100496205e-07 2.297863884684e-08 2.438045378048e-07 -9.419506746157e-06 -8.828092164869e-06 -1.888013797316e-05 1.000000000000e-03 1.047197551197e-05 -1.611412115491e-09 -1.171149589565e-09 -2.897747924726e-10
330 2 6.932013512409e-03 1.576569069652e-03 1.104645584551e-02 3.241363310893e-08 6.959029868279e-08 1.433745178761e-07 2.037923535233e-04 -6.405465067540e-05 -1.200624890283e-04 1.000000000000e-03 1.047197551197e-05 -1.745431807875e-09 -2.545322572484e-09 2.177201455758e-09
331 2 1.325350890276e-02 4.259971504567e-03 5.941737589394e-03 -5.195631196518e-08 -6.816912673652e-07 -8.622177925866e-09 -6.467447584789e-05 2.851905417828e-04 2.414855760542e-04 1.000000000000e-03 1.047197551197e-05 -3.718312842774e-09 -1.887158377372e-10 -8.548192207330e-10
332 2 1.410630862425e-03 4.316506788245e-03 1.445012743568e-02 -6.828024925014e-08 6.809762220915e-08 4.115628871337e-08 5.613116729237e-05 6.785212395385e-05 7.866978688178e-06 1.000000000000e-03 1.047197551197e-05 6.891519942281e-10 -5.780918670504e-10 -2.687100034025e-10
333 2 1.140898478671e-02 8.788208116167e-03 1.265939136027e-02 4.386344242994e-06 1.269861004160e-06 -6.333320115790e-07 1.106428698104e-03 -1.301132133272e-03 -4.185040887676e-03 1.000000000000e-03 1.047197551197e-05 -1.367828038398e-08 -4.903923404571e-09 1.992348140659e-09
334 2 2.811829274181e-03 6.209453271383e-03 9.818001575262e-04 4.313196769673e-07 -5.848829354018e-08 1.720910809953e-07 6.017809516994e-05 4.906495910163e-05 1.561361454621e-03 1.000000000000e-03 1.047197551197e-05 -2.975218633196e-09 3.489948647071e-09 4.149418338870e-11
335 2 2.168674847208e-03 7.991802940049e-03 9.411597342513e-04 -1.653236005822e-07 -4.718041243334e-07 8.237543664585e-08 1.545887420399e-04 1.099744606100e-04 -4.641460099446e-04 1.000000000000e-03 1.047197551197e-05 -3.485803595077e-09 2.033391582942e-09 1.763133748221e-09
336 2 1.193679121156e-02 1.064236817820e-02 8.667226741948e-03 9.530134628902e-09 -4.728847245883e-07 6.592234585776e-07 3.972755795826e-04 -1.887294160772e-04 -1.196215343546e-04 1.000000000000e-03 1.047197551197e-05 -2.703017305304e-09 -4.115709559128e-09 1.767950907033e-09
337 2 3.155234053974e-04 2.524983263516e-03 1.414500628191e-02 5.794238017809e-08 1.922260512077e-08 2.027512185099e-07 -5.250603234532e-06 5.215114248667e-05 -3.762347004292e-05 1.000000000000e-03 1.047197551197e-05 -6.148982150096e-10 -5.758529766852e-10 9.886185300507e-11
338 2 6.323566803274e-03 4.553929316428e-03 1.250941633715e-02 2.850702928856e-07 1.840979420936e-07 2.077820320266e-07 -1.030417201062e-04 1.998146725619e-04 -2.159648844851e-05 1.000000000000e-03 1.047197551197e-05 -1.971447434041e-09 -2.859697993530e-09 -5.355603611710e-10
339 2 8.938496817838e-03 1.160198736145e-02 4.477224824651e-03 -1.145147280968e-06 2.544139627374e-07 7.667105071038e-07 6.338661998871e-04 -3.444740655583e-03 1.541828712918e-05 1.000000000000e-03 1.047197551197e-05 2.214265993646e-09 -1.014634773374e-08 -8.489433877152e-09
340 2 1.236589441858e-02 1.390887803893e-02 4.580786320385e-03 -1.241388872152e-06 -8.173794262910e-07 2.150989809191e-07 -4.326920221554e-04 8.641701648948e-07 -4.367604537571e-04 1.000000000000e-03 1.047197551197e-05 -6.367603487551e-09 -7.739909341010e-09 2.736097538109e-10
341 2 1.846765082378e-03 7.051127509947e-03 2.590059905372e-03 2.158746043513e-08 -1.166115970512e-06 4.282005508179e-08 3.870937054630e-05 -4.391903205631e-05 -1.016499566648e-04 1.000000000000e-03 1.047197551197e-05 -4.637211396028e-09 3.649722796386e-09 1.882242419559e-09
342 2 3.307379226159e-03 5.260574688801e-03 1.036173989660e-02 8.478439246945e-08 -2.793190630784e-07 2.017367790644e-07 -7.547139763265e-05 -1.127445085858e-04 9.303970617191e-05 1.000000000000e-03 1.047197551197e-05 -4.336061751838e-10 -5.120485019307e-09 -5.746656975670e-10
343 2 1.082584420895e-02 1.410825039518e-02 1.003755061307e-02 -1.464446361017e-07 3.500143502749e-08 1.405838554071e-07 4.905841804089e-04 4.859997642106e-04 2.132962306175e-04 1.000000000000e-03 1.047197551197e-05 -3.519109697815e-09 -4.373694430505e-09 4.238274193341e-09
344 2 1.382086769911e-02 1.813006955982e-03 3.550972441182e-03 -5.408739990226e-07 -6.329999168569e-07 1.275816945212e-07 2.228087296246e-04 -1.684846704378e-05 -1.330889812424e-04 1.000000000000e-03 1.047197551197e-05 -6.684933288762e-09 -4.531546421678e-09 3.515383404520e-09
345 2 8.509240922091e-03 1.710178339189e-03 3.677245763199e-03 5.282451929623e-07 -4.000762087584e-06 -7.143974988212e-07 5.557183836191e-04 -2.458199431349e-03 6.812437693478e-03 1.000000000000e-03 1.047197551197e-05 -8.939711410661e-09 1.311908436430e-08 2.019192100352e-09
346 2 1.192189359472e-02 1.273362533735e-02 3.140699464658e-03 -2.215758906882e-06 -9.725201634249e-07 3.816432813790e-08 8.754445327067e-04 4.629060652557e-04 1.217487613577e-03 1.000000000000e-03 1.047197551197e-05 1.855426659917e-10 -2.992230195343e-09 -1.715776574170e-09
347 2 7.625298753642e-03 1.184423460838e-02 1.433298143746e-02 9.007215550575e-07 -5.452482273598e-07 -9.987164125402e-08 8.066312529372e-04 1.009077619552e-03 1.928488785426e-03 1.000000000000e-03 1.047197551197e-05 -3.306094421734e-09 -6.845503353654e-10 1.788159961107e-10
348 2 4.450831821576e-03 9.186905592298e-03 9.891120388199e-03 -3.786445505044e-07 -6.019792536972e-07 3.221516639781e-07 -2.281447633184e-04 -1.949852941241e-04 2.030904770386e-04 1.000000000000e-03 1.047197551197e-05 -1.828022089072e-09 -2.434244430765e-09 -1.239178564654e-09
349 2 9.291696595678e-03 1.570453917289e-03 5.461769527269e-03 -8.660284121137e-07 -7.240062570205e-07 -4.218536196099e-07 -2.792114123601e-04 -3.909841864400e-04 -2.761973357105e-04 1.000000000000e-03 1.047197551197e-05 -1.858354195375e-09 2.788620608449e-09 1.660877670260e-09
350 2 8.298189168748e-03 1.338606566533e-02 4.173641530374e-03 -3.070470748995e-06 9.222998796143e-07 -1.138420492711e-06 -3.479536693888e-03 8.990475309101e-03 2.940408045623e-04 1.000000000000e-03 1.047197551197e-05 8.091271117977e-09 -4.201090967301e-09 -9.688625533456e-10
351 2 2.646015602149e-03 3.746240571026e-03 7.715844851339e-03 -3.498978755238e-07 -6.480008251868e-07 5.921133609913e-07 -3.351374742552e-04 -5.586061219593e-04 -1.688671550391e-04 1.000000000000e-03 1.047197551197e-05 -4.177770632184e-09 -3.751284781445e-09 -1.782404199087e-09
352 2 1.153767067072e-02 1.248151599531e-02 9.107096457939e-03 -3.622644351262e-09 -5.003776633553e-07 8.799860297750e-07 8.999963414713e-05 3.431606182997e-04 1.516069457896e-04 1.000000000000e-03 1.047197551197e-05 8.811949859971e-10 -3.798751100358e-09 3.917280535454e-09
353 2 9.860015228218e-03 5.814199497144e-03 9.698445511764e-03 1.207649548445e-07 5.005377787308e-08 1.926752893117e-07 -4.601462414656e-04 -1.012047860236e-04 3.743618688788e-04 1.000000000000e-03 1.047197551197e-05 1.800640413548e-09 -3.363610263977e-09 1.952055169598e-09
354 2 3.564536706065e-03 9.753812206275e-03 5.071775951988e-03 -3.365668788373e-07 -1.255538954703e-06 -7.305728912599e-08 9.273250478012e-05 -2.574009325400e-04 2.914667610408e-04 1.000000000000e-03 1.047197551197e-05 -9.859244699902e-10 4.204150763838e-09 2.605897066971e-10
355 2 4.969777528821e-03 1.177028872313e-02 8.944110555816e-03 -9.090264465402e-07 -6.398550348723e-07 7.973150259377e-07 5.937087647871e-04 3.443624391794e-05 1.593338708968e-04 1.000000000000e-03 1.047197551197e-05 -2.202846908999e-09 -1.828163748598e-09 2.289940663888e-09
356 2 9.331242988630e-04 1.037409991671e-02 4.925777321410e-03 -6.239421900884e-07 -6.241474636480e-07 -1.171985618661e-07 2.346149083947e-04 -2.238848540868e-04 -4.360175786512e-04 1.000000000000e-03 1.047197551197e-05 1.552568515263e-09 -1.587155087933e-09 3.357397020730e-09
357 2 1.477941385640e-03 1.327903961211e-02 7.605508692738e-03 -3.918387252300e-07 -2.677411256736e-07 3.864773272213e-07 6.229045177413e-05 -1.356275202592e-04 -5.016147379422e-04 1.000000000000e-03 1.047197551197e-05 -9.676539445801e-10 -6.563387141127e-09 8.085868895601e-10
358 2 2.486588231316e-03 1.506828073798e-03 1.032756356466e-02 -2.063464330976e-07 -1.240781815118e-07 4.064035215407e-07 6.668923658845e-05 -2.784235522110e-05 1.818587820850e-04 1.000000000000e-03 1.047197551197e-05 -1.251558091843e-09 -3.834328474924e-09 -2.313141535148e-09
359 2 1.407312594431e-02 1.117259139827e-02 9.317713833253e-04 -3.838646433755e-07 3.848365803559e-07 -3.435676839565e-07 -2.994012734927e-04 -2.761779743262e-04 -1.462739763353e-03 1.000000000000e-03 1.047197551197e-05 6.783050496856e-09 -1.401662638324e-08 5.249392807661e-09
360 2 3.516670534397e-03 1.061786895297e-02 8.389323934093e-03 -8.890737985808e-07 -8.030107163226e-07 5.684157031897e-07 -2.983145483697e-04 -7.516366122484e-06 -1.241719451943e-04 1.000000000000e-03 1.047197551197e-05 -1.595384984474e-09 -3.176605222018e-09 -2.641867408781e-09
361 2 4.163218887649e-03 1.018842966901e-02 1.415691913910e-02 -2.141029276413e-07 -5.927967140979e-08 2.004783489768e-07 -2.066622040354e-04 4.758387293472e-05 -2.603781854546e-04 1.000000000000e-03 1.047197551197e-05 -1.778137099576e-09 -1.677017104641e-09 -4.218006148344e-10
362 2 1.018729669262e-02 5.604884965024e-03 9.642881281197e-04 -1.719205337837e-07 6.930136797455e-07 -5.693739726926e-08 -2.595346796594e-04 -1.835576316126e-04 -1.419415074274e-03 1.000000000000e-03 1.047197551197e-05 -1.004917243476e-09 -4.990416094025e-09 -1.312081310649e-09
363 2 6.088368843012e-03 4.183026169399e-03 4.323851444555e-03 5.716395289966e-06 8.115797775322e-07 -2.056330497637e-06 4.276212245089e-03 -4.432044866012e-03 6.393185001704e-03 1.000000000000e-03 1.047197551197e-05 -1.774755237731e-08 3.810200457370e-09 6.559272343994e-09
364 2 6.532731710884e-03 9.898496429583e-03 6.646841246636e-03 -3.606828034494e-07 -6.917583752211e-07 3.394936961120e-07 -2.788632325840e-04 -9.302288449978e-06 1.899491648333e-04 1.000000000000e-03 1.047197551197e-05 -1.697787048066e-09 2.278959805238e-09 3.696479083838e-09
365 2 9.710183873449e-03 8.060872751476e-03 2.543867668063e-03 8.336904709102e-07 1.827425838128e-06 1.593278954853e-07 6.340543954733e-04 5.187122371623e-05 8.704639737097e-04 1.000000000000e-03 1.047197551197e-05 1.853784906171e-09 -8.186681816589e-09 -5.789628717619e-10
366 2 1.665632346483e-03 2.889570396954e-03 2.763265294469e-03 1.127036222513e-06 -1.814031417245e-06 9.566245118662e-08 6.575241932763e-05 -2.568088920996e-03 1.595140378639e-03 1.000000000000e-03 1.047197551197e-05 -7.506172322691e-09 1.771482991110e-09 -1.545430175161e-09
367 2 7.320674014955e-03 1.345911547040e-02 8.909065289602e-04 -7.454848726554e-06 7.398613160120e-06 6.388327479633e-06 -3.383820853209e-04 -5.720163806188e-03 3.205806969391e-02 1.000000000000e-03 1.047197551197e-05 1.169673161167e-08 -8.053373435487e-09 -1.709268612028e-08
368 2 6.663570708253e-03 1.335191921974e-02 5.106205086631e-03 -3.045359166118e-07 -2.991378929557e-07 3.237416860157e-06 1.286520621747e-03 -1.055088704939e-03 7.669460042695e-04 1.000000000000e-03 1.047197551197e-05 1.773394376735e-09 -6.410175259185e-09 -7.056935749047e-09
369 2 6.075729987648e-03 3.446958318083e-03 6.105810885329e-03 4.032607224737e-07 2.258926542148e-07 -9.611234129187e-07 -1.927071879445e-03 -1.554682315783e-03 4.130587665525e-04 1.000000000000e-03 1.047197551197e-05 -8.409380026041e-09 -4.540152992212e-10 1.539135300358e-09
370 2 2.420875902843e-03 1.442195368034e-02 1.064899132391e-02 -3.458869289822e-07 -2.262562223529e-07 4.433331031351e-07 4.941205383251e-05 -5.345018813186e-05 1.275504026951e-04 1.000000000000e-03 1.047197551197e-05 -1.835327832402e-09 -3.162582018114e-09 -3.264525895975e-09
371 2 1.498501458215e-02 1.526052332321e-02 7.133846848039e-03 -5.997591389097e-07 -3.132723929224e-07 2.663289076449e-07 2.831345796902e-04 8.525313374412e-05 -1.597980495217e-04 1.000000000000e-03 1.047197551197e-05 -6.097517137605e-09 -3.532167696883e-09 -1.553905044464e-09
372 2 7.211396674918e-03 9.296209293676e-03 1.214654916428e-03 -2.652877688190e-07 5.144335278395e-07 4.978103992009e-07 5.027765980121e-04 -4.147294708002e-04 1.049623202610e-03 1.000000000000e-03 1.047197551197e-05 -3.813519905044e-09 -1.003721159547e-09 7.667210601212e-09
373 2 2.657842001217e-03 1.881629966654e-03 8.432795638294e-03 -5.049065609495e-07 -3.342929081880e-07 3.237642939656e-07 -3.368086018567e-04 3.257061065559e-04 1.012552359495e-04 1.000000000000e-03 1.047197551197e-05 -5.461696725313e-09 -2.347815736944e-09 -3.236264214677e-09
374 2 1.680179674528e-03 9.169656417345e-03 1.039502490479e-02 -1.007771434104e-06 1.201837667340e-07 1.682086888655e-06 6.947554605638e-05 4.342808415799e-03 -1.387790949657e-05 1.000000000000e-03 1.047197551197e-05 2.516592430647e-09 -5.104071386240e-09 -5.002401615819e-09
375 2 5.368494557357e-03 1.297713099322e-02 7.540377944593e-03 -5.952417117607e-07 -8.219899707622e-07 1.076512946504e-06 -5.177912863113e-04 -1.305225102544e-04 -4.838901011693e-04 1.000000000000e-03 1.047197551197e-05 -2.596713505814e-09 -4.425203430237e-09 2.968496924671e-10
376 2 2.746386841387e-03 8.785039262329e-03 1.448604169000e-02 -3.240614649630e-08 3.703337041064e-09 1.663761466138e-07 -4.417792441097e-05 6.920651501605e-06 -9.134117810392e-05 1.000000000000e-03 1.047197551197e-05 -1.058353340616e-09 -1.396308785595e-09 -6.053807905140e-10
377 2 1.512345010535e-02 1.229088476823e-02 6.563219723154e-03 -6.483910846778e-07 -2.640552808654e-07 2.444464107993e-07 2.856906169733e-04 -3.013667414059e-04 4.675259942862e-05 1.000000000000e-03 1.047197551197e-05 -1.952870047695e-09 -5.983508322062e-09 2.361781807752e-09
378 2 1.442092599810e-02 1.035841629795e-02 1.270548056457e-02 9.710664276836e-05 5.621599010499e-04 -1.160940362640e-05 -8.091311688852e-01 2.754224347863e-01 3.628431487762e-01 1.000000000000e-03 1.047197551197e-05 -2.073534860997e-07 -1.137693979519e-06 1.315282993725e-08
379 2 1.246019838367e-02 1.231750084989e-02 5.575614064823e-03 -1.354367324535e-06 -2.765777270018e-07 5.914787920250e-07 2.914347770702e-04 9.223597470507e-04 -6.177099149647e-04 1.000000000000e-03 1.047197551197e-05 2.190807039148e-09 -6.458924241644e-09 -2.034351845230e-09
380 2 1.032390127468e-02 3.338362144942e-03 1.035875889755e-03 8.230159805170e-08 2.799220607749e-06 1.196580519105e-06 1.935279925578e-03 4.273850515466e-04 -2.931489113391e-03 1.000000000000e-03 1.047197551197e-05 -7.531477032908e-09 -3.431958223098e-09 3.492124901938e-10
381 2 7.731193111014e-03 2.629319001086e-03 5.588492309692e-03 -4.972435810961e-07 2.976619713563e-07 -5.700626159270e-07 1.358912021983e-03 3.065421284490e-04 -8.714501652248e-04 1.000000000000e-03 1.047197551197e-05 -4.567485583103e-09 2.518013739697e-10 3.447800800568e-09
382 2 1.531526183842e-02 1.176198584383e-02 2.300723510820e-03 -9.146678861480e-07 -5.695085678474e-07 -4.516755287998e-09 -3.737142189315e-05 -3.544041986626e-04 -6.982726798131e-05 1.000000000000e-03 1.047197551197e-05 4.766782023449e-09 -7.859174296838e-09 2.005823402740e-09
383 2 1.606448806640e-03 1.082207635625e-02 3.061881442251e-03 -8.882711263572e-07 -9.883202458718e-07 5.272271942653e-07 -6.132180208755e-04 1.739038429961e-04 4.465835194022e-07 1.000000000000e-03 1.047197551197e-05 4.581576449304e-09 2.525542887161e-09 -2.988013475837e-09
384 2 1.583369362813e-03 7.922985724262e-03 4.778882330184e-03 6.512131799884e-07 -1.758113587662e-06 3.496354569679e-08 -5.031388179880e-04 -5.745022284898e-05 -1.967422347669e-04 1.000000000000e-03 1.047197551197e-05 -1.825942321586e-09 -7.908747380625e-10 2.219227620555e-10
385 2 1.114385228632e-02 6.590558311860e-03 2.409151603190e-03 3.484877633086e-07 2.545837274835e-07 -2.780057471815e-07 -4.662462046918e-04 1.278304978045e-04 -7.977717029404e-04 1.000000000000e-03 1.047197551197e-05 -1.923390334909e-09 -9.859939329440e-10 -1.120806330350e-09
386 2 9.401479514222e-03 2.998706725427e-03 1.251557678137e-02 9.389557863857e-08 -1.534351443795e-07 1.605403523924e-07 -1.124006233629e-04 -1.557648292441e-04 -8.144624355035e-05 1.000000000000e-03 1.047197551197e-05 -1.784709637037e-09 -1.741908007966e-09 1.384849949898e-09
387 2 9.774616329032e-03 1.463130134377e-02 1.450260741233e-02 -3.335592055253e-08 -2.858237852146e-07 -1.127558908117e-08 -1.952450549056e-04 1.253531853485e-05 -4.475160546246e-05 1.000000000000e-03 1.047197551197e-05 -1.278950144138e-09 6.575127323872e-10 1.208243501151e-10
388 2 3.556577925921e-03 5.291500691980e-03 8.381192656093e-03 -1.507035590390e-07 -5.854393468580e-07 6.897536107657e-08 -4.009069791073e-04 3.322890115041e-05 -3.480048266991e-04 1.000000000000e-03 1.047197551197e-05 -5.911757994318e-12 -3.864365546514e-09 2.373848279546e-09
389 2 1.449047351945e-03 8.916242031419e-03 3.063692893186e-03 -2.734020582301e-07 -1.179041906610e-06 5.411134814267e-07 7.763708327967e-04 7.693470213709e-04 5.196307544621e-04 1.000000000000e-03 1.047197551197e-05 -3.040597318262e-09 1.069701023264e-09 -1.959274577485e-09
390 2 1.379166144724e-02 1.455343849649e-02 1.397881932424e-02 -6.713662894304e-08 2.368410280792e-07 3.386383658105e-07 -6.925290772620e-05 -2.895524351624e-04 2.054865685021e-04 1.000000000000e-03 1.047197551197e-05 -7.924948499217e-10 -1.515570441187e-09 -8.257727042329e-10
391 2 7.950044495332e-03 3.958881998686e-03 7.792136468420e-03 4.730268884464e-08 -3.028822943643e-07 2.897145352301e-07 6.600562371062e-04 -2.916981574758e-04 -1.561933838521e-03 1.000000000000e-03 1.047197551197e-05 -3.732075951969e-09 -1.329676120151e-09 3.093033867996e-09
392 2 1.014393144069e-02 1.168551369555e-03 1.446215863818e-02 -9.112784757625e-08 -6.465103889014e-08 7.574726602701e-09 1.307949098285e-05 5.468373518125e-05 1.686588708201e-04 1.000000000000e-03 1.047197551197e-05 -7.143336009891e-10 -8.789859328743e-10 1.181113788380e-10
393 2 1.517973767110e-02 3.809235381261e-03 6.169027219515e-03 -2.755575256730e-07 -6.596316335157e-07 -2.190247898414e-08 -2.325825645959e-04 -6.150936578328e-04 -2.878525299190e-04 1.000000000000e-03 1.047197551197e-05 -3.941361527723e-09 1.218154846429e-09 -2.661453231606e-09
394 2 5.696659416130e-03 4.164202562395e-03 2.446456473379e-03 9.178512313958e-06 1.045812106351e-06 -2.534473456622e-06 -7.984389332519e-04 1.846941029074e-03 7.209393435332e-03 1.000000000000e-03 1.047197551197e-05 -2.628291152116e-08 8.694867566535e-09 5.469479956043e-09
395 2 2.195787334951e-03 9.203154982371e-03 8.484596835288e-03 -9.722457068831e-07 -9.093560142602e-07 -8.333887564594e-09 -5.513938716348e-04 -2.073323992651e-03 6.384795340843e-04 1.000000000000e-03 1.047197551197e-05 2.800484189450e-10 -5.839309971400e-09 -2.974781870203e-09
396 2 5.240349920488e-03 1.461377647398e-02 6.525325139806e-03 -1.020323499532e-06 -9.671611572314e-07 1.630189663384e-06 4.072874246962e-04 8.159885382925e-04 8.144132276224e-04 1.000000000000e-03 1.047197551197e-05 2.418640206619e-09 -1.715283482460e-09 -2.324914568000e-09
397 2 1.007504285504e-02 9.533065230026e-04 2.732172705758e-03 4.779370305170e-06 -8.925037233685e-06 7.160116905033e-06 -1.696387691433e-02 -4.905795938885e-04 7.126685407003e-03 1.000000000000e-03 1.047197551197e-05 -2.517647310666e-08 3.260896980285e-08 -3.898359879415e-08
398 2 1.041974933212e-03 5.016387829821e-03 3.567308515587e-03 9.086325332385e-07 -1.786075050960e-06 3.631813032586e-07 5.675375519077e-04 -6.924106958488e-04 3.456265261246e-04 1.000000000000e-03 1.047197551197e-05 -1.307363947678e-09 -6.775182311020e-10 -2.860203596978e-09
399 2 1.429127724109e-02 4.294917437395e-03 8.456646536003e-04 2.286368702896e-07 -1.614245671538e-08 2.291002257070e-07 -1.071583831082e-04 9.309952291874e-05 -5.861839278428e-04 1.000000000000e-03 1.047197551197e-05 -8.653556437918e-09 -4.833762995898e-09 -1.587503100826e-10
400 2 7.445262466635e-03 6.808924754930e-03 7.534318356657e-03 1.383348518536e-07 -8.351973308576e-08 4.403677974713e-07 -2.856351944356e-05 -3.452034937882e-04 5.107928538112e-04 1.000000000000e-03 1.047197551197e-05 -1.578189061397e-09 -1.342932695947e-09 1.148038048870e-09
401 3 1.207142521640e-02 4.333775953420e-03 1.080158271343e-02 8.545600823650e-08 4.157573981389e-08 3.854796656931e-07 3.677674379103e-04 6.442883563222e-05 -3.973405000548e-04 1.250000000000e-03 2.045307717181e-05 -3.136375820620e-09 -4.208946055443e-09 -2.540646153178e-10
402 3 1.037292446248e-02 5.023241509703e-04 1.244254574909e-02 1.948418797391e-08 -1.674448119139e-07 8.651102421612e-08 -1.512714265736e-04 -8.311358626908e-05 1.405830476443e-04 1.250000000000e-03 2.045307717181e-05 -3.393597007142e-09 -3.598355245151e-09 1.066572966339e-09
403 3 1.376429852566e-02 1.181211255553e-02 3.960909348804e-03 -1.417350202180e-06 -3.953898123918e-07 5.941834923399e-08 9.959645467593e-05 -4.077246801944e-04 5.480608242052e-05 1.250000000000e-03 2.045307717181e-05 4.221803474286e-09 -1.292670789828e-08 -8.383656029177e-09
404 3 1.116259159316e-02 9.827707689331e-03 1.455034997383e-03 -1.236137274734e-07 5.257309213600e-07 1.945149004352e-07 -1.729502962292e-03 4.946375465597e-04 -8.072960087038e-04 1.250000000000e-03 2.045307717181e-05 9.463771132439e-09 -2.914877514082e-08 -9.098715988909e-09
405 3 3.489836257563e-03 1.375011307132e-02 8.278477446780e-03 -4.587917083347e-07 -5.480287733083e-07 6.029047429960e-07 1.083718632168e-04 -5.220857870210e-05 1.799718882092e-04 1.250000000000e-03 2.045307717181e-05 -6.930855779420e-09 -4.465978762914e-09 1.851606089534e-09
406 3 8.306989992410e-03 1.533950546418e-02 1.108777702084e-02 -1.131408772771e-07 -7.002252339984e-08 1.427152519138e-07 -3.909483337495e-05 -4.397391072207e-05 3.665159116863e-06 1.250000000000e-03 2.045307717181e-05 -7.608981363260e-09 -4.270662738898e-09 -6.265286980669e-10
407 3 1.475531880923e-02 1.193599893920e-02 1.035544202390e-02 -1.200327300589e-07 4.674199189800e-08 2.044401234735e-07 -5.849023248308e-04 -6.899596925291e-04 -3.233487135021e-04 1.250000000000e-03 2.045307717181e-05 -6.013320064199e-09 -6.271758723941e-09 2.047180277153e-09
408 3 1.522746704716e-02 6.741138556223e-03 3.235564218323e-03 1.588560725900e-07 -1.070275111428e-06 4.187197112613e-07 -1.564411082265e-04 3.211541856249e-04 4.219467031162e-05 1.250000000000e-03 2.045307717181e-05 -7.881976590259e-09 -1.310448826250e-08 7.104618221499e-09
409 3 5.192655459737e-03 5.747200106847e-03 1.120575196625e-03 3.872517965892e-07 -2.888759712357e-07 -8.277963280201e-07 3.603105061678e-04 6.305859845483e-04 1.692841885975e-03 1.250000000000e-03 2.045307717181e-05 -6.074545884742e-09 1.528447889696e-08 4.431614295916e-09
410 3 8.899148104196e-03 1.055444632863e-02 1.038267663511e-02 1.059946327809e-07 2.398085823003e-07 1.388540654549e-06 -4.787458121915e-04 -1.211019594400e-03 -1.697787060109e-05 1.250000000000e-03 2.045307717181e-05 -1.163435687078e-08 -7.408232612608e-09 -7.165703970909e-09
411 3 1.028517332620e-03 1.429243109376e-02 2.838626608716e-03 -1.696509861078e-06 -1.480383872586e-06 1.510862401239e-07 8.634513743341e-04 3.669653201648e-06 -9.942736112735e-04 1.250000000000e-03 2.045307717181e-05 -1.363457555690e-08 -7.204108456663e-09 -4.818834142677e-09
412 3 3.614154446135e-03 9.659106483352e-03 1.174698856948e-03 1.839834391426e-07 -4.698686477444e-07 1.121103501412e-07 3.474408153639e-04 -7.668404518036e-05 2.464604938204e-05 1.250000000000e-03 2.045307717181e-05 -9.589456060603e-09 1.146351382552e-08 1.725708633029e-09
413 3 6.593174270567e-03 7.918867969776e-03 4.627361588049e-03 6.809909806697e-08 -1.306464582010e-07 2.802393566947e-07 5.621778415193e-04 -8.825153142755e-06 -4.773270592462e-05 1.250000000000e-03 2.045307717181e-05 -3.412499019020e-09 8.264551301184e-09 3.720978869785e-09
414 3 4.266519084601e-03 3.397854363890e-03 9.076239228524e-03 1.317757213445e-08 -3.199125456687e-07 3.125815470192e-07 -3.172067005614e-04 7.887968701947e-04 1.566202975708e-04 1.250000000000e-03 2.045307717181e-05 -7.236295631964e-09 -9.647785095052e-09 -1.186188426898e-09
415 3 3.950388174009e-03 4.141749443070e-03 1.296982886029e-02 3.675338033778e-08 8.986997813440e-08 8.689103179007e-08 -4.040856240448e-05 -5.031422561965e-05 -7.491238451586e-05 1.250000000000e-03 2.045307717181e-05 -1.790926623165e-09 -6.178145222569e-09 -4.099057052379e-09
416 3 4.420290836785e-03 1.104579999428e-03 3.740955962300e-03 8.530612636251e-07 -5.445227765300e-06 4.896987656243e-07 -2.331345784312e-03 3.901848214142e-03 9.592665771539e-04 1.250000000000e-03 2.045307717181e-05 -1.433841456622e-09 1.059067623039e-08 -1.035575150151e-08
417 3 1.115426782071e-02 4.516150298502e-03 3.216801392485e-03 -4.911848881471e-08 -2.084950597585e-07 1.193119346962e-07 -1.308263762779e-04 2.943094811880e-04 -2.079012725910e-05 1.250000000000e-03 2.045307717181e-05 -1.158884526248e-08 -4.968505861883e-09 -3.426907476172e-09
418 3 1.781951321634e-03 1.052117836381e-03 1.420679289608e-02 1.644971804660e-08 6.563049804988e-08 1.179750962083e-07 4.980244198835e-05 -2.371798375775e-05 1.334819847260e-05 1.250000000000e-03 2.045307717181e-05 -1.944908053345e-09 -1.823412484493e-09 9.885086732204e-11
419 3 1.894859798966e-03 4.013513339873e-03 5.240578820614e-03 -2.773287778751e-07 -1.800702264965e-06 8.295275281883e-07 -7.216535917878e-04 -1.073971381126e-03 -2.405216255020e-04 1.250000000000e-03 2.045307717181e-05 -1.343137525375e-09 -1.960141187103e-09 -7.473779891362e-09
420 3 6.334204633261e-03 7.078903543784e-03 1.410610039428e-02 8.573638104602e-08 1.163658855294e-07 1.982737403129e-07 -3.113262555181e-06 -1.691440202441e-04 1.467441114786e-04 1.250000000000e-03 2.045307717181e-05 -2.515403682109e-09 -2.345204879058e-09 -2.610485855154e-09
421 3 1.105937773058e-02 6.700691728264e-03 1.214125412718e-02 3.550945904216e-07 9.254072655235e-07 -1.537213770696e-07 -1.236481689968e-03 1.144656122717e-04 1.057386398900e-04 1.250000000000e-03 2.045307717181e-05 -3.265329936725e-09 -8.553246480878e-09 3.131254514398e-09
422 3 2.688234880388e-03 1.168865941628e-02 4.709518214079e-03 -8.406899971512e-07 -8.646284936022e-07 4.626889915479e-07 4.845491789864e-04 5.940551741233e-05 1.928163851419e-04 1.250000000000e-03 2.045307717181e-05 6.684768539108e-09 6.142718316533e-09 -3.322196561481e-09
423 3 5.943016205494e-03 1.050893017795e-02 3.475311059713e-03 -1.466441174053e-06 -7.354007014668e-07 6.524774361615e-07 3.360077140727e-04 -9.632421564237e-04 6.539085356623e-04 1.250000000000e-03 2.045307717181e-05 -4.666937883080e-09 3.363172308461e-08 3.559250525619e-09
424 3 1.220406003354e-02 1.186946632525e-04 1.103066588642e-02 -1.115319104805e-07 -7.896124530727e-09 5.307830362266e-08 2.136891721841e-04 2.599109357096e-04 1.463593891424e-04 1.250000000000e-03 2.045307717181e-05 -3.516754580719e-09 -3.293648748378e-09 1.683146708077e-09
425 3 1.557153188135e-03 9.482659348166e-03 1.274420178021e-02 -6.386067635887e-07 2.084289108009e-07 6.730438874277e-07 3.128522336190e-04 5.695319987672e-04 -7.908473682559e-05 1.250000000000e-03 2.045307717181e-05 5.227217117440e-10 -5.137084473580e-09 -4.111873274002e-09
426 3 5.987384714635e-03 5.439570706633e-03 8.268880848098e-03 4.407724376692e-07 -5.545125932500e-07 3.206336639888e-07 -2.082575768196e-04 -1.187895704847e-04 2.071039446974e-04 1.250000000000e-03 2.045307717181e-05 -3.898495614421e-09 -5.851428793142e-09 -4.044587235167e-09
427 3 7.194166615983e-03 1.365805361386e-02 9.888403779515e-03 -1.368146912899e-07 -4.599520832722e-07 5.273994988967e-07 -1.096627714662e-04 5.051196818837e-04 3.586840223103e-04 1.250000000000e-03 2.045307717181e-05 -8.111514097449e-09 4.184883518190e-09 -5.688278468851e-09
428 3 1.277928774484e-02 2.166289447026e-03 5.459543040842e-03 -4.447001930316e-07 -5.864666584232e-07 -8.511803997666e-08 -8.492739129252e-05 4.999695109930e-05 -5.013047280179e-04 1.250000000000e-03 2.045307717181e-05 -1.253528876556e-08 -8.163403610953e-09 -3.323531023777e-09
429 3 1.192835344867e-02 1.356165162732e-02 7.275024624796e-03 -3.457816494298e-07 -3.810873425588e-07 7.350676705195e-07 -6.534076513498e-05 1.555247159371e-04 -9.869232916939e-05 1.250000000000e-03 2.045307717181e-05 -7.616746110954e-09 -1.357365629497e-08 2.057370708682e-09
430 3 6.710690107383e-05 7.844654679910e-03 1.179071587449e-02 -1.876942480496e-07 -7.076732592405e-08 5.733504057850e-07 8.998619592856e-04 1.900427979870e-04 1.656846816271e-03 1.250000000000e-03 2.045307717181e-05 -1.587507098597e-09 -4.865536208933e-09 -2.821590165829e-09
431 3 3.634139506256e-03 3.356297006225e-03 3.541877298102e-03 -2.545364367560e-07 -5.649607838328e-06 1.956555841199e-06 -5.533781383559e-03 9.871421077629e-04 -5.669509637196e-03 1.250000000000e-03 2.045307717181e-05 1.079523236174e-09 2.461198292142e-08 1.185941036324e-09
432 3 6.248991010909e-03 1.535638481116e-02 1.237645218455e-02 -7.522054945065e-08 6.478167102080e-08 1.793824922872e-07 -5.355472175952e-05 6.669651536834e-05 -5.801034747013e-05 1.250000000000e-03 2.045307717181e-05 -1.643183157699e-09 -6.211560553294e-09 1.162526796253e-09
433 3 2.729313219169e-03 1.418182533853e-02 5.934879808396e-03 -4.210265726813e-07 -8.473852042596e-07 9.255975833093e-07 4.086628658140e-04 -4.910937502468e-04 -1.548228355445e-04 1.250000000000e-03 2.045307717181e-05 -8.165249018306e-09 -4.793431035920e-09 -1.394422730887e-10
434 3 1.531400877266e-02 3.215176266102e-03 4.154203347975e-03 2.480882029293e-07 -1.517966487360e-06 -3.750473400341e-08 -4.585607942822e-04 -2.189438989151e-04 -8.544922130914e-04 1.250000000000e-03 2.045307717181e-05 -1.183471973925e-08 6.467149941452e-09 -4.383854791592e-10
435 3 8.701621891886e-03 6.081239366445e-03 2.491017797911e-03 6.998054216546e-08 2.589100321525e-06 -6.762621445236e-07 1.371264514181e-03 -3.772912970272e-04 -2.138063827322e-03 1.250000000000e-03 2.045307717181e-05 -7.161418950823e-09 -1.121444995140e-08 5.509262413275e-09
436 3 4.882629490661e-03 1.276219058280e-03 6.225271055188e-03 -3.767529248623e-07 -1.175412592634e-06 1.146860586586e-06 -8.451377745313e-04 3.021324075239e-04 -8.488480082311e-04 1.250000000000e-03 2.045307717181e-05 -5.532049799874e-09 -3.618649168976e-09 -3.926166755268e-09
437 3 1.109287388802e-02 1.119585843690e-02 6.747446213587e-03 -4.845241635330e-07 -3.549596089220e-07 1.201520761152e-06 1.259074221375e-04 6.167211409276e-04 2.052939783014e-04 1.250000000000e-03 2.045307717181e-05 1.583626854697e-09 -9.587270701877e-09 -2.773276219050e-09
438 3 5.810608078752e-03 7.746434633922e-03 8.885372551913e-03 -1.931464685929e-08 -5.705830847089e-07 2.524729257690e-07 -7.865761369778e-05 8.806013153358e-05 2.603887683099e-04 1.250000000000e-03 2.045307717181e-05 -5.177865379683e-09 -3.718423656899e-09 -1.837172024147e-09
439 3 9.999270412363e-04 1.094098293495e-02 7.665060263598e-03 -5.856337887883e-07 -4.044188405757e-07 6.060127243881e-08 3.527775578442e-04 -2.321360762721e-04 2.374806768279e-04 1.250000000000e-03 2.045307717181e-05 -3.694272985179e-09 -9.352857211301e-09 5.683285138011e-09
440 3 1.452168840027e-02 3.245999907036e-03 1.174518158786e-02 -8.186085835495e-08 3.484618580816e-08 2.455077353614e-07 1.860337399149e-04 -1.143550995101e-04 -2.641934330839e-04 1.250000000000e-03 2.045307717181e-05 2.447504785095e-10 -4.639896547698e-09 1.546052337546e-09
441 3 1.364438867185e-02 8.331446497048e-03 7.964054191072e-03 -1.430894566939e-07 -4.090352390145e-07 2.768653936908e-07 2.552828111808e-06 5.518465391953e-04 1.314066289108e-04 1.250000000000e-03 2.045307717181e-05 -2.401854235121e-10 -9.323017126052e-09 3.111750612583e-10
442 3 1.269051563768e-02 1.251919302462e-02 1.165086815238e-02 5.423671614214e-07 2.522597239245e-07 -4.362318574341e-08 5.474213227288e-04 3.437533487857e-04 1.779364586175e-03 1.250000000000e-03 2.045307717181e-05 -7.537788770809e-09 -5.495110288644e-09 1.259034009352e-09
443 3 8.304473929560e-03 4.152879099622e-03 1.145400645867e-03 5.968191282660e-08 3.039902638761e-06 2.917083699527e-07 -2.941403243606e-03 -1.001609672935e-03 2.055739383977e-03 1.250000000000e-03 2.045307717181e-05 -1.647767295261e-08 -4.101244559626e-09 -4.191798823325e-09
444 3 1.075479131327e-02 1.539321821431e-03 7.384353493100e-03 -6.533157335469e-07 -8.001817523815e-07 -7.664208774448e-07 3.891105645864e-04 -9.285849955306e-04 2.610441898945e-04 1.250000000000e-03 2.045307717181e-05 -3.809781692504e-09 -1.105733682251e-09 7.645656533386e-09
445 3 6.712434768103e-03 1.269245631163e-02 2.832487043048e-03 -2.648816891182e-06 -6.763430681166e-08 3.549408313973e-06 5.477939635894e-04 -3.167143404482e-03 1.134498606131e-03 1.250000000000e-03 2.045307717181e-05 2.221024856882e-08 1.579218289144e-08 -2.874700923375e-08
446 3 5.629753541857e-03 8.449314445290e-03 2.393219421722e-03 7.088650395079e-08 -9.604322457868e-07 -3.031182250120e-09 4.415314776437e-05 3.017392465502e-05 3.492886493567e-04 1.250000000000e-03 2.045307717181e-05 -1.588085611315e-08 3.277627620675e-08 1.694613857352e-08
447 3 1.177576283561e-02 2.213226609573e-03 3.002233245215e-03 -3.214641756685e-07 -4.449535181031e-07 -4.910774787274e-07 4.757939576689e-04 -8.850414067813e-04 1.488310724848e-04 1.250000000000e-03 2.045307717181e-05 -6.054043895562e-09 -6.044469723256e-09 -2.350941329738e-09
448 3 1.340110485282e-02 1.144633844726e-02 7.361092110293e-03 -3.421360983482e-07 -2.528736913560e-07 2.943264872047e-07 -2.973166639999e-04 2.751841646843e-04 1.167588631692e-04 1.250000000000e-03 2.045307717181e-05 -2.583055252459e-09 -1.074826596230e-08 4.307592317180e-09
449 3 5.309307457796e-04 1.151705046882e-03 8.654777313743e-03 -4.170992454463e-07 -3.555519571552e-07 4.495909863012e-07 -1.025605955414e-04 9.714668386635e-05 -3.219262602003e-05 1.250000000000e-03 2.045307717181e-05 -9.732852813867e-09 -1.926968607149e-09 -3.046171372193e-09
450 3 9.604626382178e-03 1.502766777882e-02 4.507426892126e-03 5.290674553575e-07 6.791576822179e-07 -2.031835968963e-06 2.594132192484e-03 -4.710873640844e-03 -1.355375440143e-03 1.250000000000e-03 2.045307717181e-05 -1.066902355632e-08 -1.336622008079e-08 2.337989166074e-08
451 3 1.375719420085e-02 8.539073453086e-03 2.843689744235e-03 -3.969163444888e-08 -6.825520408881e-07 1.823254617381e-07 -1.943383409515e-04 -6.607999748613e-05 -1.784461821278e-04 1.250000000000e-03 2.045307717181e-05 1.279515424507e-08 1.283174821069e-09 -8.426899732583e-09
452 3 8.842518389731e-03 1.044105802244e-02 6.855514038589e-03 -2.825483029228e-07 -1.751356741815e-07 1.312034909363e-06 4.965493278414e-04 -4.006511364486e-04 -2.994560608301e-04 1.250000000000e-03 2.045307717181e-05 1.879470604844e-09 -1.790102307493e-09 -3.265895859328e-09
453 3 9.436977545002e-03 1.196214423614e-02 1.145442536322e-03 -2.938048397130e-08 2.390635223833e-06 -8.771259410125e-07 -1.818964077374e-03 2.287165094459e-04 -6.851183043297e-04 1.250000000000e-03 2.045307717181e-05 4.077586784143e-08 -3.640164531069e-08 1.510805476412e-08
454 3 1.288603065443e-02 4.493421127764e-04 7.084174389157e-03 -4.199511681479e-07 -2.884164581551e-07 2.479251353981e-07 -1.459233003778e-04 -1.666157175697e-04 2.079564284196e-04 1.250000000000e-03 2.045307717181e-05 -9.991285032798e-09 -7.377365553030e-09 -2.734456169802e-09
455 3 1.233440870058e-02 5.242215237774e-03 1.180064314941e-03 -7.002776201801e-08 -8.253868169411e-08 9.409526419044e-08 1.404044538480e-05 -1.021196369609e-04 4.262344325250e-04 1.250000000000e-03 2.045307717181e-05 -1.352200369424e-08 -1.450458291825e-08 -3.004686998888e-09
456 3 9.323739643441e-05 1.419388207411e-02 9.051448493068e-03 -3.406682744237e-07 -1.288887118068e-07 2.618117681796e-07 1.208656534693e-04 -1.603623149055e-04 -1.061899515914e-05 1.250000000000e-03 2.045307717181e-05 -4.793308479904e-09 -4.271254073580e-09 -1.339867759024e-09
457 3 1.009765219686e-03 6.097301981444e-03 1.326738726790e-02 2.654517907998e-07 6.042584048344e-09 3.193156377851e-08 -1.100195070874e-04 -2.550544577706e-04 -2.939871978018e-04 1.250000000000e-03 2.045307717181e-05 -2.648791582652e-09 -2.675590495247e-09 -2.417852339800e-10
458 3 1.422379612880e-02 1.271583028523e-03 1.040612603011e-02 -3.183032599221e-07 1.647850213858e-08 1.761010329284e-07 -1.765198196279e-04 -2.029116719093e-04 -7.903943935608e-05 1.250000000000e-03 2.045307717181e-05 -1.080793352723e-09 -4.212412639991e-09 1.354907523399e-09
459 3 2.758494580595e-03 1.301158598893e-02 1.830702387085e-03 -2.036769084133e-06 -9.411815603516e-07 2.447912309570e-07 -3.272078983047e-04 -1.593116380921e-04 8.008379672300e-04 1.250000000000e-03 2.045307717181e-05 5.503974639183e-09 1.242475861015e-08 -5.382860632427e-10
460 3 1.333763507329e-02 8.755178449001e-03 1.103897783061e-02 7.939928190219e-07 -4.755021763076e-07 -7.975707882635e-08 -4.553030783068e-04 -2.479541004810e-04 -1.287147468741e-03 1.250000000000e-03 2.045307717181e-05 -8.267810920085e-09 -4.590854647909e-09 -4.838939130299e-10
461 3 9.768760138382e-03 1.229037326164e-02 1.396509759260e-02 -8.724761243916e-08 3.211391579338e-07 -5.770679171547e-07 6.130349346198e-04 1.074169633588e-04 -1.011065105827e-03 1.250000000000e-03 2.045307717181e-05 -1.665705825591e-09 -2.874668888549e-09 3.435982466382e-09
462 3 6.475089373844e-03 2.362917110680e-03 3.210117761799e-03 2.685045259071e-06 6.324049588121e-07 -5.390949745832e-06 -9.534889559416e-04 1.313162980926e-04 -1.344920088675e-02 1.250000000000e-03 2.045307717181e-05 -1.568912788438e-08 1.460802474496e-08 1.583965682756e-08
463 3 1.391670705479e-02 1.387760031959e-02 5.974701194524e-03 -8.282317556104e-07 -4.855674964644e-07 1.986239139437e-07 -1.913591356431e-04 1.992667957885e-04 1.605918212747e-04 1.250000000000e-03 2.045307717181e-05 -8.876326028997e-09 -1.112080496807e-08 -3.019412195003e-09
464 3 6.982711545439e-05 8.301053129155e-03 1.420477629808e-02 -4.922044484081e-08 -3.547398551469e-07 3.646481124746e-07 -1.615870349696e-04 -3.764836734667e-05 4.199086644258e-04 1.250000000000e-03 2.045307717181e-05 -7.400425402466e-10 -4.399413654401e-10 -2.369411132837e-09
465 3 7.384852122334e-03 1.492892905001e-02 6.419842659290e-03 -8.266719208954e-07 -4.641377595446e-08 1.291802968486e-06 -4.876342752130e-04 2.292567334259e-04 -3.089177266398e-04 1.250000000000e-03 2.045307717181e-05 5.843608474594e-09 -2.747053085220e-09 -1.581723113483e-08
466 3 6.313092204391e-03 1.043356169869e-02 9.860547634865e-03 -6.783224469106e-07 -3.232080250179e-07 4.727504507966e-07 -1.123780173577e-04 -1.907531858404e-04 3.617456024749e-04 1.250000000000e-03 2.045307717181e-05 -4.130035387997e-09 -5.113376350506e-09 3.949032998758e-09
467 3 4.385529765764e-04 6.228235459143e-03 5.550565320575e-03 -1.975668130516e-08 -8.692133281241e-07 2.777231025557e-07 -1.288822393900e-04 -3.688576171393e-04 -4.657117410216e-04 1.250000000000e-03 2.045307717181e-05 5.117726147107e-09 -2.589185806870e-09 1.961672035376e-09
468 3 8.094374535867e-03 1.808715009521e-03 1.480887745232e-03 2.343669439299e-05 3.255779206549e-06 -1.921329211605e-08 5.305567465630e-03 -1.786743786954e-02 2.108050878242e-02 1.250000000000e-03 2.045307717181e-05 -1.563977830205e-07 3.051588326286e-09 -2.011502978011e-08
469 3 1.445803501039e-02 6.147422302412e-03 8.071995063120e-03 8.611511471444e-08 -5.040822241279e-07 4.239811201978e-08 -9.900703588010e-05 8.727608378687e-05 -2.288104388334e-05 1.250000000000e-03 2.045307717181e-05 -1.512836792510e-09 -6.467303925167e-09 2.624350629636e-09
470 3 1.278609955147e-02 9.516960637435e-03 6.203648020139e-03 -3.036405424825e-07 -2.805217211089e-07 4.791666993043e-07 1.967892845822e-04 -3.086163861616e-04 -1.457457533437e-04 1.250000000000e-03 2.045307717181e-05 2.911624953787e-09 -1.192094846925e-08 3.501597764454e-09
471 3 1.264156398304e-03 2.396903686550e-03 6.818784003991e-03 -7.055764236131e-07 -7.214982903494e-07 6.116316619012e-07 1.383702580749e-05 1.280396879763e-04 3.406193423003e-05 1.250000000000e-03 2.045307717181e-05 -1.387881330097e-08 -9.369317855454e-10 -6.177132583501e-09
472 3 1.051757511532e-02 1.284070999464e-02 4.965626761897e-03 -1.530354595218e-06 2.029874212416e-07 1.379104662150e-06 -2.781952584162e-03 1.593927682040e-04 -1.421885116288e-04 1.250000000000e-03 2.045307717181e-05 -1.965432367566e-09 -2.723561541406e-08 -9.400161180389e-09
473 3 4.615316665821e-03 1.081602989846e-02 6.546640844705e-03 -6.643744312978e-07 -1.091995088295e-06 3.350749223351e-07 6.552272790867e-05 5.533184440816e-05 1.120582453639e-04 1.250000000000e-03 2.045307717181e-05 -2.912332618291e-09 9.525323689307e-10 1.386941538149e-09
474 3 1.311853338393e-02 5.820859824564e-03 3.699556782702e-03 -2.415180530552e-08 -4.968038229554e-07 3.586266024096e-07 3.202941843941e-05 -5.193271281323e-04 -2.483613999650e-04 1.250000000000e-03 2.045307717181e-05 -1.304917664544e-08 3.310450587910e-09 -8.717026705940e-09
475 3 4.649842521209e-03 1.285537649600e-02 5.520181103651e-03 -6.522794461783e-07 -9.435625218649e-07 9.531989973019e-07 3.298949669138e-04 -1.141370194577e-04 -1.069348219759e-04 1.250000000000e-03 2.045307717181e-05 3.396176418253e-10 3.774691003490e-09 3.669913471380e-09
476 3 5.908805614793e-03 3.438087727967e-03 1.074344735133e-02 3.286501035804e-07 7.433283033064e-08 9.718275041112e-08 -2.140088090390e-05 -3.480797358226e-04 -5.827700435418e-05 1.250000000000e-03 2.045307717181e-05 -4.518131033026e-09 -6.009656195963e-09 -2.718267875454e-10
477 3 5.100179738018e-03 1.357484527180e-02 1.187698834791e-03 6.791145065216e-08 -1.308530480617e-06 -6.204511979106e-07 -1.409486027175e-03 -1.816946187454e-04 -4.616523810185e-03 1.250000000000e-03 2.045307717181e-05 -2.529314197481e-09 2.475415174030e-08 -6.366571446997e-09
478 3 5.750087293762e-04 1.511183471170e-02 5.039973059891e-03 -8.159133481080e-07 -1.222426241588e-06 3.974510121237e-07 -6.051695388763e-04 4.410041693886e-05 -5.940618465065e-04 1.250000000000e-03 2.045307717181e-05 -1.906401971958e-08 -1.927396221990e-08 -5.882173203014e-11
479 3 6.440541434397e-03 6.119974704888e-03 3.094510082415e-03 7.934043368745e-07 1.651440621589e-06 -1.287856724559e-06 1.322385122204e-03 4.350959063362e-04 2.092566620909e-03 1.250000000000e-03 2.045307717181e-05 -9.210597966667e-09 1.501162284684e-08 2.547471968312e-09
480 3 9.777156077795e-03 9.796596239943e-03 3.820321503858e-03 -1.606722553363e-07 9.515445832754e-07 5.983407553714e-07 7.212950704254e-04 4.866584686410e-04 -6.998475584025e-05 1.250000000000e-03 2.045307717181e-05 6.383735848429e-09 -3.272006087263e-08 9.179784007913e-09
481 3 1.207213520695e-02 3.222905821042e-04 1.419369451987e-02 -1.049791553296e-07 3.881243452817e-08 2.065053014071e-08 -2.286174513189e-05 1.827812869043e-05 -9.138585395307e-05 1.250000000000e-03 2.045307717181e-05 -1.146282521694e-09 -2.525504143717e-09 2.859494091393e-10
482 3 7.731146255151e-03 8.471505249636e-03 1.012933639377e-02 -1.127167145897e-07 3.686768948235e-08 5.544998754512e-07 9.476860548643e-05 -2.065821155365e-04 5.800949310210e-05 1.250000000000e-03 2.045307717181e-05 -6.684093265989e-09 -7.839367189673e-09 -1.200220930158e-09
483 3 1.266845499070e-02 2.754457696556e-03 7.968931902930e-03 -7.387916213946e-07 -4.740848388196e-07 2.930811540785e-07 3.920220626633e-05 1.990893275057e-04 -8.536871934658e-05 1.250000000000e-03 2.045307717181e-05 -3.691304010580e-09 -1.554393569854e-09 -1.675313783942e-09
484 3 1.264292549126e-02 1.503356190188e-02 2.890993081720e-03 -8.162401190668e-07 -8.491748219031e-07 8.978499674380e-08 2.254817316075e-04 -1.108409186737e-04 3.729747821371e-04 1.250000000000e-03 2.045307717181e-05 -1.173910084220e-08 -1.698770044007e-08 -7.455520252544e-09
485 3 1.398522899960e-04 8.940946948810e-03 6.555354790723e-03 -9.041265617968e-08 -4.318979012785e-07 1.344848940572e-07 -3.041761175855e-04 -4.553490377395e-04 1.113383048500e-05 1.250000000000e-03 2.045307717181e-05 3.315265431128e-09 -7.505469901664e-09 1.422402420742e-09
486 3 2.879120415883e-03 7.220561909343e-03 8.912659096458e-03 -3.319022992424e-07 -5.514304208748e-07 4.497519364518e-07 5.155314616446e-04 -1.492433245636e-05 3.226051749561e-04 1.250000000000e-03 2.045307717181e-05 4.426998276195e-09 -6.829956796245e-09 1.591395922775e-10
487 3 8.349250844294e-03 1.272656469156e-02 6.277126057638e-03 -2.887029082992e-07 -2.550703683758e-07 1.283912775367e-06 -5.360862994553e-04 8.427189786998e-04 3.389077063021e-04 1.250000000000e-03 2.045307717181e-05 1.114547044863e-08 -3.589995473820e-09 -1.249229484954e-08
488 3 5.282312217456e-03 8.163263780153e-03 6.587885088754e-03 -1.842513849511e-07 -1.078751158806e-06 1.928976707243e-07 1.648049085870e-04 -4.400435674475e-05 2.129114380905e-04 1.250000000000e-03 2.045307717181e-05 -3.082833330340e-10 7.998557949388e-09 4.156095930183e-09
489 3 4.077041062830e-03 7.589003868687e-03 1.332465397851e-02 -1.175358135479e-07 1.608177392912e-08 1.983037559996e-07 1.485965795704e-04 7.752349338298e-05 -8.143838891749e-06 1.250000000000e-03 2.045307717181e-05 -2.222573611792e-09 -4.527473892051e-09 -1.768313405370e-09
490 3 9.701800391114e-03 5.825469626605e-03 4.627136682765e-03 5.726802795262e-07 4.072294906278e-07 5.018494949368e-08 -5.352571354500e-04 9.218077166114e-04 -1.453470199027e-05 1.250000000000e-03 2.045307717181e-05 -1.126094848624e-08 -4.143060984204e-09 3.260066753293e-09
491 3 6.127456885256e-03 1.118892768088e-02 1.135410530441e-03 -1.566452293325e-07 2.412684635455e-07 8.620549915482e-07 2.339845952799e-04 8.902287487870e-05 -8.365479374124e-04 1.250000000000e-03 2.045307717181e-05 5.997113593892e-09 7.455067689807e-09 -6.660813997331e-09
492 3 2.749150520991e-03 6.076643134064e-03 4.486631754506e-03 1.117559486799e-06 -2.798798198693e-06 -3.659601528341e-08 7.768771180363e-05 9.857319450973e-04 -8.239181966206e-04 1.250000000000e-03 2.045307717181e-05 -5.808925360404e-10 7.121864927465e-09 -2.389846690941e-09
493 3 7.400406924865e-03 5.019405024688e-03 1.425456250649e-02 2.081205645809e-07 1.199402229636e-07 1.950607073236e-07 1.232854763175e-04 -2.013625302585e-04 -4.805295728162e-05 1.250000000000e-03 2.045307717181e-05 -2.234516723162e-09 -2.624043765260e-09 -1.459914299033e-09
494 3 7.729026854077e-03 4.787344116673e-03 5.587477386011e-03 1.116891577063e-06 7.788040677633e-07 1.226223640223e-06 8.200009418850e-04 -1.346219749311e-04 -5.140040691842e-04 1.250000000000e-03 2.045307717181e-05 -1.259515481331e-08 -1.281378181750e-09 8.752007653974e-09
495 3 1.161706599602e-02 7.396556642704e-04 1.086672322628e-03 -9.804708208406e-08 -5.680317870663e-09 -1.847498069824e-07 -2.641811985233e-05 -1.083617707596e-04 -7.565218403629e-04 1.250000000000e-03 2.045307717181e-05 -3.504355487825e-09 3.302686260806e-09 -6.631934731915e-09
496 3 1.136491287547e-02 1.038529746825e-02 1.418924562321e-02 2.649179309294e-06 -8.064625568272e-07 -5.845030276221e-07 -3.480628656425e-04 -2.878097168514e-03 2.345057186597e-03 1.250000000000e-03 2.045307717181e-05 -1.520709464817e-08 2.907547307787e-09 4.157087519757e-09
497 3 1.468293922152e-02 5.198476494685e-03 1.034944705635e-02 7.480936671909e-08 -1.155340650307e-08 2.016488950463e-07 -3.206616988344e-04 1.406441776508e-04 1.617847422628e-04 1.250000000000e-03 2.045307717181e-05 3.653714908458e-10 -5.864505811633e-09 1.205312991905e-09
498 3 1.145080753588e-02 6.911040980749e-03 6.114015682960e-03 1.757361321887e-07 9.579941517159e-08 4.765590292415e-07 1.066919984057e-05 -4.771608139808e-05 1.709265793254e-05 1.250000000000e-03 2.045307717181e-05 9.392724723432e-09 -1.460909994872e-08 -9.745191792236e-10
499 3 4.441320710537e-03 1.238694032136e-02 3.263392420630e-03 -1.871997679143e-06 -4.593768974950e-07 4.025685707851e-07 2.443585541667e-04 6.303314462872e-04 -3.392505658955e-04 1.250000000000e-03 2.045307717181e-05 1.454776460532e-08 2.896475852670e-08 -8.389128847562e-10
500 3 7.401582160056e-04 5.384159125902e-03 1.375679765807e-03 7.118713423604e-07 -6.484585563010e-07 6.516535401036e-07 1.144499596208e-04 -5.993454797813e-04 3.402412847843e-04 1.250000000000e-03 2.045307717181e-05 -2.598737707842e-08 -5.622403884277e-09 -3.137344598261e-09
