ITEM: TIMESTEP
200000
ITEM: NUMBER OF ATOMS
500
ITEM: BOX BOUNDS pp pp ff
0.0000000000000000e+00 1.5370634520482899e-02
0.0000000000000000e+00 1.5370634520482899e-02
0.0000000000000000e+00 1.5370634520482899e-02
ITEM: ATOMS id type x y z radius mass fx fy fz
1 1 0.00591179 0.00123945 0.00149207 0.00075 4.41786e-06 -9.60323e-09 -2.42586e-08 3.72643e-08
2 1 0.00558455 0.00402875 0.0146157 0.00075 4.41786e-06 1.08694e-322 -1.08694e-322 -1.08694e-322
3 1 0.0147083 0.0134642 0.0147385 0.00075 4.41786e-06 5.62869e-12 3.52848e-12 -8.20961e-12
4 1 0.0151338 0.000920537 0.0132812 0.00075 4.41786e-06 8.68043e-12 2.71254e-12 -2.86992e-12
5 1 0.00157012 0.00715574 0.0147222 0.00075 4.41786e-06 1.89226e-12 -1.31103e-12 -2.27337e-12
6 1 0.00469772 0.0105231 0.0109454 0.00075 4.41786e-06 1.50845e-11 1.08447e-11 1.35393e-12
7 1 0.00828372 0.0116994 0.00299937 0.00075 4.41786e-06 3.0457e-11 -2.17227e-11 7.41836e-12
8 1 0.00190232 0.00654969 0.0115956 0.00075 4.41786e-06 -5.29987e-12 -3.73713e-12 4.28899e-13
9 1 0.0062023 0.00721302 0.0121365 0.00075 4.41786e-06 5.93443e-12 -1.14194e-11 -5.73777e-12
10 1 0.00163661 0.00747783 0.010509 0.00075 4.41786e-06 5.66867e-12 8.43458e-12 -1.06798e-11
11 1 0.000606162 0.00598328 0.0114308 0.00075 4.41786e-06 1.18543e-12 -3.47537e-12 -1.06548e-12
12 1 0.0030808 0.00604266 0.00260927 0.00075 4.41786e-06 8.46985e-12 1.56239e-11 1.38572e-11
13 1 0.00960633 0.00692541 0.00668247 0.00075 4.41786e-06 7.74517e-12 -1.02558e-12 -9.61839e-12
14 1 0.00365344 0.00918338 0.00697451 0.00075 4.41786e-06 1.77888e-11 2.04349e-11 -4.12794e-13
15 1 0.00407534 0.0117884 0.0146893 0.00075 4.41786e-06 -2.28702e-12 -9.90186e-13 -3.09603e-12
16 1 0.014471 0.00519684 0.00651377 0.00075 4.41786e-06 1.25443e-11 -4.51533e-11 -7.27519e-11
17 1 0.00381416 0.00286625 0.000647837 0.00075 4.41786e-06 2.36004e-10 -9.25607e-11 -4.04392e-11
18 1 0.0060671 0.00163167 0.00962229 0.00075 4.41786e-06 6.70231e-12 -2.83997e-12 4.45724e-13
19 1 0.00853824 0.00673657 0.0146829 0.00075 4.41786e-06 1.30367e-11 3.91895e-11 1.16737e-11
20 1 0.00986709 0.0150657 0.0015093 0.00075 4.41786e-06 2.58097e-10 1.83072e-10 -1.14504e-10
21 1 0.0111018 0.00145433 0.00470879 0.00075 4.41786e-06 1.95976e-11 2.07839e-11 3.86817e-12
22 1 0.00558971 0.009336 0.000678547 0.00075 4.41786e-06 1.29918e-11 5.43433e-12 -3.32837e-12
23 1 0.0125775 0.0063983 0.00860763 0.00075 4.41786e-06 4.61104e-12 5.87436e-12 -1.04019e-11
24 1 0.0026933 0.0150776 0.0131512 0.00075 4.41786e-06 6.24736e-12 6.71983e-13 9.74746e-13
25 1 0.00261832 0.0150373 0.00403652 0.00075 4.41786e-06 -1.08694e-322 1.08694e-322 -1.08694e-322
26 1 0.00875444 0.0105211 0.00230812 0.00075 4.41786e-06 2.57075e-11 -3.69759e-11 -1.4688e-12
27 1 0.00389741 0.0150056 0.00991301 0.00075 4.41786e-06 1.25295e-320 1.37894e-320 -1.19119e-320
28 1 0.00495259 0.00889732 0.00479831 0.00075 4.41786e-06 8.27712e-12 5.86567e-12 1.16225e-12
29 1 0.00595787 0.00790682 0.0108539 0.00075 4.41786e-06 1.31442e-11 -5.94799e-12 -2.06322e-12
30 1 0.00786449 0.00234386 0.00978581 0.00075 4.41786e-06 8.09543e-13 1.10234e-12 -4.86978e-12
31 1 0.0139166 0.00813982 0.00540148 0.00075 4.41786e-06 1.24056e-12 7.45415e-12 -6.57533e-12
32 1 0.00126214 0.003391 0.0117454 0.00075 4.41786e-06 9.84746e-12 2.90998e-12 -3.14467e-12
33 1 0.000356092 0.0112117 0.000631316 0.00075 4.41786e-06 -1.28337e-12 1.27997e-11 -3.02436e-12
34 1 0.00475467 0.00562422 0.0109719 0.00075 4.41786e-06 1.37143e-11 2.5401e-12 9.46997e-12
35 1 0.00561789 0.00372473 0.0077025 0.00075 4.41786e-06 1.90301e-12 1.93044e-11 3.55618e-12
36 1 0.0140453 0.00151107 0.00841355 0.00075 4.41786e-06 -3.91022e-12 1.1483e-11 -1.01144e-11
37 1 0.0141196 0.00559748 0.00199345 0.00075 4.41786e-06 -1.31871e-12 7.12402e-12 -8.73489e-12
38 1 0.00854774 0.0124605 0.0105383 0.00075 4.41786e-06 1.02099e-11 -1.00295e-11 2.07574e-12
39 1 0.00328644 0.0130014 0.0100685 0.00075 4.41786e-06 1.1109e-11 6.27127e-12 -4.803e-12
40 1 0.00948864 0.010529 0.0146792 0.00075 4.41786e-06 5.59832e-12 -5.68164e-12 3.8918e-12
41 1 0.00737634 0.00690632 0.0112183 0.00075 4.41786e-06 6.11417e-12 -3.01139e-13 -2.36125e-12
42 1 0.00694509 0.0143102 0.00377043 0.00075 4.41786e-06 3.47409e-11 4.98812e-12 -1.22034e-10
43 1 0.00226214 0.00457705 0.00917229 0.00075 4.41786e-06 1.07802e-11 5.44662e-12 -5.18665e-12
44 1 0.0132374 0.00167365 0.000676614 0.00075 4.41786e-06 -2.91786e-12 1.56219e-11 8.23294e-13
45 1 0.00864476 0.00910376 0.00197607 0.00075 4.41786e-06 1.84758e-11 -2.91022e-11 -3.43557e-12
46 1 0.00208627 0.00770578 0.0133147 0.00075 4.41786e-06 3.05402e-12 -1.81516e-12 -2.62172e-12
47 1 0.0148654 0.00323748 0.00935801 0.00075 4.41786e-06 1.08694e-322 1.08694e-322 1.08694e-322
48 1 0.0089542 0.014055 0.000745556 0.00075 4.41786e-06 7.50941e-11 4.09584e-11 5.9497e-11
49 1 2.20123e-05 0.00525158 0.014687 0.00075 4.41786e-06 1.22634e-12 3.62529e-12 5.02921e-12
50 1 0.0116405 0.0073069 0.00799764 0.00075 4.41786e-06 2.99838e-11 2.004e-11 -3.07189e-11
51 1 0.0144815 0.00634087 0.000755866 0.00075 4.41786e-06 -6.44321e-12 8.07826e-12 -3.62657e-12
52 1 0.0100002 0.0104861 0.0127621 0.00075 4.41786e-06 7.77376e-11 -3.2175e-10 7.44187e-11
53 1 0.0150247 0.0134322 0.0118205 0.00075 4.41786e-06 6.74276e-12 1.5943e-13 -1.0058e-11
54 1 0.00266618 0.0153244 0.00255251 0.00075 4.41786e-06 3.83284e-11 6.01677e-11 3.11233e-11
55 1 0.013883 0.0141904 0.00783554 0.00075 4.41786e-06 1.806e-11 -1.00767e-11 7.8983e-12
56 1 0.00399395 0.00227173 0.00755563 0.00075 4.41786e-06 2.00123e-11 -3.59969e-12 -3.06503e-11
57 1 0.00745581 0.00887885 0.0144029 0.00075 4.41786e-06 -1.08694e-322 -1.08694e-322 -1.08694e-322
58 1 0.0113394 0.00456603 0.013977 0.00075 4.41786e-06 -1.08694e-322 -1.08694e-322 -1.08694e-322
59 1 0.014566 0.0100214 0.00783029 0.00075 4.41786e-06 1.22223e-11 3.04247e-12 1.34945e-12
60 1 0.00805801 0.00456962 0.0124184 0.00075 4.41786e-06 -1.14423e-11 5.27462e-12 -1.0368e-11
61 1 0.00527887 0.00620694 0.00986166 0.00075 4.41786e-06 3.82949e-12 -3.68358e-12 5.42988e-12
62 1 0.00376549 0.00463311 0.00537431 0.00075 4.41786e-06 7.25666e-12 4.38139e-11 -2.28598e-11
63 1 0.0104131 0.0137251 0.000745397 0.00075 4.41786e-06 -1.0381e-10 -3.2899e-10 -1.02963e-10
64 1 0.0144793 0.00665646 0.0132566 0.00075 4.41786e-06 -5.25347e-12 4.21802e-12 -1.79248e-12
65 1 0.0136454 0.0125241 0.0147257 0.00075 4.41786e-06 1.29729e-11 1.00452e-11 3.04904e-13
66 1 0.00176157 0.00957105 0.000670044 0.00075 4.41786e-06 4.30216e-14 8.40418e-12 -2.18667e-12
67 1 0.0121652 0.0010368 0.00887662 0.00075 4.41786e-06 1.08694e-322 1.08694e-322 -1.08694e-322
68 1 0.00316469 0.0111554 0.00237591 0.00075 4.41786e-06 1.9397e-11 6.61647e-12 -5.86977e-12
69 1 0.00877657 0.000157821 0.000698763 0.00075 4.41786e-06 4.42526e-11 4.33543e-11 1.90731e-11
70 1 0.00383261 0.0087651 0.00837618 0.00075 4.41786e-06 9.12302e-12 5.39358e-12 -1.40832e-11
71 1 0.007901 0.0108358 0.000697244 0.00075 4.41786e-06 5.22067e-12 -5.0666e-12 -5.25356e-12
72 1 0.0130899 0.0100732 0.00440644 0.00075 4.41786e-06 1.10621e-11 9.69309e-12 -1.1111e-11
73 1 0.0148273 0.00652979 0.0146736 0.00075 4.41786e-06 8.44196e-13 5.4994e-12 -2.85737e-12
74 1 0.00722449 0.00598397 0.012395 0.00075 4.41786e-06 3.9952e-11 -3.80095e-11 3.40645e-11
75 1 0.00838864 0.00365626 0.0135737 0.00075 4.41786e-06 -3.55935e-11 -3.03547e-12 2.13218e-11
76 1 0.0100885 0.00221432 0.00398822 0.00075 4.41786e-06 2.81063e-11 -1.68782e-13 8.252e-12
77 1 0.00804944 0.0102287 0.0146775 0.00075 4.41786e-06 2.0797e-15 2.94544e-12 -9.3554e-12
78 1 0.0141336 0.00778566 0.000737771 0.00075 4.41786e-06 -3.87328e-12 -9.10238e-13 7.67964e-13
79 1 0.0063896 0.014092 0.0146002 0.00075 4.41786e-06 3.75695e-12 -4.95238e-12 7.77031e-14
80 1 0.0107468 0.00109724 0.0103036 0.00075 4.41786e-06 2.10611e-11 1.17383e-12 7.86984e-12
81 1 0.00307001 0.000634417 0.000698716 0.00075 4.41786e-06 -2.02212e-11 1.04628e-11 -1.02895e-11
82 1 0.00433529 0.00134501 0.000702245 0.00075 4.41786e-06 1.25933e-11 -1.43245e-10 5.43934e-11
83 1 0.00449665 0.0143799 0.00342161 0.00075 4.41786e-06 -1.45655e-199 7.8814e-199 1.54168e-199
84 1 0.008504 0.0153522 0.00800166 0.00075 4.41786e-06 9.10006e-12 3.18792e-12 -2.05798e-12
85 1 0.0145029 0.00487297 0.0048997 0.00075 4.41786e-06 5.95933e-12 1.19643e-11 3.81939e-12
86 1 0.00218579 0.00812747 0.00715035 0.00075 4.41786e-06 2.58229e-12 1.14675e-11 3.30109e-12
87 1 0.000769806 0.00702446 0.000592025 0.00075 4.41786e-06 -4.57038e-12 2.32639e-11 -2.21748e-12
88 1 0.00809272 0.00664632 0.0133342 0.00075 4.41786e-06 1.00472e-12 6.49227e-12 1.6309e-12
89 1 0.00745532 0.0111079 0.00431103 0.00075 4.41786e-06 8.13015e-12 -5.9866e-12 -8.43991e-12
90 1 0.00613432 0.00639621 0.00653245 0.00075 4.41786e-06 1.81024e-13 1.75828e-11 -2.61492e-12
91 1 0.006641 0.00175326 0.00633218 0.00075 4.41786e-06 -2.47972e-11 3.57182e-12 -3.33082e-12
92 1 0.00548783 0.0128522 0.0113469 0.00075 4.41786e-06 -1.08694e-322 -1.08694e-322 -1.08694e-322
93 1 0.00728721 0.0143493 0.00228103 0.00075 4.41786e-06 3.15288e-10 -1.06109e-10 -2.02949e-11
94 1 0.0135963 0.00496016 0.0118678 0.00075 4.41786e-06 3.75555e-12 -6.43996e-12 -1.02933e-11
95 1 0.0100766 0.0134364 0.00676902 0.00075 4.41786e-06 1.3417e-11 -3.63974e-12 -1.72673e-11
96 1 0.0056298 0.0121606 0.014713 0.00075 4.41786e-06 -6.77134e-12 3.61734e-13 5.32137e-12
97 1 0.00858599 0.00671082 0.0119932 0.00075 4.41786e-06 -4.03503e-12 4.01049e-12 6.25423e-12
98 1 0.00163593 0.0106163 0.0095053 0.00075 4.41786e-06 2.47411e-11 -2.18528e-12 -3.98418e-12
99 1 0.00490294 0.0140514 0.0128572 0.00075 4.41786e-06 4.68832e-12 -2.67109e-12 -2.78488e-12
100 1 0.0122819 0.000809626 0.00426577 0.00075 4.41786e-06 3.61316e-11 2.53647e-11 2.73988e-12
101 2 0.00643769 0.00556477 0.0108947 0.001 1.0472e-05 -1.41259e-13 3.49845e-12 -8.40065e-12
102 2 0.0152253 0.00859248 0.00445763 0.001 1.0472e-05 -2.08892e-12 4.31167e-11 -1.92194e-11
103 2 0.0131904 0.00371952 0.00411445 0.001 1.0472e-05 1.70209e-11 3.11349e-11 -1.14781e-11
104 2 0.0101008 0.0048294 0.0115718 0.001 1.0472e-05 -2.04555e-11 -2.47898e-11 -2.92928e-11
105 2 0.0115182 0.0111059 0.00410497 0.001 1.0472e-05 2.02755e-11 1.87288e-11 -1.43547e-10
106 2 0.000186369 0.00728391 0.00970351 0.001 1.0472e-05 8.25549e-12 2.33267e-11 -3.53263e-11
107 2 0.00474462 0.00555372 0.0144382 0.001 1.0472e-05 -2.41851e-12 -5.11858e-14 -5.85202e-13
108 2 0.00930046 0.00735831 0.000869541 0.001 1.0472e-05 -1.00641e-11 -4.60958e-11 -1.90252e-12
109 2 0.00288104 0.00610016 0.0143861 0.001 1.0472e-05 2.29227e-11 3.4568e-12 3.62595e-12
110 2 0.00438686 0.00686665 0.00279751 0.001 1.0472e-05 7.39685e-12 7.01006e-11 -2.64278e-12
111 2 0.00547574 0.000152017 0.0143876 0.001 1.0472e-05 4.6329e-12 -5.16312e-13 -9.84754e-12
112 2 0.00912092 0.00228755 0.00857478 0.001 1.0472e-05 1.16718e-11 -1.04842e-11 -2.09352e-11
113 2 0.00412198 0.013954 0.0113874 0.001 1.0472e-05 1.273e-11 -8.52038e-12 -1.82059e-11
114 2 0.0113505 0.00441635 0.0088114 0.001 1.0472e-05 2.60392e-11 7.77087e-12 -7.13832e-12
115 2 0.00886442 0.00242358 0.0144353 0.001 1.0472e-05 -1.50566e-11 2.26169e-11 -1.84383e-12
116 2 0.00300691 0.0123478 0.0116118 0.001 1.0472e-05 1.23603e-11 4.1524e-12 -8.7691e-12
117 2 0.0136378 0.000556361 0.0126048 0.001 1.0472e-05 5.95439e-12 1.92976e-11 -2.31626e-12
118 2 0.0147242 0.000342607 0.0027357 0.001 1.0472e-05 4.18255e-11 2.29091e-11 -1.82186e-11
119 2 0.0141057 0.00986899 0.00943843 0.001 1.0472e-05 5.15387e-11 4.82065e-12 -8.92941e-12
120 2 0.0033096 0.00236033 0.0118109 0.001 1.0472e-05 1.21449e-11 1.43875e-11 -1.86384e-11
121 2 0.00238431 8.09231e-05 0.00903248 0.001 1.0472e-05 2.63755e-11 2.75144e-11 -8.44302e-12
122 2 0.000357114 0.00920176 0.00879548 0.001 1.0472e-05 -1.2336e-11 3.55728e-11 2.75096e-11
123 2 0.00973871 0.00877041 0.00936979 0.001 1.0472e-05 -4.38379e-12 -2.25931e-12 -7.89119e-11
124 2 0.0136511 0.00528691 0.0144628 0.001 1.0472e-05 5.43705e-11 -3.98023e-11 -3.03792e-11
125 2 0.00245533 0.00645946 0.00673992 0.001 1.0472e-05 2.33252e-11 3.58521e-11 -2.91502e-12
126 2 0.00415898 0.00761053 0.000988955 0.001 1.0472e-05 2.33487e-11 2.20722e-12 -6.89197e-12
127 2 0.00175485 0.00198075 0.0044617 0.001 1.0472e-05 -2.91965e-11 7.77595e-11 -3.48014e-12
128 2 0.00315192 0.00806511 0.00368288 0.001 1.0472e-05 6.11056e-12 7.34068e-11 -7.18014e-12
129 2 0.0107552 0.00758112 0.00400571 0.001 1.0472e-05 2.82921e-11 1.78537e-11 -7.74432e-12
130 2 0.0128691 0.00625232 0.0110347 0.001 1.0472e-05 -6.40333e-11 -6.67802e-11 9.05305e-11
131 2 0.00909459 0.0140261 0.00886382 0.001 1.0472e-05 3.91948e-11 1.15719e-11 -1.28123e-12
132 2 0.0134554 0.00746958 0.0144818 0.001 1.0472e-05 -2.95359e-11 2.32947e-11 8.84649e-12
133 2 0.00200005 0.0142539 0.0144451 0.001 1.0472e-05 6.11853e-12 -5.45987e-13 -7.25564e-12
134 2 0.000811382 0.00190231 0.000918042 0.001 1.0472e-05 -3.01895e-11 3.79493e-11 1.27307e-12
135 2 0.00210896 0.00484708 0.0118527 0.001 1.0472e-05 6.15119e-12 5.32685e-12 -1.25836e-11
136 2 0.0120315 0.00622593 0.0145309 0.001 1.0472e-05 -1.40957e-11 4.11584e-12 -9.4906e-14
137 2 0.0105724 0.00904404 0.00690549 0.001 1.0472e-05 2.12326e-11 3.01612e-11 -1.27159e-11
138 2 0.00422373 0.00723744 0.0106895 0.001 1.0472e-05 1.12579e-11 8.91211e-12 -1.01476e-11
139 2 0.0137026 0.0131694 0.00233572 0.001 1.0472e-05 4.44944e-11 2.16715e-11 -3.42819e-12
140 2 0.00397929 0.000396568 0.0124489 0.001 1.0472e-05 1.30737e-11 7.48138e-12 5.54524e-13
141 2 0.00153539 0.0058894 0.0100237 0.001 1.0472e-05 1.26205e-11 1.22181e-11 -1.99287e-11
142 2 0.000797717 0.00189917 0.0123836 0.001 1.0472e-05 1.36342e-11 5.55527e-12 -3.37831e-12
143 2 0.00775277 0.00969466 0.00515117 0.001 1.0472e-05 7.36517e-12 -1.61428e-11 -9.87348e-12
144 2 0.00940528 0.0077341 0.0130089 0.001 1.0472e-05 -6.7527e-13 -4.76517e-11 2.1358e-11
145 2 0.00252679 0.00351943 0.0104891 0.001 1.0472e-05 1.97266e-11 1.4026e-11 -1.12314e-11
146 2 0.00135079 0.00315587 0.00902838 0.001 1.0472e-05 1.97794e-11 1.08779e-11 -2.93061e-11
147 2 0.00440033 0.00622538 0.00695605 0.001 1.0472e-05 1.36484e-11 5.0113e-11 -3.37416e-13
148 2 0.00474171 0.00240041 0.00193848 0.001 1.0472e-05 3.02165e-10 -3.90109e-10 4.25908e-11
149 2 0.0110236 0.0138513 0.0119887 0.001 1.0472e-05 2.96488e-11 3.27447e-11 -1.0012e-11
150 2 0.0020478 0.000484154 0.011956 0.001 1.0472e-05 9.25016e-12 1.50662e-11 -2.08266e-11
151 2 0.00524596 0.00550364 0.00539707 0.001 1.0472e-05 8.81149e-12 8.39159e-11 1.97825e-11
152 2 0.0145278 0.0107073 0.00564752 0.001 1.0472e-05 5.7112e-11 1.35262e-11 -2.19486e-11
153 2 0.00296965 0.0015815 0.00211661 0.001 1.0472e-05 -3.8929e-11 1.76135e-10 -4.51472e-11
154 2 0.00453302 0.000234118 0.00836158 0.001 1.0472e-05 3.00741e-11 1.11438e-11 -4.34485e-11
155 2 0.000935694 0.000276647 0.0104819 0.001 1.0472e-05 3.73121e-11 1.46995e-12 -3.16033e-12
156 2 0.01238 0.00528542 0.00733189 0.001 1.0472e-05 2.34313e-11 2.36181e-11 -6.15929e-12
157 2 0.00316913 0.0108149 0.0102548 0.001 1.0472e-05 5.13835e-11 2.89848e-11 -1.86712e-12
158 2 0.0152977 0.00987678 0.0109744 0.001 1.0472e-05 9.62733e-11 -8.5104e-12 -8.60721e-11
159 2 0.00941245 0.00182522 0.0109868 0.001 1.0472e-05 1.98751e-11 3.67967e-12 -1.6094e-12
160 2 0.0114356 0.013604 0.0144541 0.001 1.0472e-05 1.20793e-11 -5.83611e-14 -3.35058e-12
161 2 0.0132981 0.00453473 0.00888389 0.001 1.0472e-05 2.38188e-11 8.73536e-12 -3.82571e-12
162 2 0.000102955 0.0107083 0.0143707 0.001 1.0472e-05 -1.76907e-08 -4.23291e-09 1.76223e-09
163 2 0.00923907 0.0130476 0.0119916 0.001 1.0472e-05 1.80188e-11 -1.68498e-12 7.25982e-13
164 2 0.000758336 0.0124053 0.00391401 0.001 1.0472e-05 6.0653e-11 4.30531e-11 -1.27322e-11
165 2 0.0133132 0.00357377 0.00227491 0.001 1.0472e-05 -1.12129e-11 -8.66065e-12 -2.5691e-11
166 2 0.00618999 0.0145874 0.00823451 0.001 1.0472e-05 3.25745e-11 3.14341e-11 -2.50792e-11
167 2 0.0100959 0.0105531 0.00859956 0.001 1.0472e-05 1.30584e-11 9.9479e-12 -4.12375e-11
168 2 0.0124344 0.0121709 0.0136932 0.001 1.0472e-05 -8.61415e-12 3.07588e-11 2.68128e-11
169 2 0.012203 0.00294638 0.000896036 0.001 1.0472e-05 3.77484e-11 1.98322e-11 1.87905e-11
170 2 0.00795209 0.00849578 0.00672208 0.001 1.0472e-05 3.60563e-11 4.43236e-12 -1.49095e-11
171 2 0.00747092 0.00298987 0.0122435 0.001 1.0472e-05 -2.06661e-12 -3.2263e-12 -3.89599e-12
172 2 0.00846117 0.00976741 0.0131137 0.001 1.0472e-05 -5.46523e-11 -2.29057e-11 2.16808e-12
173 2 0.0012589 0.0127233 0.00577631 0.001 1.0472e-05 1.46292e-13 2.17412e-11 6.10626e-12
174 2 0.00917929 0.00727589 0.00828475 0.001 1.0472e-05 5.67453e-12 3.8868e-13 -9.49596e-12
175 2 0.00814712 0.00689363 0.00575642 0.001 1.0472e-05 3.6053e-12 8.19903e-12 -1.65747e-11
176 2 0.0144748 0.00208056 0.00683127 0.001 1.0472e-05 5.30724e-11 3.31536e-11 -2.58142e-11
177 2 0.0107749 0.00278272 0.00562089 0.001 1.0472e-05 -1.3104e-11 1.19874e-11 1.9487e-12
178 2 0.00837796 0.00135228 0.0128374 0.001 1.0472e-05 5.17092e-12 8.94433e-12 -6.91415e-12
179 2 0.0072332 0.00987843 0.0116796 0.001 1.0472e-05 -3.78116e-13 -1.8886e-11 -1.7309e-11
180 2 0.0094552 0.000547202 0.00937686 0.001 1.0472e-05 -1.02073e-11 1.48717e-11 4.93439e-11
181 2 0.00256788 0.0124659 0.0144995 0.001 1.0472e-05 1.53796e-11 -1.00362e-11 -5.89547e-12
182 2 0.00213385 0.00963151 0.0062697 0.001 1.0472e-05 4.25105e-11 3.33923e-11 -1.01746e-11
183 2 0.00949277 0.00401967 0.00920875 0.001 1.0472e-05 5.78609e-12 2.41813e-11 1.2198e-11
184 2 0.00139902 0.000253454 0.00694161 0.001 1.0472e-05 6.16512e-11 2.83922e-11 -1.7544e-11
185 2 0.00920883 0.00321762 0.00655306 0.001 1.0472e-05 5.96363e-11 1.63001e-11 -4.38151e-11
186 2 0.009835 0.0124099 0.00811595 0.001 1.0472e-05 2.33421e-11 5.23594e-11 -2.3549e-11
187 2 0.0136194 0.00719592 0.00970224 0.001 1.0472e-05 3.19296e-11 9.56742e-11 -1.02277e-10
188 2 0.0121248 0.0018376 0.0126539 0.001 1.0472e-05 2.69941e-12 1.77808e-11 2.28115e-12
189 2 0.00615247 0.0106137 0.0143181 0.001 1.0472e-05 -9.36431e-12 3.20145e-12 -8.37186e-12
190 2 0.0148254 0.00407053 0.0137143 0.001 1.0472e-05 -2.78056e-11 4.95012e-11 1.637e-11
191 2 0.000207393 0.0119507 0.0122776 0.001 1.0472e-05 4.08738e-11 -1.86837e-11 5.17301e-12
192 2 0.011914 0.00939085 0.00337375 0.001 1.0472e-05 4.86105e-11 -2.11788e-11 -1.80983e-11
193 2 0.0115532 0.00884355 0.0085027 0.001 1.0472e-05 3.55434e-11 -3.24825e-11 -4.09707e-11
194 2 0.0112024 0.00897595 0.00508958 0.001 1.0472e-05 5.10275e-11 -5.45773e-12 1.56023e-11
195 2 0.000384797 0.00812202 0.00167602 0.001 1.0472e-05 4.53674e-11 2.22749e-11 -3.09324e-11
196 2 0.0141991 0.0128951 0.0131655 0.001 1.0472e-05 -3.98353e-12 -2.56913e-11 -2.19954e-11
197 2 0.0078371 0.00422425 0.00342092 0.001 1.0472e-05 -6.4542e-11 -1.00401e-10 -2.49806e-11
198 2 0.0050376 0.0134928 0.00977238 0.001 1.0472e-05 3.9897e-11 1.65213e-11 -6.06942e-12
199 2 0.0135281 0.0152654 0.00901007 0.001 1.0472e-05 2.56536e-11 3.9565e-12 8.75003e-13
200 2 0.00467879 0.013729 0.0144694 0.001 1.0472e-05 2.7958e-12 -6.01792e-12 -1.24148e-12
201 2 0.0129624 0.00404799 0.01314 0.001 1.0472e-05 1.90347e-11 1.00794e-11 -1.46673e-11
202 2 0.0107135 0.0149828 0.00832928 0.001 1.0472e-05 4.99448e-11 5.00008e-12 -9.45541e-13
203 2 0.00151877 0.0110012 0.0111843 0.001 1.0472e-05 5.81053e-11 8.41687e-12 -5.00417e-11
204 2 0.00702798 0.00290421 0.0141471 0.001 1.0472e-05 2.0806e-11 8.44735e-12 -1.18191e-11
205 2 0.000856327 0.00739977 0.00790637 0.001 1.0472e-05 2.49784e-11 9.80837e-12 9.62361e-12
206 2 0.00373612 0.00197869 0.0136357 0.001 1.0472e-05 -8.65106e-12 2.84346e-12 -1.0962e-11
207 2 0.0128572 0.0110007 0.0102016 0.001 1.0472e-05 -3.25106e-11 6.45346e-11 -3.85294e-11
208 2 0.0123757 0.00224469 0.0107872 0.001 1.0472e-05 3.27794e-11 4.19935e-11 -1.1505e-12
209 2 0.0011117 0.00107387 0.00288313 0.001 1.0472e-05 1.88105e-12 6.42999e-11 -9.38577e-12
210 2 0.00317303 0.000484193 0.00719514 0.001 1.0472e-05 2.9558e-11 -5.07758e-13 -7.42705e-11
211 2 0.0093758 0.00506436 0.013356 0.001 1.0472e-05 -4.84646e-12 -2.15831e-11 -2.68857e-11
212 2 0.00749263 0.0095413 0.00827077 0.001 1.0472e-05 5.30513e-11 1.05599e-11 -3.45256e-11
213 2 0.00611542 0.00112194 0.00799462 0.001 1.0472e-05 7.68529e-12 5.57135e-12 -9.10035e-12
214 2 0.00518629 0.00966056 0.00819069 0.001 1.0472e-05 1.58183e-11 4.95866e-11 -4.28315e-11
215 2 0.00791281 0.00147439 0.00738381 0.001 1.0472e-05 7.62028e-11 2.02813e-11 1.93075e-11
216 2 0.00636073 0.00310831 0.000956723 0.001 1.0472e-05 -1.56385e-10 1.01951e-11 6.86814e-11
217 2 0.0101952 0.00652312 0.0142791 0.001 1.0472e-05 -8.25956e-12 -4.98857e-11 1.83147e-11
218 2 0.00538406 0.00886235 0.0145223 0.001 1.0472e-05 -4.05566e-11 7.69507e-11 2.74223e-11
219 2 0.0125674 0.0140202 0.000940691 0.001 1.0472e-05 2.13269e-11 1.64012e-11 1.01505e-11
220 2 0.00429522 0.00907273 0.0117717 0.001 1.0472e-05 1.11906e-11 8.41776e-12 7.36122e-13
221 2 0.00424022 7.08209e-05 0.00184701 0.001 1.0472e-05 -2.38096e-11 -7.99696e-12 6.5486e-12
222 2 0.0114699 0.0047914 0.00537081 0.001 1.0472e-05 1.4522e-11 2.11061e-11 -1.2487e-11
223 2 0.00201211 0.00332461 0.000955486 0.001 1.0472e-05 -2.12987e-11 -2.87911e-11 3.06043e-11
224 2 0.00945325 0.00371811 0.00467875 0.001 1.0472e-05 3.68331e-11 7.74224e-12 3.44643e-12
225 2 0.00860633 0.0035426 0.0108194 0.001 1.0472e-05 2.79869e-12 1.43929e-11 -6.09308e-12
226 2 0.013712 0.000177214 0.00110976 0.001 1.0472e-05 8.68666e-12 1.57154e-11 -1.4426e-11
227 2 0.0111977 0.00351114 0.0125803 0.001 1.0472e-05 1.00877e-11 2.86292e-12 -1.06438e-11
228 2 0.00350958 0.00447664 0.000860695 0.001 1.0472e-05 5.9519e-11 -3.03894e-11 5.74508e-11
229 2 0.0140785 0.00148499 0.0144383 0.001 1.0472e-05 8.2291e-12 6.36302e-12 -5.34783e-12
230 2 0.00765374 0.0117479 0.0117369 0.001 1.0472e-05 2.87211e-11 -6.07771e-12 4.56224e-12
231 2 0.00804797 0.0136992 0.0144567 0.001 1.0472e-05 5.42607e-12 -1.06787e-11 1.22232e-11
232 2 0.0113553 0.0088956 0.0103548 0.001 1.0472e-05 1.70338e-11 5.77848e-11 -4.81779e-11
233 2 0.000608107 0.00485302 0.00871949 0.001 1.0472e-05 3.6182e-11 6.6018e-12 -5.53571e-11
234 2 0.000717539 0.00222936 0.010531 0.001 1.0472e-05 -2.96642e-12 4.0029e-13 -1.69305e-11
235 2 0.00564961 0.00276824 0.0128419 0.001 1.0472e-05 1.76176e-12 -1.76693e-11 1.76173e-12
236 2 0.00294505 0.000812793 0.00532489 0.001 1.0472e-05 -1.57368e-11 4.87124e-11 -2.64044e-11
237 2 0.0027274 0.00801273 0.0116485 0.001 1.0472e-05 1.78911e-11 9.38724e-12 -1.22712e-11
238 2 0.00581091 0.0112185 0.0119941 0.001 1.0472e-05 1.03954e-11 -2.4662e-12 -9.92168e-12
239 2 0.00429433 0.00372922 0.0067755 0.001 1.0472e-05 6.17447e-11 -1.12636e-12 -2.10652e-11
240 2 0.0144196 0.00197495 0.00169172 0.001 1.0472e-05 6.52624e-12 1.12552e-11 -1.06276e-11
241 2 0.0124695 0.0104004 0.0122722 0.001 1.0472e-05 -3.91995e-10 3.56839e-11 3.23285e-12
242 2 0.0102104 0.0123625 0.0104977 0.001 1.0472e-05 2.15385e-11 -4.16659e-12 -4.98138e-11
243 2 0.0069538 0.0153657 0.000961087 0.001 1.0472e-05 2.49639e-10 -5.56031e-10 3.64436e-10
244 2 0.00338696 0.0106218 0.0123903 0.001 1.0472e-05 2.41487e-11 1.26995e-11 -1.14538e-11
245 2 0.00794971 0.0118904 0.00901193 0.001 1.0472e-05 9.82459e-12 4.50618e-12 -1.48273e-11
246 2 0.00562976 0.0149135 0.00464384 0.001 1.0472e-05 2.37124e-11 6.97892e-11 -8.50995e-11
247 2 0.00197985 0.0147262 0.000913379 0.001 1.0472e-05 -6.43426e-13 3.60292e-11 -1.58994e-11
248 2 0.00565954 0.0152915 0.0102548 0.001 1.0472e-05 1.19853e-11 1.42639e-11 -1.52523e-11
249 2 0.00867568 0.0147488 0.0130276 0.001 1.0472e-05 1.52308e-11 9.98567e-12 4.01032e-12
250 2 0.0144117 0.0141102 0.00385105 0.001 1.0472e-05 4.80946e-11 3.05991e-11 -8.58523e-12
251 2 0.00391241 0.00974572 0.00325401 0.001 1.0472e-05 2.68404e-11 4.32704e-11 2.08142e-11
252 2 0.00949221 4.3946e-06 0.00662878 0.001 1.0472e-05 7.33492e-11 5.17851e-11 5.15448e-11
253 2 0.00541076 0.00205572 0.014552 0.001 1.0472e-05 2.30891e-11 -3.12478e-12 6.40258e-12
254 2 0.00320809 0.00802219 0.00580835 0.001 1.0472e-05 2.97314e-11 4.72297e-11 -1.31839e-11
255 2 0.00181676 0.0116185 0.0129834 0.001 1.0472e-05 2.13752e-11 2.89693e-12 -8.44102e-12
256 2 0.00941314 0.00322618 0.00279442 0.001 1.0472e-05 4.23773e-11 -5.65115e-11 8.9453e-12
257 2 0.0150599 0.0101984 0.00341847 0.001 1.0472e-05 3.77726e-11 4.55072e-12 -5.39393e-12
258 2 0.0092132 0.00984722 0.000788599 0.001 1.0472e-05 2.79597e-11 -3.44374e-11 -2.24237e-11
259 2 0.00665438 0.00281587 0.00858466 0.001 1.0472e-05 5.7929e-11 1.9426e-11 2.44273e-11
260 2 0.0124881 0.00261445 0.0144141 0.001 1.0472e-05 4.38123e-12 5.62734e-12 1.31061e-13
261 2 0.00139681 0.0127936 0.0104838 0.001 1.0472e-05 2.35824e-11 5.27824e-12 -2.59767e-11
262 2 0.00236449 0.0106068 0.0144164 0.001 1.0472e-05 2.49497e-11 -1.27244e-11 -1.18853e-11
263 2 0.013628 0.00657823 0.00604303 0.001 1.0472e-05 1.19814e-11 1.09847e-11 -1.18312e-11
264 2 0.0127349 0.0137726 0.0099051 0.001 1.0472e-05 1.54909e-11 2.31789e-11 -2.37193e-12
265 2 0.00754114 0.000726696 0.00918317 0.001 1.0472e-05 3.45559e-11 1.39536e-11 1.20976e-12
266 2 5.44704e-06 0.00351769 0.00210963 0.001 1.0472e-05 1.11545e-11 2.09725e-11 2.45185e-11
267 2 0.00405975 0.0116965 0.000870637 0.001 1.0472e-05 4.80944e-11 1.15062e-11 -3.0052e-11
268 2 0.000172101 0.0151488 0.0121246 0.001 1.0472e-05 2.15934e-11 7.62521e-13 -1.05346e-11
269 2 0.000791541 0.0128573 0.000945587 0.001 1.0472e-05 2.77328e-11 2.49484e-11 1.45243e-12
270 2 0.00508158 0.00161784 0.0115467 0.001 1.0472e-05 1.05225e-11 8.42921e-12 -1.88374e-12
271 2 0.00893184 0.00550811 0.00726342 0.001 1.0472e-05 -8.07846e-12 9.25911e-12 -1.50614e-11
272 2 0.0138259 0.0128659 0.00873261 0.001 1.0472e-05 4.96172e-11 5.10107e-11 9.12575e-11
273 2 0.0125736 0.00773273 0.00449174 0.001 1.0472e-05 -2.29426e-11 -4.94284e-12 -1.1953e-12
274 2 0.00947011 0.00888714 0.0144737 0.001 1.0472e-05 -1.29535e-11 9.02577e-12 -1.80175e-11
275 2 0.00770291 0.00916449 0.00328085 0.001 1.0472e-05 3.48357e-11 -1.79907e-11 -3.32929e-11
276 2 0.000704382 0.0128889 0.0139551 0.001 1.0472e-05 2.19703e-11 -1.3561e-11 -1.00901e-11
277 2 0.0138446 0.000358494 0.00484459 0.001 1.0472e-05 5.05375e-11 2.93024e-11 -4.71679e-13
278 2 0.0044512 0.0120634 0.013054 0.001 1.0472e-05 9.01972e-12 3.61523e-12 3.82363e-13
279 2 0.0029143 0.012158 0.00686304 0.001 1.0472e-05 3.9267e-11 3.09174e-11 -1.97054e-11
280 2 0.00990811 0.00917515 0.011632 0.001 1.0472e-05 -1.07601e-10 -2.30142e-10 -1.45815e-10
281 2 0.00744579 0.00443936 0.00956547 0.001 1.0472e-05 -4.50759e-12 7.91897e-12 -5.12665e-12
282 2 0.0114864 1.68976e-05 0.00549965 0.001 1.0472e-05 4.40888e-11 3.8655e-11 -1.61318e-11
283 2 0.0133336 0.00861662 0.0130255 0.001 1.0472e-05 -2.81922e-11 5.2939e-11 -2.11457e-11
284 2 0.0110616 0.0107054 0.0109393 0.001 1.0472e-05 1.20897e-11 3.6445e-11 -2.03988e-10
285 2 0.0117061 0.00822313 0.0144383 0.001 1.0472e-05 1.83295e-11 4.22475e-11 1.16857e-11
286 2 0.00878786 0.0135288 0.0023923 0.001 1.0472e-05 3.15314e-10 -8.44829e-11 1.3719e-10
287 2 0.0106632 0.00600215 0.00795997 0.001 1.0472e-05 1.65368e-11 -6.44867e-12 8.72059e-12
288 2 0.0021008 0.00300737 0.0132289 0.001 1.0472e-05 3.74159e-12 4.36973e-13 -3.27663e-12
289 2 0.00728994 0.000886665 0.0143983 0.001 1.0472e-05 5.11001e-12 2.23251e-12 -1.38117e-12
290 2 4.16897e-05 0.00993837 0.00159344 0.001 1.0472e-05 4.35861e-11 1.88829e-11 -7.25726e-12
291 2 0.00765294 0.00813705 0.0123622 0.001 1.0472e-05 1.2145e-11 -5.16684e-12 -1.22968e-11
292 2 0.000252113 9.55946e-05 0.000988166 0.001 1.0472e-05 3.50237e-11 1.04937e-11 -5.99642e-12
293 2 0.014231 0.0145067 0.0108638 0.001 1.0472e-05 2.78651e-11 2.25641e-12 -1.21618e-12
294 2 0.0086151 0.00761119 0.00400059 0.001 1.0472e-05 -3.31883e-12 -2.84016e-11 3.08627e-12
295 2 0.0043655 0.00132045 0.00985945 0.001 1.0472e-05 1.67095e-11 1.57958e-11 -3.21587e-11
296 2 0.00585321 0.00945247 0.0128251 0.001 1.0472e-05 -1.16628e-12 9.81365e-12 -3.09049e-11
297 2 0.00837267 0.00543371 0.0109384 0.001 1.0472e-05 -9.46577e-12 3.90331e-12 -6.97609e-12
298 2 0.0115174 0.0124608 0.00122077 0.001 1.0472e-05 7.16249e-11 -3.3349e-11 5.07548e-11
299 2 0.00699838 0.011511 0.00745564 0.001 1.0472e-05 4.49733e-11 2.03687e-11 5.59663e-13
300 2 0.00953841 0.00740716 0.0107448 0.001 1.0472e-05 2.91967e-11 1.18254e-12 2.82783e-11
301 2 0.00350604 0.0026421 0.00545945 0.001 1.0472e-05 4.91931e-11 5.90204e-11 -1.20792e-10
302 2 0.0113766 0.00699471 0.00997059 0.001 1.0472e-05 -7.69627e-12 4.91797e-11 5.7843e-11
303 2 0.00457022 0.00521808 0.00363048 0.001 1.0472e-05 -4.4966e-11 1.11349e-10 7.444e-11
304 2 0.00691094 0.00100069 0.00484605 0.001 1.0472e-05 1.43051e-10 3.92224e-11 4.7037e-11
305 2 0.0106381 0.0141371 0.00268959 0.001 1.0472e-05 1.45534e-10 -4.09665e-11 -1.98458e-10
306 2 0.0131708 0.00921762 0.000905615 0.001 1.0472e-05 1.80356e-11 1.79045e-11 -4.48006e-12
307 2 0.00638183 0.0114723 0.00549042 0.001 1.0472e-05 7.00569e-12 2.50765e-11 -2.47726e-11
308 2 0.0108641 0.00407079 0.00703743 0.001 1.0472e-05 3.48227e-11 4.56158e-11 9.31918e-12
309 2 0.0109557 0.00254844 0.00938566 0.001 1.0472e-05 2.4688e-11 1.09811e-11 -3.15884e-11
310 2 0.00648329 0.000270749 0.00294967 0.001 1.0472e-05 4.07361e-10 5.5014e-11 -2.81831e-10
311 2 0.00956775 0.00815997 0.00552489 0.001 1.0472e-05 3.33439e-11 -6.29014e-12 -2.33024e-11
312 2 0.00232404 0.0120693 0.00895903 0.001 1.0472e-05 3.56513e-11 3.24656e-11 -1.18475e-11
313 2 0.00242551 0.00458769 0.0023628 0.001 1.0472e-05 -1.49501e-11 4.47246e-11 5.56518e-12
314 2 0.0084316 3.67201e-05 0.0026624 0.001 1.0472e-05 1.68518e-10 -6.17043e-11 4.95867e-11
315 2 0.00752129 0.00641127 0.00950419 0.001 1.0472e-05 1.26287e-11 2.27322e-12 -7.46074e-12
316 2 0.00743731 0.0135884 0.0121698 0.001 1.0472e-05 2.10621e-11 1.2255e-11 -6.13398e-12
317 2 0.0145298 0.0138865 0.000838914 0.001 1.0472e-05 5.64045e-12 2.10842e-11 3.33874e-12
318 2 0.0018939 0.0111631 0.00116497 0.001 1.0472e-05 3.94623e-11 4.3987e-11 -4.26519e-12
319 2 0.0045709 0.00720064 0.00473236 0.001 1.0472e-05 -1.83358e-11 5.06017e-11 7.79195e-12
320 2 0.006107 0.0129612 0.0133429 0.001 1.0472e-05 -2.86906e-12 1.86085e-12 4.31065e-12
321 2 0.000281846 0.0148294 0.013994 0.001 1.0472e-05 2.95482e-11 4.35661e-12 -1.90466e-11
322 2 0.00131406 0.00490568 0.00704652 0.001 1.0472e-05 2.89142e-11 1.6502e-11 -1.60428e-11
323 2 0.00135171 0.0135739 0.0122601 0.001 1.0472e-05 1.39941e-11 -2.61518e-12 -6.62594e-12
324 2 0.00358853 0.0153143 0.0144855 0.001 1.0472e-05 -2.863e-12 1.20338e-12 -4.43562e-12
325 2 0.0129227 0.0060395 0.0129016 0.001 1.0472e-05 -2.85261e-11 -4.35156e-13 -2.25597e-11
326 2 0.0126435 0.0112162 0.00217906 0.001 1.0472e-05 1.92508e-11 -2.29797e-11 3.40709e-11
327 2 0.0134372 0.00959229 0.0145322 0.001 1.0472e-05 -6.50847e-11 3.99809e-11 9.33258e-12
328 2 0.00509703 0.00594084 0.0125249 0.001 1.0472e-05 -8.73616e-12 -3.40282e-12 -1.56155e-11
329 2 0.00326961 0.0135723 0.0131057 0.001 1.0472e-05 9.60507e-12 -3.49961e-12 -3.92905e-12
330 2 0.00693201 0.00157657 0.0110465 0.001 1.0472e-05 5.16595e-12 5.2132e-12 -4.88728e-12
331 2 0.0132535 0.00425997 0.00594174 0.001 1.0472e-05 2.42152e-11 2.73709e-11 -3.91042e-12
332 2 0.00141063 0.00431651 0.0144501 0.001 1.0472e-05 7.48392e-12 1.07041e-11 -9.41967e-12
333 2 0.011409 0.00878822 0.0126594 0.001 1.0472e-05 -1.8979e-10 -4.1778e-11 2.11365e-11
334 2 0.00281183 0.00620945 0.000981801 0.001 1.0472e-05 1.1458e-11 -4.05508e-11 -8.2091e-12
335 2 0.00216867 0.0079918 0.00094116 0.001 1.0472e-05 1.5936e-11 2.29083e-11 -9.1248e-12
336 2 0.0119368 0.0106424 0.00866723 0.001 1.0472e-05 3.62954e-11 8.08712e-11 -5.47302e-11
337 2 0.000315523 0.00252498 0.014145 0.001 1.0472e-05 2.37459e-11 -5.64466e-12 -1.2068e-11
338 2 0.00632357 0.00455393 0.0125094 0.001 1.0472e-05 -5.7644e-12 -1.01192e-11 -7.69443e-12
339 2 0.00893849 0.011602 0.00447723 0.001 1.0472e-05 3.31641e-11 -7.85435e-12 -3.3142e-11
340 2 0.0123659 0.0139089 0.00458079 0.001 1.0472e-05 6.64946e-11 2.90497e-11 -1.56849e-11
341 2 0.00184676 0.00705112 0.00259006 0.001 1.0472e-05 1.4472e-11 3.93051e-11 -2.33959e-12
342 2 0.00330738 0.00526057 0.0103617 0.001 1.0472e-05 2.64272e-12 1.17047e-11 -1.5165e-11
343 2 0.0108258 0.0141082 0.0100376 0.001 1.0472e-05 1.94015e-11 1.9267e-11 -2.02091e-11
344 2 0.0138209 0.001813 0.00355097 0.001 1.0472e-05 3.34877e-11 2.79477e-11 -4.58944e-12
345 2 0.00850924 0.00171015 0.00367724 0.001 1.0472e-05 3.72482e-11 1.22132e-10 2.45363e-11
346 2 0.0119219 0.0127336 0.0031407 0.001 1.0472e-05 1.05466e-10 4.02509e-11 1.31978e-11
347 2 0.0076253 0.0118442 0.014333 0.001 1.0472e-05 7.21216e-12 7.14943e-12 -5.48809e-12
348 2 0.00445083 0.0091869 0.00989112 0.001 1.0472e-05 2.74572e-11 2.68853e-11 -2.38445e-11
349 2 0.00929169 0.00157045 0.00546177 0.001 1.0472e-05 4.31953e-11 3.09085e-11 3.5421e-11
350 2 0.00829817 0.0133861 0.00417363 0.001 1.0472e-05 1.26868e-10 -4.35483e-11 7.34017e-11
351 2 0.00264601 0.00374624 0.00771585 0.001 1.0472e-05 3.31772e-11 1.67253e-11 -3.7025e-11
352 2 0.0115377 0.0124815 0.0091071 0.001 1.0472e-05 1.98912e-11 2.29807e-11 -2.94831e-11
353 2 0.00986001 0.0058142 0.00969845 0.001 1.0472e-05 1.90481e-11 1.88151e-11 1.67526e-11
354 2 0.00356453 0.0097538 0.00507178 0.001 1.0472e-05 2.25447e-11 2.41421e-11 2.18179e-12
355 2 0.00496977 0.0117703 0.00894412 0.001 1.0472e-05 5.18521e-11 6.92409e-12 -2.38004e-12
356 2 0.000933119 0.0103741 0.00492578 0.001 1.0472e-05 3.9894e-11 2.78174e-11 8.45977e-13
357 2 0.00147794 0.013279 0.00760551 0.001 1.0472e-05 1.15991e-11 1.02968e-11 -1.00409e-11
358 2 0.00248659 0.00150683 0.0103276 0.001 1.0472e-05 1.71986e-11 -6.96584e-12 -2.938e-11
359 2 0.0140731 0.0111726 0.000931769 0.001 1.0472e-05 2.50778e-11 -1.03343e-11 1.49069e-11
360 2 0.00351666 0.0106179 0.00838933 0.001 1.0472e-05 3.65678e-11 3.29844e-11 -2.89843e-11
361 2 0.00416322 0.0101884 0.0141569 0.001 1.0472e-05 -1.62424e-11 1.12075e-11 -2.08603e-12
362 2 0.0101873 0.00560489 0.000964288 0.001 1.0472e-05 1.47637e-11 -2.31558e-11 1.37303e-12
363 2 0.0060884 0.00418303 0.00432384 0.001 1.0472e-05 -1.18214e-10 -9.54641e-12 5.07307e-11
364 2 0.00653273 0.00989849 0.00664684 0.001 1.0472e-05 2.8137e-11 6.00744e-12 -4.06568e-12
365 2 0.00971019 0.00806088 0.00254387 0.001 1.0472e-05 9.44475e-12 -3.96605e-11 1.44047e-11
366 2 0.00166564 0.00288956 0.00276327 0.001 1.0472e-05 -3.54981e-11 7.13754e-11 -2.11222e-11
367 2 0.00732062 0.0134592 0.000890946 0.001 1.0472e-05 2.82727e-10 -2.87211e-10 -2.01713e-10
368 2 0.00666357 0.0133519 0.00510623 0.001 1.0472e-05 2.58421e-11 1.13347e-11 -1.25053e-10
369 2 0.00607573 0.00344696 0.0061058 0.001 1.0472e-05 1.47011e-11 1.34952e-11 4.83281e-11
370 2 0.00242087 0.014422 0.010649 0.001 1.0472e-05 1.76664e-11 2.42111e-11 -1.32421e-11
371 2 0.014985 0.0152605 0.00713385 0.001 1.0472e-05 5.13818e-11 1.6637e-11 -1.99297e-12
372 2 0.00721139 0.00929621 0.00121466 0.001 1.0472e-05 7.61716e-12 -1.27348e-11 -1.64234e-11
373 2 0.00265784 0.00188163 0.0084328 0.001 1.0472e-05 2.72921e-11 1.54456e-11 -2.40612e-11
374 2 0.00168017 0.00916966 0.010395 0.001 1.0472e-05 3.97502e-11 2.79652e-12 -5.05086e-11
375 2 0.00536849 0.0129771 0.00754038 0.001 1.0472e-05 4.53807e-11 4.35193e-11 -5.20977e-11
376 2 0.00274639 0.00878504 0.014486 0.001 1.0472e-05 6.24534e-12 8.64978e-12 -6.59237e-12
377 2 0.0151234 0.0122909 0.00656322 0.001 1.0472e-05 1.09676e-10 2.04363e-11 -3.41975e-11
378 2 0.0144216 0.0103622 0.0127054 0.001 1.0472e-05 -4.50008e-09 -2.61907e-08 7.31036e-10
379 2 0.0124602 0.0123175 0.00557562 0.001 1.0472e-05 8.39728e-11 -3.82369e-12 -1.84394e-11
380 2 0.0103239 0.00333838 0.00103588 0.001 1.0472e-05 2.7228e-11 -7.749e-11 -2.44495e-11
381 2 0.00773119 0.00262932 0.00558849 0.001 1.0472e-05 6.44674e-11 1.94631e-11 4.78171e-11
382 2 0.0153153 0.011762 0.00230072 0.001 1.0472e-05 3.6718e-11 1.09694e-11 -1.23824e-11
383 2 0.00160644 0.0108221 0.00306188 0.001 1.0472e-05 3.8495e-11 3.56313e-11 -1.72925e-11
384 2 0.00158337 0.00792297 0.00477888 0.001 1.0472e-05 6.23366e-12 5.07605e-11 2.74846e-13
385 2 0.0111439 0.00659056 0.00240915 0.001 1.0472e-05 -4.43977e-13 -5.459e-13 -4.165e-12
386 2 0.00940148 0.0029987 0.0125156 0.001 1.0472e-05 2.30841e-11 6.18186e-12 -5.58908e-12
387 2 0.00977462 0.0146313 0.0145026 0.001 1.0472e-05 -7.48679e-13 9.81299e-12 -5.21329e-12
388 2 0.00355658 0.0052915 0.00838119 0.001 1.0472e-05 1.88612e-11 1.81303e-11 -6.55483e-12
389 2 0.00144904 0.00891623 0.0030637 0.001 1.0472e-05 2.3255e-11 2.36738e-11 -2.18729e-11
390 2 0.0137917 0.0145534 0.0139788 0.001 1.0472e-05 -3.73936e-12 1.79886e-12 -1.00105e-11
391 2 0.00795004 0.00395888 0.00779214 0.001 1.0472e-05 2.63716e-11 1.61036e-11 -1.39149e-11
392 2 0.0101439 0.00116855 0.0144622 0.001 1.0472e-05 1.10092e-11 -2.27415e-12 9.91721e-12
393 2 0.0151797 0.00380923 0.00616903 0.001 1.0472e-05 3.83523e-11 2.53051e-11 -9.70443e-12
394 2 0.00569671 0.00416421 0.00244644 0.001 1.0472e-05 -2.22666e-10 -7.31499e-11 1.29901e-10
395 2 0.00219578 0.00920315 0.0084846 0.001 1.0472e-05 5.59987e-11 3.78563e-11 -9.87641e-12
396 2 0.00524034 0.0146138 0.00652534 0.001 1.0472e-05 5.87893e-11 6.11543e-11 -7.0043e-11
397 2 0.0100751 0.000953253 0.00273221 0.001 1.0472e-05 -6.85494e-11 2.7721e-10 -1.75169e-10
398 2 0.00104198 0.00501638 0.00356731 0.001 1.0472e-05 -1.93373e-11 6.48877e-11 -2.57117e-11
399 2 0.0142913 0.00429492 0.000845666 0.001 1.0472e-05 4.46085e-12 -4.30782e-12 -1.86061e-12
400 2 0.00744526 0.00680892 0.00753432 0.001 1.0472e-05 9.8105e-12 -1.02809e-11 -5.01031e-12
401 3 0.0120714 0.00433377 0.0108016 0.00125 2.04531e-05 5.11213e-11 4.25085e-11 -2.42111e-11
402 3 0.0103729 0.000502322 0.0124425 0.00125 2.04531e-05 9.00536e-12 3.65309e-11 -3.07135e-11
403 3 0.0137643 0.0118121 0.00396091 0.00125 2.04531e-05 1.41053e-10 3.20422e-11 5.7717e-12
404 3 0.0111626 0.00982771 0.00145504 0.00125 2.04531e-05 1.25335e-11 -2.04563e-11 -2.43104e-12
405 3 0.00348983 0.0137501 0.00827848 0.00125 2.04531e-05 4.66965e-11 3.42391e-11 -6.48575e-11
406 3 0.00830699 0.0153395 0.0110878 0.00125 2.04531e-05 4.00942e-11 3.4986e-11 -4.55105e-11
407 3 0.0147553 0.011936 0.0103554 0.00125 2.04531e-05 -1.71191e-11 4.18512e-11 -7.89225e-11
408 3 0.0152275 0.00674113 0.00323557 0.00125 2.04531e-05 2.53198e-11 7.16598e-11 -3.16639e-11
409 3 0.00519266 0.0057472 0.00112057 0.00125 2.04531e-05 9.277e-12 1.36226e-11 2.18561e-11
410 3 0.00889915 0.0105544 0.0103827 0.00125 2.04531e-05 2.0417e-11 -9.00442e-12 -1.19085e-10
411 3 0.00102851 0.0142924 0.00283863 0.00125 2.04531e-05 1.50377e-10 7.35278e-11 -1.10016e-11
412 3 0.00361415 0.0096591 0.0011747 0.00125 2.04531e-05 -4.15599e-12 -1.14281e-12 -3.40019e-11
413 3 0.00659317 0.00791887 0.00462736 0.00125 2.04531e-05 5.17595e-11 -1.05907e-11 -2.39636e-11
414 3 0.00426652 0.00339785 0.00907624 0.00125 2.04531e-05 3.33173e-11 3.01538e-11 -1.42366e-11
415 3 0.00395039 0.00414175 0.0129698 0.00125 2.04531e-05 1.45301e-11 -3.70209e-12 -1.70098e-12
416 3 0.00442029 0.00110454 0.00374096 0.00125 2.04531e-05 1.56295e-12 3.77549e-10 -4.51224e-11
417 3 0.0111543 0.00451615 0.0032168 0.00125 2.04531e-05 6.54776e-11 3.72447e-11 -2.24195e-11
418 3 0.00178195 0.00105212 0.0142068 0.00125 2.04531e-05 9.65527e-13 4.63635e-12 -5.55307e-12
419 3 0.00189486 0.0040135 0.00524059 0.00125 2.04531e-05 7.46954e-11 9.60922e-11 -8.89831e-11
420 3 0.0063342 0.0070789 0.0141061 0.00125 2.04531e-05 3.75624e-11 -8.14337e-11 -3.14156e-11
421 3 0.0110594 0.0067007 0.0121413 0.00125 2.04531e-05 -2.19901e-11 -1.07402e-10 6.99321e-11
422 3 0.00268823 0.0116887 0.00470952 0.00125 2.04531e-05 7.698e-11 6.46816e-11 -2.80412e-11
423 3 0.00594301 0.0105089 0.00347532 0.00125 2.04531e-05 1.55447e-10 5.54452e-11 -3.03732e-11
424 3 0.0122041 0.000118693 0.0110307 0.00125 2.04531e-05 1.94735e-11 5.6987e-11 -1.72087e-11
425 3 0.00155715 0.00948266 0.0127442 0.00125 2.04531e-05 4.66707e-11 4.14928e-12 -2.01275e-11
426 3 0.00598739 0.00543957 0.00826888 0.00125 2.04531e-05 -4.35753e-12 1.65391e-12 -2.17001e-11
427 3 0.00719416 0.013658 0.00988841 0.00125 2.04531e-05 1.3516e-11 6.86609e-11 -2.91666e-11
428 3 0.0127793 0.00216628 0.00545954 0.00125 2.04531e-05 7.60371e-11 4.97438e-11 1.02696e-11
429 3 0.0119283 0.0135616 0.00727503 0.00125 2.04531e-05 5.69262e-11 6.48214e-11 -6.21929e-11
430 3 6.71044e-05 0.00784465 0.0117907 0.00125 2.04531e-05 4.48879e-11 4.18027e-12 -4.79483e-11
431 3 0.00363414 0.00335626 0.00354189 0.00125 2.04531e-05 1.05863e-11 3.66945e-10 -1.82432e-10
432 3 0.00624899 0.0153564 0.0123765 0.00125 2.04531e-05 2.42053e-11 -2.28262e-12 -1.24535e-11
433 3 0.00272931 0.0141818 0.00593489 0.00125 2.04531e-05 4.35711e-11 4.82526e-11 -4.40014e-11
434 3 0.015314 0.00321517 0.0041542 0.00125 2.04531e-05 1.68247e-11 9.33857e-11 -2.43919e-11
435 3 0.00870162 0.00608125 0.00249101 0.00125 2.04531e-05 3.44651e-11 -1.30423e-10 4.32672e-11
436 3 0.00488262 0.00127621 0.00622528 0.00125 2.04531e-05 1.03831e-10 6.25953e-11 -6.54654e-11
437 3 0.0110929 0.0111959 0.00674745 0.00125 2.04531e-05 8.44264e-11 3.10965e-11 -1.20522e-10
438 3 0.00581061 0.00774643 0.00888537 0.00125 2.04531e-05 3.72797e-11 4.96254e-11 -3.93542e-11
439 3 0.000999922 0.010941 0.00766506 0.00125 2.04531e-05 7.42337e-11 4.70779e-11 -1.75301e-11
440 3 0.0145217 0.003246 0.0117452 0.00125 2.04531e-05 3.2328e-11 1.05648e-11 -3.29646e-11
441 3 0.0136444 0.00833144 0.00796406 0.00125 2.04531e-05 1.63507e-11 6.61358e-11 -3.89334e-11
442 3 0.0126905 0.0125192 0.0116509 0.00125 2.04531e-05 -8.22228e-11 -5.57667e-12 6.65627e-14
443 3 0.00830447 0.0041529 0.0011454 0.00125 2.04531e-05 -1.80006e-11 -1.85398e-10 1.63187e-11
444 3 0.0107548 0.00153932 0.00738435 0.00125 2.04531e-05 4.27562e-11 5.19717e-11 5.52496e-11
445 3 0.00671242 0.0126925 0.00283251 0.00125 2.04531e-05 2.09615e-10 3.95581e-11 -2.03659e-10
446 3 0.00562975 0.00844931 0.00239322 0.00125 2.04531e-05 3.3978e-11 6.04593e-11 -1.31775e-11
447 3 0.0117758 0.00221322 0.00300223 0.00125 2.04531e-05 8.51994e-11 3.74521e-11 3.15651e-11
448 3 0.0134011 0.0114463 0.00736109 0.00125 2.04531e-05 6.45953e-12 -6.16465e-11 -1.12604e-10
449 3 0.000530926 0.0011517 0.00865478 0.00125 2.04531e-05 8.70341e-11 1.37202e-11 -2.94248e-11
450 3 0.00960463 0.0150277 0.00450741 0.00125 2.04531e-05 4.41964e-12 -6.04041e-11 2.24554e-10
451 3 0.0137572 0.00853907 0.00284369 0.00125 2.04531e-05 1.73901e-11 7.57027e-11 -1.0743e-11
452 3 0.00884252 0.0104411 0.00685552 0.00125 2.04531e-05 2.404e-11 3.79871e-12 -6.52434e-11
453 3 0.00943698 0.0119622 0.00114544 0.00125 2.04531e-05 5.4612e-12 -1.61867e-10 3.82167e-11
454 3 0.012886 0.000449339 0.00708418 0.00125 2.04531e-05 6.52617e-11 3.13644e-11 -1.7193e-11
455 3 0.0123344 0.00524221 0.00118007 0.00125 2.04531e-05 1.32968e-11 1.63801e-11 -1.20285e-11
456 3 9.32338e-05 0.0141939 0.00905145 0.00125 2.04531e-05 6.1564e-11 1.45611e-11 -9.54645e-12
457 3 0.00100977 0.0060973 0.0132674 0.00125 2.04531e-05 -1.16636e-11 -6.19038e-12 -3.25458e-11
458 3 0.0142238 0.00127158 0.0104061 0.00125 2.04531e-05 6.46745e-11 3.07177e-11 -7.26661e-13
459 3 0.00275848 0.0130116 0.0018307 0.00125 2.04531e-05 1.25862e-10 3.35379e-11 -1.9304e-11
460 3 0.0133376 0.00875517 0.011039 0.00125 2.04531e-05 1.57825e-11 1.07096e-10 -2.35014e-12
461 3 0.00976876 0.0122904 0.0139651 0.00125 2.04531e-05 4.89834e-11 1.04462e-11 2.06315e-11
462 3 0.0064751 0.00236292 0.00321008 0.00125 2.04531e-05 -9.22998e-11 -6.80544e-11 4.0162e-10
463 3 0.0139167 0.0138776 0.0059747 0.00125 2.04531e-05 8.6215e-11 3.89251e-11 -1.02141e-11
464 3 6.98268e-05 0.00830105 0.0142048 0.00125 2.04531e-05 -5.34034e-12 3.09568e-11 -1.5764e-11
465 3 0.00738485 0.0149289 0.00641985 0.00125 2.04531e-05 1.09555e-10 1.76988e-11 -4.93855e-11
466 3 0.00631309 0.0104336 0.00986055 0.00125 2.04531e-05 8.54689e-11 5.37962e-11 -3.70645e-12
467 3 0.000438551 0.00622823 0.00555057 0.00125 2.04531e-05 4.54511e-11 6.70434e-11 -2.3092e-11
468 3 0.0080945 0.00180874 0.00148089 0.00125 2.04531e-05 -1.11794e-09 -2.33522e-10 3.96365e-11
469 3 0.014458 0.00614742 0.008072 0.00125 2.04531e-05 2.53449e-11 7.71105e-11 6.28608e-11
470 3 0.0127861 0.00951696 0.00620365 0.00125 2.04531e-05 2.58045e-11 -8.02363e-12 -8.70062e-11
471 3 0.00126415 0.0023969 0.00681879 0.00125 2.04531e-05 1.0442e-10 4.20297e-11 -6.21995e-11
472 3 0.0105176 0.0128407 0.00496564 0.00125 2.04531e-05 1.50587e-10 -4.48424e-12 -1.12554e-10
473 3 0.00461531 0.010816 0.00654664 0.00125 2.04531e-05 7.9423e-11 6.36855e-11 -1.00404e-12
474 3 0.0131185 0.00582086 0.00369956 0.00125 2.04531e-05 2.24312e-11 3.9425e-11 -2.65703e-11
475 3 0.00464984 0.0128554 0.00552019 0.00125 2.04531e-05 8.10325e-11 7.95241e-11 -5.4234e-11
476 3 0.00590881 0.00343809 0.0107434 0.00125 2.04531e-05 -1.67939e-11 -1.23875e-11 -1.98804e-11
477 3 0.00510018 0.0135748 0.00118769 0.00125 2.04531e-05 6.02248e-12 7.50906e-11 4.64813e-11
478 3 0.000575002 0.0151118 0.00503998 0.00125 2.04531e-05 8.59144e-11 7.75171e-11 -4.15921e-11
479 3 0.00644054 0.00611998 0.0030945 0.00125 2.04531e-05 -1.53896e-11 -1.00278e-10 7.56257e-11
480 3 0.00977715 0.0097966 0.00382032 0.00125 2.04531e-05 7.5934e-11 -9.94026e-11 -3.06906e-11
481 3 0.0120721 0.00032229 0.0141937 0.00125 2.04531e-05 1.35243e-11 6.64771e-12 3.96418e-12
482 3 0.00773114 0.0084715 0.0101293 0.00125 2.04531e-05 4.32004e-11 2.22531e-11 -2.03721e-11
483 3 0.0126684 0.00275445 0.00796893 0.00125 2.04531e-05 1.13426e-10 6.83773e-11 -1.8582e-11
484 3 0.0126429 0.0150336 0.00289099 0.00125 2.04531e-05 1.07323e-10 6.56414e-11 8.29148e-12
485 3 0.00013985 0.00894094 0.00655536 0.00125 2.04531e-05 3.4801e-11 5.93153e-11 -2.95268e-11
486 3 0.00287912 0.00722056 0.00891266 0.00125 2.04531e-05 4.65931e-11 1.98477e-11 -3.76122e-11
487 3 0.00834925 0.0127266 0.00627713 0.00125 2.04531e-05 6.01631e-11 1.58207e-11 -5.9028e-11
488 3 0.00528231 0.00816326 0.00658789 0.00125 2.04531e-05 2.96071e-11 8.14825e-11 1.54993e-12
489 3 0.00407704 0.007589 0.0133247 0.00125 2.04531e-05 8.14134e-12 2.16956e-12 -1.00585e-11
490 3 0.0097018 0.00582547 0.00462714 0.00125 2.04531e-05 2.39753e-11 -3.67461e-12 3.23786e-11
491 3 0.00612746 0.0111889 0.00113542 0.00125 2.04531e-05 1.34015e-11 -3.85024e-11 -9.04132e-11
492 3 0.00274916 0.00607663 0.00448663 0.00125 2.04531e-05 -1.04147e-11 1.90556e-10 -3.88823e-11
493 3 0.00740041 0.00501941 0.0142546 0.00125 2.04531e-05 4.70158e-12 -2.14956e-11 -1.06169e-11
494 3 0.00772903 0.00478735 0.00558748 0.00125 2.04531e-05 -9.575e-13 -2.76284e-11 -4.24646e-11
495 3 0.0116171 0.000739655 0.00108667 0.00125 2.04531e-05 1.80586e-11 1.18984e-11 1.17238e-11
496 3 0.0113649 0.0103853 0.0141892 0.00125 2.04531e-05 5.24803e-11 8.76324e-11 1.29638e-10
497 3 0.0146829 0.00519847 0.0103494 0.00125 2.04531e-05 -9.72459e-12 1.1762e-11 1.43607e-11
498 3 0.0114508 0.00691104 0.00611402 0.00125 2.04531e-05 5.06967e-11 9.11437e-12 -6.60555e-11
499 3 0.00444131 0.0123869 0.00326339 0.00125 2.04531e-05 1.99489e-10 3.04554e-11 -3.10303e-11
500 3 0.000740161 0.00538415 0.00137568 0.00125 2.04531e-05 -1.94186e-11 5.43508e-11 -6.34552e-11
