ITEM: TIMESTEP
25000
ITEM: NUMBER OF ATOMS
500
ITEM: BOX BOUNDS pp pp ff
0.0000000000000000e+00 1.5370634520482899e-02
0.0000000000000000e+00 1.5370634520482899e-02
0.0000000000000000e+00 1.5370634520482899e-02
ITEM: ATOMS id type x y z vx vy vz omegax omegay omegaz radius mass fx fy fz
1 1 1.513272309340e-02 1.155600022604e-03 1.741793222430e-03 1.607863144457e-05 -1.664871868980e-07 1.490512892666e-04 -3.090042078746e-02 8.821834740768e-02 2.163441412306e-02 7.500000000000e-04 4.417864669111e-06 -3.060444455591e-07 -5.212891621596e-09 -8.748902409921e-07
2 1 1.432259571676e-02 1.303651209910e-02 1.021120891238e-02 -1.216917121763e-03 1.549737552623e-04 6.322007147925e-04 1.576072644300e-01 7.724942227763e-02 1.405274222233e-01 7.500000000000e-04 4.417864669111e-06 5.173633660915e-06 -1.164707516221e-07 -2.534953277144e-06
3 1 9.447242561706e-03 4.797182652622e-03 5.144629753613e-03 -2.763121240709e-04 7.863101541218e-05 -3.388470852111e-05 6.008082198700e-02 1.877730185569e-01 -6.048576786069e-02 7.500000000000e-04 4.417864669111e-06 7.918621809051e-07 2.872184320416e-07 3.924267497588e-07
4 1 1.091107537982e-02 4.259544222961e-03 7.075890329984e-04 7.177036227168e-06 -2.392329705028e-05 9.810232026541e-06 3.381125387213e-02 8.615155943310e-03 1.310458971186e-01 7.500000000000e-04 4.417864669111e-06 -5.959036486693e-08 1.294233575890e-07 -7.000709367221e-08
5 1 6.708544477034e-03 8.668552686728e-04 5.177518965201e-03 5.876023792040e-06 -1.787809523008e-05 3.675626093657e-04 -3.096828568423e-02 -6.691738848235e-02 8.527141622814e-02 7.500000000000e-04 4.417864669111e-06 3.173900894189e-07 5.712141300890e-07 -3.029549206851e-08
6 1 1.480864910423e-02 1.439885005081e-02 9.831045869028e-03 -1.504657796460e-03 2.781153997049e-04 5.947538976461e-04 -3.838634745807e-01 -1.367671638354e+00 1.194880890452e+00 7.500000000000e-04 4.417864669111e-06 5.068086265515e-06 5.684675673935e-07 -2.844558932262e-06
7 1 1.015730096999e-03 8.311030362562e-04 9.410417545954e-03 -1.167122314842e-03 -7.514996089128e-05 2.871914757907e-04 3.290415417000e-01 1.032542758297e-01 7.375927112903e-01 7.500000000000e-04 4.417864669111e-06 4.274334727540e-06 1.426730247722e-06 -1.985456048297e-06
8 1 4.516430637359e-03 6.445709813834e-04 1.465778206397e-02 4.151139468010e-04 2.835961078004e-04 -2.837653337488e-05 -1.441764550202e-01 -1.049829136095e+00 8.097239340677e-01 7.500000000000e-04 4.417864669111e-06 -1.539999806793e-06 2.965518945734e-07 -1.657155241377e-07
9 1 1.471996537263e-02 1.390337308756e-02 1.271963407053e-02 9.425229298569e-04 1.173153829276e-03 -3.439466211935e-04 1.466498785450e+00 -1.505553810433e+00 -2.271438273784e+00 7.500000000000e-04 4.417864669111e-06 -2.451664561626e-06 -1.858148137139e-06 -1.393328496203e-06
10 1 3.553192643662e-03 1.444079030755e-02 6.491012878571e-03 -5.961216087523e-06 -1.774566101217e-04 8.138696241289e-04 -3.966312993851e-01 -2.299826033187e-01 1.215709400882e-03 7.500000000000e-04 4.417864669111e-06 -3.537649630108e-07 7.848779544387e-07 -2.521787659233e-06
11 1 8.995065074238e-03 1.316500621599e-02 9.893755540006e-03 9.942759249472e-03 -5.563699613395e-03 2.886060456827e-02 1.843624018446e+01 -3.824672947231e+01 -2.274582281615e+01 7.500000000000e-04 4.417864669111e-06 -4.124125375656e-05 1.832499561341e-05 -1.316328087444e-04
12 1 4.333496812169e-03 2.389915975782e-03 1.468139415234e-02 7.583479761065e-05 2.028188888326e-04 2.334421329230e-05 2.389614015213e-01 -2.008511018948e-01 3.605133902116e-01 7.500000000000e-04 4.417864669111e-06 -5.456994887214e-07 -5.898802235278e-07 2.429474068648e-07
13 1 1.067643746048e-02 1.412095079755e-02 5.900782410331e-03 5.667374410543e-05 3.004894601560e-04 -3.266531987323e-04 4.721577529324e-01 -1.157854198489e+00 -9.169571654375e-01 7.500000000000e-04 4.417864669111e-06 2.394630455010e-06 8.034384598996e-08 2.511156594819e-06
14 1 8.815704226887e-03 1.104988086541e-02 5.112551147951e-03 2.743370721829e-04 -1.272004520078e-04 -3.994769156365e-04 -2.388944309658e-01 1.440813356707e-01 -2.272111697470e-01 7.500000000000e-04 4.417864669111e-06 -1.219183030475e-07 1.038300524973e-06 1.400213818667e-06
15 1 4.407468960331e-03 1.714738173455e-03 6.765490977025e-03 -9.844742505667e-05 -2.184904443909e-04 4.076854612433e-04 5.964512864776e-02 1.792611822064e-02 1.529346244421e-01 7.500000000000e-04 4.417864669111e-06 7.093661175926e-07 1.771441186137e-06 -1.713156632442e-06
16 1 7.327376015086e-03 4.819620068369e-03 5.740614124207e-03 -2.051480371303e-04 -2.261440238830e-05 2.752733951623e-04 2.379716130147e-01 -3.308554106626e-01 -1.825379189493e-01 7.500000000000e-04 4.417864669111e-06 1.005782227634e-06 1.251426666712e-06 -1.175634278966e-06
17 1 1.295298631629e-02 8.636312579748e-03 1.128260567585e-02 3.631766700703e-04 1.578731990071e-04 2.117386894807e-04 2.441553812906e-01 2.110748074831e-01 -1.242537328201e+00 7.500000000000e-04 4.417864669111e-06 -7.415547846968e-07 3.419439722285e-06 4.494155180840e-07
18 1 1.456111507091e-02 5.178445473567e-03 5.536380861741e-03 -7.607489742993e-05 -3.992916732700e-05 1.225532466277e-04 2.023544983290e-01 9.121220761004e-02 -3.220901574911e-01 7.500000000000e-04 4.417864669111e-06 6.425893243343e-07 4.085960511948e-07 2.039370005826e-07
19 1 4.893678056241e-03 2.823675799875e-03 9.271164709331e-03 -6.369947116060e-04 -4.074849972175e-05 -8.498671380477e-05 2.560913646407e-01 4.483588838635e-01 -8.036103283868e-01 7.500000000000e-04 4.417864669111e-06 2.480341516475e-06 2.125710978866e-06 -1.224384211506e-07
20 1 5.204469331993e-03 1.286530819149e-02 7.950527081737e-03 -2.365859073426e-04 -5.153986788883e-05 5.273882884717e-04 1.308415904628e+00 1.902659690389e+00 2.559797670359e+00 7.500000000000e-04 4.417864669111e-06 3.379514366022e-06 3.128024188655e-06 -1.648349469189e-06
21 1 1.314830477002e-02 1.284715726114e-02 3.558256504688e-03 1.623031212120e-05 7.223629756321e-05 1.507724686921e-04 3.403253924132e-01 -2.471637090306e-01 -1.064045899849e-02 7.500000000000e-04 4.417864669111e-06 -7.818933961717e-08 -1.949584674609e-07 -8.595589462003e-07
22 1 1.013365542722e-02 3.523381749712e-03 7.551041454386e-03 -6.008433716196e-05 -4.771142290339e-04 1.904145354882e-04 4.126032721907e-01 1.313518532243e+00 -2.606805911591e-01 7.500000000000e-04 4.417864669111e-06 -4.277868348891e-07 3.029121709150e-06 2.179131549483e-07
23 1 3.442238179575e-03 1.496401267766e-02 7.801978893859e-03 -8.966285068093e-05 -3.072580750189e-05 7.438523201409e-04 1.728853618769e-01 2.312235879650e-01 2.024853034476e-01 7.500000000000e-04 4.417864669111e-06 6.625860804767e-07 9.931483323289e-07 -2.425542231146e-06
24 1 6.505649732435e-03 1.263307556011e-02 8.599760749670e-03 -3.019630382066e-04 8.065849713868e-04 -2.789662504549e-05 1.290988986129e+00 9.868317907948e-02 -1.731891893380e+00 7.500000000000e-04 4.417864669111e-06 2.143398157457e-06 1.600687954314e-06 4.591832520485e-06
25 1 1.514954192833e-02 1.176410090794e-02 1.462074275428e-02 1.491472772303e-04 1.773991316602e-04 -2.565016682868e-05 2.360144878676e-01 -2.039842113050e-01 -7.796625627806e+01 7.500000000000e-04 4.417864669111e-06 -8.992971558737e-08 -1.281047593956e-07 2.931854164125e-07
26 1 3.316053833473e-03 1.017199049012e-02 8.537816884842e-03 -2.516589131044e-04 1.442448456534e-04 -7.366045885975e-05 2.170259259945e-01 3.393398052045e-01 1.423962118463e-01 7.500000000000e-04 4.417864669111e-06 -1.605172633373e-07 7.723229207813e-07 5.378775959375e-07
27 1 6.142473566327e-03 9.433044311914e-03 1.208017315480e-02 -4.447176160569e-04 4.283521385505e-04 -2.344209965791e-04 3.202832439668e-01 -3.078525696720e-01 -1.538566802943e-01 7.500000000000e-04 4.417864669111e-06 8.346998066799e-07 -1.083454526733e-06 1.895023127455e-06
28 1 8.096817394999e-03 1.181160535923e-02 6.025446988148e-04 -7.039353144504e-06 8.432378464978e-05 1.289487354126e-05 -1.155058818105e-01 -8.591801966249e-04 -4.157974907250e-02 7.500000000000e-04 4.417864669111e-06 1.745524351828e-07 -1.310695762821e-07 -3.928301216559e-09
29 1 9.014759172174e-03 5.845698473595e-03 1.388371615896e-02 -1.099028347376e-03 7.294865509372e-04 1.369173442436e-04 3.385864121428e-02 2.011079132166e-01 4.095029448184e-01 7.500000000000e-04 4.417864669111e-06 2.833424047813e-06 -6.552187591083e-07 -6.309433804744e-07
30 1 3.605195708103e-03 8.029239063789e-03 9.572213671762e-03 2.139666785344e-04 1.154465823969e-03 1.224100305444e-04 -4.384405950269e+00 1.195242124619e+00 -2.115819903823e+00 7.500000000000e-04 4.417864669111e-06 2.811022922713e-06 2.704111294815e-06 -5.673225506150e-07
31 1 1.541885023725e-03 1.248182910167e-02 2.578817891348e-03 -1.050395941185e-05 6.757315002910e-05 -2.119889839457e-05 -3.527760654807e+01 2.391134939993e+02 -6.616719456080e+01 7.500000000000e-04 4.417864669111e-06 -1.181377949383e-07 -5.477202761761e-07 2.426206009072e-07
32 1 8.035811080800e-03 2.608618096306e-03 1.927990476707e-03 -7.300002580190e-05 -4.805228922056e-05 1.354546319861e-04 8.554502684298e-02 1.934857813304e-01 -1.121127689128e-01 7.500000000000e-04 4.417864669111e-06 8.292800447455e-07 2.984819389129e-07 -1.641775895734e-07
33 1 1.172841354719e-02 1.203810776127e-02 6.406314984020e-03 2.172541347021e-04 1.993632416307e-04 -7.482899992038e-04 2.095400995661e-01 4.468936449911e-01 6.739786935761e-01 7.500000000000e-04 4.417864669111e-06 -7.097650982899e-07 -3.411255553948e-08 3.632172671078e-06
34 1 5.892837913143e-03 1.043132598174e-02 9.259643006535e-03 -1.375683616559e-04 3.751634016651e-03 3.737804520502e-03 -1.291377605742e+00 -4.551338179503e+00 2.867704177164e+00 7.500000000000e-04 4.417864669111e-06 5.125413975963e-06 -8.996699067775e-06 -1.269783547517e-05
35 1 1.499770580085e-03 1.249926575583e-02 1.265088768891e-02 -2.786096779319e-04 1.092768088498e-03 -1.687684587375e-04 1.121735265902e+02 -2.865308420137e+02 5.952362911796e+01 7.500000000000e-04 4.417864669111e-06 3.940825570785e-07 1.722514555131e-06 -7.193670571499e-07
36 1 4.552473325629e-03 6.489324626394e-03 1.472721223898e-02 -1.325693135532e-04 2.378584196900e-04 -8.783578363428e-05 3.123864585265e-01 2.156043335741e-01 7.825760609186e-01 7.500000000000e-04 4.417864669111e-06 4.075669903970e-08 1.965321460042e-08 4.216325181202e-07
37 1 5.191596496570e-03 3.633082849194e-03 1.468666254964e-02 -5.497792573987e-06 -3.188026892856e-05 9.975001317026e-06 -6.002773355725e-02 -7.142491245496e-02 1.982925402279e-01 7.500000000000e-04 4.417864669111e-06 7.110235167681e-07 2.982158766294e-07 -1.837454631769e-07
38 1 9.357499138498e-03 7.190789048572e-03 2.523795708429e-03 -1.098400017296e-04 -1.643895787732e-05 4.014376778749e-06 4.555303984642e-02 -2.131748596017e-02 1.333125126878e-01 7.500000000000e-04 4.417864669111e-06 2.147213198525e-07 1.935490104778e-07 -1.788053678439e-08
39 1 9.043177507133e-03 1.371252113274e-02 3.102118186130e-03 -1.210025941728e-04 5.000355920342e-05 1.870936380471e-05 1.792012330638e-01 8.322044671550e-02 -1.844903087171e-01 7.500000000000e-04 4.417864669111e-06 4.933341561738e-07 -4.300959402733e-08 2.534764595610e-07
40 1 1.352031645867e-02 2.887349963415e-03 2.077573929009e-03 -3.757735358508e-05 -1.934881092280e-06 4.183742616826e-05 2.167526881076e-02 -4.316604483212e-02 -4.469453864319e-03 7.500000000000e-04 4.417864669111e-06 7.830748202450e-08 7.588259940327e-08 4.791887139791e-09
41 1 4.407146956744e-04 1.109501354731e-02 1.345286413408e-02 -7.372604587023e-04 -2.473294552801e-04 -3.028103804793e-04 4.054045514325e+01 -4.731901990817e+00 -1.228361857602e+01 7.500000000000e-04 4.417864669111e-06 -5.662152955127e-07 7.150851019938e-07 -3.859570418854e-07
42 1 9.875433216306e-03 1.355169451104e-02 1.101168847369e-02 9.694811060723e-03 2.327609414661e-02 2.316213018111e-02 -7.670626236226e+01 2.955401102767e+01 1.413414163091e+01 7.500000000000e-04 4.417864669111e-06 -3.947557597267e-05 -1.262240246979e-04 -1.069454254851e-04
43 1 1.412390742565e-02 8.079626983731e-03 3.779911807059e-03 -1.535928068635e-04 3.820725092936e-05 2.700750298417e-05 4.894306598829e-04 -1.359787777138e-02 -7.788979535680e-02 7.500000000000e-04 4.417864669111e-06 6.309319504769e-07 -2.849323509329e-08 1.349900445565e-07
44 1 2.002794217815e-03 1.324082499414e-03 1.268158395927e-02 -3.574726930424e-36 7.922911539512e-36 3.010352548198e-36 6.573892665609e+02 1.873761882861e+01 2.897665107466e+02 7.500000000000e-04 4.417864669111e-06 3.582836814004e-37 -7.940886028600e-37 -3.017182051312e-37
45 1 1.022806226808e-02 1.286715962005e-02 3.360208761924e-03 -1.714754256854e-04 -8.374087200778e-05 -8.084982059669e-05 -2.894722649378e-02 -1.874689360673e-01 -4.062267477802e-02 7.500000000000e-04 4.417864669111e-06 6.119019141166e-07 -6.514888037488e-08 2.882970596768e-07
46 1 2.952362289340e-03 9.608864629335e-03 1.472397592120e-02 -1.000423853003e-04 9.760344175400e-05 1.071993357730e-04 2.269782084429e-01 1.583856057520e-02 1.025715317671e+00 7.500000000000e-04 4.417864669111e-06 8.388296258046e-07 -8.834009716252e-07 5.576389117910e-08
47 1 5.185973844738e-03 8.731351569473e-03 8.231272249626e-04 -6.532581981493e-47 -6.603765802238e-47 -1.672557228034e-47 -4.965257939089e+02 5.182789907692e+02 -4.859427586597e+03 7.500000000000e-04 4.417864669111e-06 6.547402268575e-48 6.618747582075e-48 1.676351712107e-48
48 1 1.331638884140e-03 6.973993220345e-03 1.136588414546e-02 -6.923783635592e-05 5.671583731566e-05 7.776222157445e-06 1.344323219164e-02 1.396556923173e-01 4.441661489687e-01 7.500000000000e-04 4.417864669111e-06 1.090689237795e-06 1.669022162887e-07 -5.022029485735e-07
49 1 4.461913777318e-03 6.102007282839e-04 7.651297201369e-03 2.347635473710e-04 -4.782031705401e-04 -2.054573389419e-04 2.588265316922e-01 2.072163122530e+00 -1.321208156040e+00 7.500000000000e-04 4.417864669111e-06 -2.972214331708e-07 2.403608492036e-06 3.209003016007e-07
50 1 8.315230586081e-03 2.188680948057e-04 1.281904423912e-02 -9.586580137022e-04 2.174017962602e-03 1.387847392221e-03 1.312618030569e+00 1.542835454912e+00 -1.230130893379e+00 7.500000000000e-04 4.417864669111e-06 3.600396832785e-06 -8.403857609093e-06 -1.282837789341e-06
51 1 4.646261870471e-03 3.581624887598e-03 6.378509193996e-04 -2.231405435195e-05 -8.845160690110e-05 4.703596759987e-05 1.213347098874e-01 -1.788771923825e-02 -5.036912169641e-02 7.500000000000e-04 4.417864669111e-06 -1.961340172372e-08 5.526033058621e-07 -1.423684429531e-07
52 1 7.516117794800e-03 1.331190177324e-02 7.834489894577e-03 4.382187972073e-04 -3.868628910060e-04 -6.605903224931e-04 -1.576800364473e-02 1.869665544412e+00 -1.148008323620e+00 7.500000000000e-04 4.417864669111e-06 -7.140232018979e-06 3.786161413611e-06 1.128713713924e-05
53 1 8.370584883953e-03 5.612663050761e-03 4.593535335825e-03 -1.825787928058e-04 6.682488680445e-05 4.538694547638e-05 -2.533615381492e-02 -8.441610420669e-02 5.758635537771e-02 7.500000000000e-04 4.417864669111e-06 8.333116247809e-07 6.315428559642e-07 -4.785397564904e-07
54 1 1.319965900447e-02 9.245385927277e-03 6.494113734925e-04 -2.049757819685e-05 2.660883007001e-05 1.650403118963e-05 -2.964477635601e-02 -3.376764272847e-02 1.197427130915e-01 7.500000000000e-04 4.417864669111e-06 1.554979668805e-07 -2.238514139060e-07 -3.215681169742e-08
55 1 7.789853494567e-04 8.670361439380e-03 8.766858019543e-03 -2.256708993164e-04 -8.435530201336e-05 -3.574276079614e-05 -1.118592274666e-01 2.463219541830e-02 -5.894216087041e-02 7.500000000000e-04 4.417864669111e-06 8.534731599662e-07 -3.295985002431e-07 1.867254807591e-07
56 1 1.113356454475e-02 6.542650925874e-03 6.298090011989e-04 -2.772208376778e-05 -2.737757914825e-05 1.081824230485e-06 1.900897084441e-02 -2.033625144451e-02 5.331842751280e-03 7.500000000000e-04 4.417864669111e-06 9.111296830421e-08 1.373015672762e-07 2.504754963461e-08
57 1 1.173487848340e-02 1.292527032156e-02 3.227944574818e-03 3.204964438607e-05 2.624363427221e-05 2.996417241172e-05 9.723934588985e-02 7.487658496451e-02 1.940200033379e-01 7.500000000000e-04 4.417864669111e-06 7.248534484605e-09 7.735760876664e-08 1.231481988443e-07
58 1 9.996880038486e-04 9.715787270223e-03 1.281816589395e-02 5.481812690688e-04 -1.716620683996e-04 -1.638311252518e-04 1.406684341120e-01 -5.502535751739e-01 -1.191455813981e+00 7.500000000000e-04 4.417864669111e-06 1.269200741492e-06 -6.973424915844e-07 -4.171796086728e-07
59 1 2.136230260393e-03 5.327811713037e-03 2.795280619439e-03 -8.739080973224e-05 -3.640689102950e-05 4.396806702955e-05 6.444885103455e-02 -7.626322832347e-02 2.736707090247e-02 7.500000000000e-04 4.417864669111e-06 2.654593174942e-07 5.873734639216e-07 -1.661355882667e-07
60 1 1.203546810641e-02 1.334694229150e-02 6.865746885468e-04 5.617938347125e-05 3.756618499978e-05 2.007564146305e-05 -5.956873079897e-02 8.088409661607e-02 1.331783482959e-01 7.500000000000e-04 4.417864669111e-06 1.124632985661e-07 2.174796986602e-07 8.358783221402e-08
61 1 1.100297438977e-02 9.612601185043e-03 7.293502554530e-03 3.796095732527e-05 2.779118784833e-04 -2.895098572685e-04 -2.652572981332e-01 -1.528232521574e-01 -1.100945446467e-01 7.500000000000e-04 4.417864669111e-06 5.996381153568e-07 -4.323841364574e-07 1.197853529513e-06
62 1 6.017966781420e-03 1.298532560409e-02 1.308735020476e-02 -8.254475612531e-04 9.832206408864e-05 8.716652024441e-04 -3.472808340213e-01 8.437064198009e-01 -9.715196692437e-01 7.500000000000e-04 4.417864669111e-06 2.843419495273e-06 1.198579881304e-06 -2.406752733200e-06
63 1 9.924050600482e-03 1.330196792418e-02 5.351474371820e-04 4.981921994568e-05 3.407521752421e-05 7.117293602912e-05 -4.538632525125e-02 1.061149004436e-01 2.045626793476e-01 7.500000000000e-04 4.417864669111e-06 2.245036865892e-08 9.740345473708e-09 -2.341915201770e-08
64 1 2.939464014790e-03 1.725959905496e-03 8.920428929400e-03 -3.193718489251e-04 -4.851385475863e-06 5.185365247907e-04 -2.366668563782e-01 2.015800203387e-01 1.116459434990e+00 7.500000000000e-04 4.417864669111e-06 1.415406426631e-06 1.050094387814e-06 -1.945140218205e-06
65 1 1.411960731448e-02 4.706806819788e-03 4.331731719431e-03 -1.396611920107e-04 1.135845663210e-04 7.538667397096e-05 -6.847797952179e-02 -4.633938377155e-02 1.915613792152e-03 7.500000000000e-04 4.417864669111e-06 7.492836421537e-07 -6.796674708064e-08 -2.186420983773e-07
66 1 1.212714238064e-03 1.132344270535e-02 1.384325794766e-03 -3.644692831379e-05 4.183585909286e-05 5.988239394532e-05 -1.127323932390e-01 -7.250604035529e-02 -2.547543493034e-02 7.500000000000e-04 4.417864669111e-06 -1.706890155222e-08 -2.205638361369e-07 2.253131450256e-08
67 1 6.884216624767e-03 6.278608521716e-03 6.519202727180e-03 4.795878528648e-04 -2.309732708097e-04 9.630684220597e-05 3.058118202868e-01 6.453368981818e-01 5.365776301220e-01 7.500000000000e-04 4.417864669111e-06 -2.548465334465e-06 1.087387061540e-06 -7.258074240989e-07
68 1 1.451305409246e-02 3.035968706628e-03 3.191746860927e-03 -2.175957043459e-06 8.650125095387e-05 4.006417150984e-05 -9.650933496819e-02 -6.068147945418e-03 1.207810611774e-01 7.500000000000e-04 4.417864669111e-06 7.253349370029e-08 -1.443099209896e-07 -2.783553205344e-07
69 1 7.067858927202e-03 1.339048467500e-02 1.124098426754e-02 2.628363211426e-03 1.436723968680e-03 2.228350916430e-03 -6.027972529600e-01 -7.364983881121e+00 -4.139778457062e+00 7.500000000000e-04 4.417864669111e-06 -5.679966982830e-06 -1.831270862497e-06 -8.810499586505e-06
70 1 1.002506710614e-02 9.099111321979e-04 8.071453604566e-03 -1.586726777646e-03 -1.176435084610e-04 2.091395086883e-04 1.383114758774e+00 -7.696063684156e-01 7.329501322910e-02 7.500000000000e-04 4.417864669111e-06 5.913904704320e-06 8.329100040412e-07 3.217863668699e-07
71 1 2.943259105812e-03 5.407928884047e-03 4.247888954239e-03 -8.847801462682e-05 3.575831145621e-06 1.421796750995e-04 -1.212697679695e-02 7.656616063023e-02 4.515438318902e-02 7.500000000000e-04 4.417864669111e-06 2.368241569513e-07 2.122057694846e-07 -2.063156497953e-07
72 1 2.023244888932e-03 1.390310995309e-02 1.111704180511e-02 -5.909366752105e-04 1.356746943159e-04 7.224032271687e-04 1.019492470371e+00 -7.289972499182e-01 2.385254351217e-01 7.500000000000e-04 4.417864669111e-06 2.050797679136e-06 2.742712771715e-07 -1.520454911083e-06
73 1 3.191124712296e-03 7.738628904997e-04 4.041925364791e-03 8.476727072873e-05 -7.906473387282e-05 3.437836642844e-04 -1.063764935275e-01 -1.064323004745e-01 2.509103099307e-01 7.500000000000e-04 4.417864669111e-06 -3.128184960133e-08 9.202391216284e-07 -1.325244099955e-06
74 1 4.111578362311e-03 1.113997413848e-02 1.318923523051e-03 -2.873113345190e-05 4.380950166479e-05 5.538246191691e-05 2.674691349579e-02 -1.367799746532e-02 4.255407102255e-03 7.500000000000e-04 4.417864669111e-06 4.770938339923e-07 -1.005208424868e-08 -1.196296692751e-07
75 1 3.659565363270e-03 8.484390244712e-03 1.096194817981e-02 -4.165086008939e-04 1.735469348317e-03 1.192880081505e-04 4.039528999388e+00 1.182741246302e+00 -1.394200513560e+00 7.500000000000e-04 4.417864669111e-06 -6.856756343818e-08 3.652709130807e-06 -2.570018958123e-07
76 1 1.392972342228e-02 4.414460975739e-03 8.101514923985e-04 -3.045723779555e-05 -1.089569210176e-05 2.580097440601e-05 8.744901370439e-03 2.306681984621e-03 -2.239858400591e-02 7.500000000000e-04 4.417864669111e-06 7.126122796632e-08 6.687826573751e-08 2.953719067509e-08
77 1 1.321726950673e-02 1.164410109970e-02 6.335214295382e-03 1.430176420198e-04 2.864400883251e-04 -2.379369678814e-04 -8.524190045948e-01 1.498770681282e-01 -2.979241847219e-01 7.500000000000e-04 4.417864669111e-06 -9.805925910524e-07 -9.617565403951e-07 1.696899910378e-06
78 1 1.526939804378e-02 1.146281703858e-02 7.302174140948e-04 4.834638116842e-06 1.109130680266e-05 1.314055260960e-05 -2.363735017436e-02 1.716758798822e-02 1.919361267486e-02 7.500000000000e-04 4.417864669111e-06 -5.827665238242e-08 -1.775396269230e-07 5.288682657994e-08
79 1 2.149386862164e-05 1.242178094074e-02 1.289266462748e-02 -1.887293781400e-04 3.656900404029e-05 -4.702458270408e-05 -4.022632590551e+01 1.613879656696e+02 -4.713586670316e+01 7.500000000000e-04 4.417864669111e-06 -1.807267379989e-07 5.405546461675e-09 -5.022319350863e-08
80 1 8.128925549124e-03 6.727558684812e-03 1.913284557506e-03 -7.375999473317e-05 -4.186886650169e-05 3.252958004726e-05 -4.920167647560e-02 2.296820703867e-02 -8.250048127141e-02 7.500000000000e-04 4.417864669111e-06 1.363532898104e-07 3.527616698708e-07 -1.216921414626e-07
81 1 1.392472813106e-02 1.326318416250e-02 1.162290771375e-02 -8.630681919197e-04 -9.211289106537e-05 1.033657762014e-03 -1.168049055265e-01 7.062728238632e-01 1.309844788965e+00 7.500000000000e-04 4.417864669111e-06 2.058750558919e-06 3.685307874696e-07 -5.869893305802e-06
82 1 1.434412057634e-02 8.749204016122e-03 1.139261809583e-02 5.762515379358e-04 -3.547873576541e-04 4.643146397380e-04 4.145558559703e-01 -4.693504308498e-01 6.333238013442e-01 7.500000000000e-04 4.417864669111e-06 1.375391176985e-07 3.642865226436e-07 1.749054864196e-07
83 1 9.702490398092e-03 1.480405847239e-02 7.255639483409e-03 4.745215493819e-04 -5.537174795920e-05 -9.612573194133e-04 4.039123700607e-01 -5.161913781270e-01 8.450320647864e-03 7.500000000000e-04 4.417864669111e-06 -1.961125892101e-06 6.067013044342e-07 4.139481483281e-06
84 1 1.419226203095e-02 1.619730561596e-03 2.814136531599e-03 -1.124607731519e-04 5.139442674930e-05 4.284115495253e-05 1.198316540796e+02 -9.099718550799e+01 -1.484381067394e+02 7.500000000000e-04 4.417864669111e-06 2.513377636177e-07 -1.154500011683e-07 -9.587808441759e-08
85 1 1.248359939558e-02 8.777186327840e-03 1.751055058742e-03 -6.365673087460e-05 -3.609524004974e-05 -2.428660386395e-05 3.147332946336e-02 -9.079887325313e-02 2.660620889623e-02 7.500000000000e-04 4.417864669111e-06 3.964386219705e-07 1.039903032563e-07 1.667721721642e-07
86 1 8.553676639132e-03 5.502436821670e-03 6.133030779961e-03 -2.247798100081e-04 2.044395656525e-04 3.814666943757e-04 -6.875690698881e-01 -1.038627080898e-01 2.921018503548e-01 7.500000000000e-04 4.417864669111e-06 7.881678570181e-07 5.736064500208e-07 -2.362840514252e-06
87 1 5.741170862653e-03 6.700982415699e-03 7.196249086641e-04 -3.703125482700e-05 6.614855319696e-06 2.299473914581e-05 4.496028344472e-03 -1.795328284138e-02 -8.419783494034e-02 7.500000000000e-04 4.417864669111e-06 3.211174723035e-07 2.645149452796e-07 -6.223215914493e-08
88 1 9.467592533563e-03 6.894950055443e-03 1.469348350306e-02 -5.495818034032e-04 3.446931808004e-04 1.359789488769e-04 4.848409864104e-01 7.333308218308e-01 -6.559493968340e-01 7.500000000000e-04 4.417864669111e-06 1.379924917466e-06 -2.099495804131e-07 -9.068530198312e-07
89 1 1.087246943965e-02 1.458319558166e-02 1.465890439891e-02 -2.020787406394e-04 -1.791258098152e-04 -1.390442353471e-04 -5.071066813046e-01 -4.587979672799e-01 9.477420104470e-01 7.500000000000e-04 4.417864669111e-06 2.122508047316e-06 3.503823618075e-06 2.018377111146e-06
90 1 1.197344812093e-02 9.599780030942e-04 1.939301387951e-03 1.278124187437e-06 5.279817744600e-07 -2.276195858461e-05 -7.866431120242e-02 1.894343213298e-02 8.280271252116e-02 7.500000000000e-04 4.417864669111e-06 -2.829152469811e-07 1.479657014348e-07 7.809686752197e-08
91 1 8.400750901209e-04 5.976254854423e-04 6.288958972385e-03 -4.425151469011e-05 -4.566976924286e-05 1.643066627189e-04 2.533721418087e-02 -1.290338790509e-01 -7.300141560794e-02 7.500000000000e-04 4.417864669111e-06 4.356411754308e-07 9.758699466385e-07 -1.385317428884e-06
92 1 1.275135484051e-02 1.497880328225e-02 8.647512488944e-03 -8.878943940877e-04 3.977468759597e-04 1.753510820944e-03 -3.304849011403e+00 -1.733127958628e-01 -1.456668255267e+00 7.500000000000e-04 4.417864669111e-06 3.024676767154e-06 -1.442848959891e-06 -4.084716971054e-06
93 1 3.273086203676e-03 3.923357215607e-04 8.935879908331e-03 1.841106961801e-04 -1.402566066847e-04 9.717416778023e-04 1.921825143340e-02 -4.019154416746e-01 -8.918977491068e-01 7.500000000000e-04 4.417864669111e-06 -3.896780381394e-07 1.598374997367e-06 -3.038118700793e-06
94 1 1.105055262407e-02 4.194136807190e-03 1.146170538911e-02 -5.189889806167e-04 1.165973528553e-04 1.898549548241e-05 -1.573733184955e-02 -5.458676645894e-01 -1.134532181552e+00 7.500000000000e-04 4.417864669111e-06 1.391404963856e-06 -5.512543767935e-07 3.226517474912e-07
95 1 9.184359372341e-04 8.129376911205e-03 1.474937821401e-02 1.624851735368e-04 -1.029255471805e-04 9.377774315558e-05 -6.696553494402e-02 -1.698600955619e-01 8.196074058079e-01 7.500000000000e-04 4.417864669111e-06 7.096771664874e-07 -6.132101201769e-07 -2.017886913114e-07
96 1 7.703748340666e-04 1.330215573825e-02 1.391167528939e-02 -2.966553248663e-04 7.610367358859e-04 3.507240413600e-05 -1.451819739455e+00 -7.286402455203e-01 6.321250935090e-01 7.500000000000e-04 4.417864669111e-06 -9.473817234324e-07 2.730418587818e-06 -1.587979378263e-06
97 1 3.391923812180e-03 1.157261291674e-02 1.209458600475e-02 -9.769641107309e-04 9.791791457130e-04 -3.002809930055e-04 -1.231219587675e+00 -6.189865105070e-01 -1.890400081542e+00 7.500000000000e-04 4.417864669111e-06 1.078835197975e-06 2.568595182129e-06 1.404508355752e-06
98 1 9.548528382259e-03 1.674669445550e-03 6.362291049110e-04 -1.000586410705e-04 -2.878799064754e-05 6.236497112621e-05 -7.904647612510e-03 -1.001553721142e-01 -1.006542296327e-01 7.500000000000e-04 4.417864669111e-06 5.688682964160e-08 -7.305001598217e-08 2.331518289035e-08
99 1 7.472591486691e-03 1.934990014136e-03 7.620948664131e-03 -4.505183648067e-05 6.008053055959e-04 5.393713425811e-04 -6.109253664333e-01 7.560426985231e-03 1.247815446907e+00 7.500000000000e-04 4.417864669111e-06 -9.703987559233e-08 -1.831511341895e-06 -1.465638749323e-06
100 1 5.010223651984e-03 6.907791528547e-03 1.349909574083e-02 -4.603014353453e-05 9.609730747701e-05 -2.087675134112e-04 -5.598702830608e-01 -3.164241803124e-01 -7.670323265093e-01 7.500000000000e-04 4.417864669111e-06 -7.829544011685e-07 1.909712235347e-06 1.204246492091e-06
101 2 9.687821194138e-03 1.106657480141e-02 9.394746205015e-04 -4.954358071086e-05 -2.218137663624e-06 -3.016223282602e-06 6.105162216159e-02 -3.145476952227e-02 6.808105343501e-03 1.000000000000e-03 1.047197551197e-05 5.700841162622e-07 -1.085654251934e-07 -4.381719753572e-08
102 2 1.252598582315e-02 3.494793241556e-03 9.234753966894e-04 -2.762659446268e-05 -7.667017411044e-06 3.220141554991e-06 -4.426567362002e-03 -2.701800306633e-02 1.902291468889e-02 1.000000000000e-03 1.047197551197e-05 4.663521212405e-08 -3.278890508703e-08 1.193563172860e-07
103 2 1.106692692728e-02 2.195371648774e-03 1.126438946867e-02 -5.379833857313e-04 -1.859915994630e-04 -1.210177823277e-04 -7.432343081922e-01 -5.265388439190e-01 6.127025297549e-02 1.000000000000e-03 1.047197551197e-05 3.449707363777e-06 3.730316813852e-06 1.333817986524e-06
104 2 3.558911799083e-04 5.065030564816e-03 9.649911117245e-04 -2.312405887544e-05 -9.870364156983e-06 2.823266835536e-06 1.509919929105e-02 -1.626978825200e-02 -2.503396908025e-03 1.000000000000e-03 1.047197551197e-05 3.900950605843e-07 1.967769334251e-07 1.612848607028e-07
105 2 8.157776108080e-03 1.557281086725e-03 4.681358215115e-03 -1.007110834200e-04 9.761092549683e-07 3.108994368729e-04 1.187066963491e-01 8.781742977071e-02 -5.601971202843e-02 1.000000000000e-03 1.047197551197e-05 2.073653201142e-06 7.841284584989e-07 -4.279978862877e-07
106 2 3.797683545216e-03 2.211054178700e-03 1.035148749852e-02 -5.528110004169e-04 2.786071467335e-04 3.873906808482e-05 3.456917961757e-02 1.756813012559e-01 -1.178871502529e-01 1.000000000000e-03 1.047197551197e-05 5.565828800580e-06 -3.346094403209e-07 -5.695087562107e-07
107 2 5.620153194035e-03 1.411430829801e-02 1.064507291928e-02 1.532562737131e-03 1.331341557538e-03 -1.028188827813e-03 -4.394572863013e+00 3.793616494529e+00 2.340436249272e+00 1.000000000000e-03 1.047197551197e-05 -5.639635814118e-06 -5.248719019902e-06 5.561122487370e-06
108 2 4.715005067843e-03 1.043728817351e-03 9.836610013675e-04 -6.568352907771e-05 2.143893365774e-04 7.545265068909e-05 3.873352676061e-01 1.002416936397e-01 -9.999257659908e-02 1.000000000000e-03 1.047197551197e-05 1.723042579866e-06 -9.492839348166e-07 -1.221927482767e-06
109 2 1.446438951318e-02 1.009082943165e-02 1.401142658685e-03 -2.930066264810e-06 2.283666431303e-05 2.846581024567e-05 6.597167850489e-02 5.392169235421e-02 -7.811591123042e-02 1.000000000000e-03 1.047197551197e-05 3.640934040562e-07 -9.574683085533e-07 -3.636138664849e-09
110 2 6.505622322383e-03 1.241350203482e-02 8.840177841564e-04 -6.391099916460e-06 7.243100363915e-05 1.166599793160e-04 -8.171898316339e-02 7.258314435005e-03 -1.246890040705e-02 1.000000000000e-03 1.047197551197e-05 6.922666705891e-07 2.070949385316e-07 -4.959441065025e-07
111 2 7.857514633546e-03 1.033642369866e-02 1.031436358898e-03 -6.624443788642e-05 5.084423020076e-05 -1.149118342087e-06 1.209958388132e-01 1.034285778108e-01 -5.962407875223e-02 1.000000000000e-03 1.047197551197e-05 1.128468622159e-06 -3.343737622063e-08 -3.131067620172e-07
112 2 1.209097574538e-02 3.552583776213e-03 1.271068842484e-02 -1.828542752456e-04 1.090420693408e-04 1.144608364067e-04 5.327667991100e-02 2.329203996658e-01 4.716729331803e-01 1.000000000000e-03 1.047197551197e-05 3.887809370633e-06 -4.970682476297e-07 -4.720432069718e-08
113 2 1.375117349570e-02 1.121157291836e-02 3.492333618410e-03 -7.800310708724e-05 5.755829304750e-05 2.003484185907e-04 -5.771672474617e-02 -1.485212020572e-01 3.500190097456e-02 1.000000000000e-03 1.047197551197e-05 1.550210629649e-06 -2.890376798567e-08 -8.767835948895e-07
114 2 5.083743809629e-03 1.394016935257e-02 6.326830847155e-03 2.032162828232e-04 -1.538393882604e-04 9.769424469524e-04 -7.089598955850e-02 1.600641590433e-01 1.187809111100e-01 1.000000000000e-03 1.047197551197e-05 -2.789829657132e-06 2.895061381467e-06 -5.119915756542e-06
115 2 6.384705688118e-03 6.559566619351e-03 1.443103039215e-02 -2.072642888711e-04 -8.712457620150e-05 -3.629707200950e-05 -7.370702919802e-02 2.304067877750e-01 -1.583795907796e-01 1.000000000000e-03 1.047197551197e-05 3.797427621205e-07 3.029533738472e-06 1.661512250114e-08
116 2 3.266301970306e-03 2.520564151392e-03 8.718033539280e-04 1.219337474191e-05 -4.387856141474e-05 9.283971414363e-05 3.686283971715e-02 -8.628973877859e-03 1.536216929835e-02 1.000000000000e-03 1.047197551197e-05 9.482506905724e-08 7.545026791187e-07 -7.219969960962e-07
117 2 7.067643014547e-03 7.000491987905e-03 1.087931717461e-02 -1.303528042761e-04 8.111491695560e-04 -4.996541026793e-04 -9.462627616017e-01 -3.286513614964e-01 -9.194414427001e-02 1.000000000000e-03 1.047197551197e-05 1.616805457347e-06 -6.941626726956e-06 4.875455514022e-06
118 2 4.708256847892e-03 1.248628890707e-02 5.143729956572e-03 -5.878702285557e-05 3.046099075423e-05 6.774578504664e-04 2.878656856716e-01 1.285069734414e-01 -2.156644759615e-01 1.000000000000e-03 1.047197551197e-05 7.443953025081e-07 1.138536594272e-06 -3.160943738259e-06
119 2 5.385621219481e-03 1.455594441004e-02 9.303910232945e-04 1.186738393476e-05 1.982039241740e-04 -5.118806897393e-05 -2.252167428451e-01 9.779672711217e-03 1.719613780724e-01 1.000000000000e-03 1.047197551197e-05 -5.154678519863e-07 -1.073232045143e-06 9.753093294813e-07
120 2 8.875550715126e-04 3.190139412371e-03 3.977361584761e-03 -2.796859772774e-05 3.132268122555e-05 9.554161930936e-05 -6.442088642824e-02 4.105264018649e-02 1.307009916270e-01 1.000000000000e-03 1.047197551197e-05 8.452461003287e-07 -1.171829318971e-07 -2.794405894961e-06
121 2 4.563020521129e-03 5.321177395739e-03 3.627378605602e-03 -9.712131926762e-05 5.450989169555e-06 1.367965439211e-04 7.771898533177e-04 -6.352329467035e-02 2.906378695009e-02 1.000000000000e-03 1.047197551197e-05 6.461278316081e-07 1.901930654492e-06 -1.204895576184e-06
122 2 1.124488208174e-02 2.580911940590e-03 1.410922703423e-02 1.980782647802e-04 2.378791143938e-04 1.628643519289e-04 -6.431808040710e-02 1.298627010717e-01 -4.915183996611e-01 1.000000000000e-03 1.047197551197e-05 2.559843479424e-06 -1.348803871118e-06 -8.420252775380e-07
123 2 8.910867653709e-04 2.235634489450e-03 1.025226746434e-02 -1.082170529453e-03 -9.196569443996e-05 1.030836714049e-04 -3.616494065244e-01 2.478915236524e-01 -5.289270428039e-01 1.000000000000e-03 1.047197551197e-05 8.553490257889e-06 2.537916483330e-06 -2.035845095746e-06
124 2 1.453786165722e-02 1.341652340159e-02 1.438900082601e-02 -3.872157600909e-04 8.631789251213e-05 -3.466565795288e-04 6.131571725456e-02 1.744877322211e-01 3.814342634894e-01 1.000000000000e-03 1.047197551197e-05 9.316483098382e-07 1.244585172665e-05 4.941018922949e-06
125 2 1.384831445901e-02 6.606667445009e-03 4.740137537894e-03 -1.963328523069e-04 7.315864632075e-05 7.619739806436e-05 -6.215400513881e-02 6.100572320661e-02 -7.517601503369e-02 1.000000000000e-03 1.047197551197e-05 2.102503584791e-06 3.190798612219e-07 -1.746719965790e-07
126 2 6.238469409391e-03 1.007481970601e-02 1.358587402924e-02 -6.279345450549e-04 -9.582951295329e-05 4.430794644395e-05 2.566123734067e-01 -7.553139516013e-02 1.771422058974e-01 1.000000000000e-03 1.047197551197e-05 8.774635613469e-06 5.143969011114e-06 -5.633609238769e-09
127 2 5.453402923379e-04 1.371285659626e-02 8.856582018734e-03 -5.844052100915e-04 4.144310246667e-04 9.280865432949e-04 -2.406689660007e-02 3.021992672023e-01 -2.204200650767e-01 1.000000000000e-03 1.047197551197e-05 3.651200785859e-06 8.273094803215e-08 -8.446005887361e-06
128 2 1.547553221931e-04 7.329575361516e-03 8.700833929259e-04 -2.857817145176e-05 1.250337514827e-06 -2.030775452651e-06 -4.307080192839e-03 -1.937978500583e-02 -3.775760139665e-03 1.000000000000e-03 1.047197551197e-05 6.008828604341e-07 -6.038962404312e-08 2.795948380762e-07
129 2 1.484883088508e-02 1.531418214946e-03 1.438108595470e-02 1.687233366633e-04 1.660115458730e-04 -7.418565163973e-05 -1.950084739299e-01 1.100408834221e-01 -1.171894788452e-01 1.000000000000e-03 1.047197551197e-05 1.336655171436e-06 1.736518849503e-06 1.140675206315e-06
130 2 4.353712349930e-03 8.232512434854e-03 1.265410682025e-02 -1.983622824694e-04 3.824706606906e-04 2.074863450663e-05 6.194313714457e-01 4.425433770171e-01 5.641494885006e-02 1.000000000000e-03 1.047197551197e-05 7.257403639139e-07 3.590388888243e-06 -3.326523520851e-07
131 2 9.858033814350e-03 8.155137318672e-03 3.883201330250e-03 -2.267867652395e-04 6.309846468866e-05 -6.113446921268e-05 -1.556823228774e-01 -3.688071246839e-02 6.489600715939e-02 1.000000000000e-03 1.047197551197e-05 2.484468016836e-06 4.261126806694e-07 2.499646991552e-07
132 2 1.004438266197e-02 3.301710325371e-03 1.249678502166e-02 -5.508233981974e-04 2.872769626608e-04 1.015150423136e-05 2.088882188365e-01 7.975446448318e-01 3.416795026467e-01 1.000000000000e-03 1.047197551197e-05 5.365133375649e-06 -2.505278744086e-06 9.666380441354e-07
133 2 6.592719479722e-03 5.278213663966e-03 1.252291969547e-02 -1.889176339899e-04 5.409856797282e-04 -1.885970383901e-04 1.018418427419e+00 4.205820966400e-01 -4.106834415913e-01 1.000000000000e-03 1.047197551197e-05 1.565848644254e-07 -2.245365327166e-06 1.213697503831e-06
134 2 1.383150558065e-02 1.135440060579e-02 1.287971727885e-02 -3.668437624380e-04 1.082178775533e-04 3.123535433414e-04 1.815153509200e-01 -1.128926594461e+00 1.405838306237e-01 1.000000000000e-03 1.047197551197e-05 2.525488444407e-06 3.228006806855e-06 -3.022779922235e-06
135 2 9.646361542866e-03 6.449699899745e-03 5.201784548265e-03 -1.677649542395e-04 7.174680458191e-05 7.681330836025e-06 -5.254262635965e-02 3.518188108244e-02 -7.721376685629e-02 1.000000000000e-03 1.047197551197e-05 1.958935187152e-06 1.169853060282e-06 -4.852004754344e-07
136 2 8.275283038373e-03 1.476383031254e-02 8.145215597344e-03 2.019925698597e-03 -1.542842415790e-03 -1.489877697763e-04 2.316463615904e+00 1.973408667786e+00 3.533951363502e-01 1.000000000000e-03 1.047197551197e-05 -1.764880289664e-05 1.860242956712e-05 -7.305298723742e-07
137 2 9.837383176872e-03 7.115731412190e-03 1.294674577836e-02 -1.676793975479e-05 -1.173283513956e-04 -1.420510578266e-04 9.239634085484e+01 1.037466042420e+02 1.824612968855e+02 1.000000000000e-03 1.047197551197e-05 -1.670381056362e-06 1.531927191525e-06 -9.641937073807e-08
138 2 4.502309773738e-03 4.803477337866e-03 1.199044958847e-02 -1.298583136599e-04 -8.920553971245e-05 -9.520866512532e-05 -2.593759643772e-02 8.788283166597e-02 -2.569543500262e-01 1.000000000000e-03 1.047197551197e-05 1.805151408229e-06 2.966016715273e-06 7.312298789086e-07
139 2 8.462131682683e-03 4.903446669837e-03 1.261276048235e-02 -1.685629046805e-04 3.479214010509e-04 6.956252967148e-05 -3.949171811133e-01 -8.793267219606e-01 2.647287916976e-01 1.000000000000e-03 1.047197551197e-05 -5.322034594440e-07 1.003668101631e-06 -8.329847965181e-08
140 2 1.340699360481e-02 9.478398633140e-03 1.270006078338e-02 2.840469516502e-04 7.308562516665e-05 1.434803888372e-04 -3.769082330488e-01 -5.058500629653e-01 3.470741739084e-01 1.000000000000e-03 1.047197551197e-05 1.861014034769e-06 1.949155587044e-06 2.263325938730e-06
141 2 1.201812308596e-02 8.114382216777e-03 1.257638641876e-02 6.431593326102e-05 2.544536033362e-04 4.551894616467e-05 2.561738259149e-01 -2.318458347216e-01 1.688235438354e-01 1.000000000000e-03 1.047197551197e-05 -4.370578363063e-06 5.181955272182e-06 -1.334801342521e-06
142 2 7.726809365872e-03 8.085254524566e-03 9.531348003900e-04 -2.975027503544e-05 -1.304301867486e-05 3.726274874373e-05 2.488723976216e-02 -1.551970300316e-02 -1.808402869282e-02 1.000000000000e-03 1.047197551197e-05 5.413032585413e-07 5.118528477555e-07 -1.518534294381e-07
143 2 6.088153495636e-03 8.200494977158e-03 1.336657333447e-02 3.915595591968e-05 -2.302394295557e-04 -4.291731486894e-04 1.958936505096e-01 2.968351989913e-01 3.020475892216e-01 1.000000000000e-03 1.047197551197e-05 -1.064995893551e-06 5.034129496676e-06 7.693315113315e-06
144 2 1.225693599816e-03 1.158733854556e-02 1.092581807128e-02 -4.500783578417e-04 -1.216959973797e-04 -2.003164428957e-04 -1.753978737151e-01 -8.135228056906e-01 -1.951182941293e-02 1.000000000000e-03 1.047197551197e-05 2.919046840927e-06 3.204762405055e-06 1.231373701501e-06
145 2 1.091181998360e-02 2.513246835897e-03 9.482130679621e-04 -4.933782764133e-05 -5.939659785444e-05 3.325422844819e-05 -1.083288702338e-01 1.872725617792e-02 4.367707268135e-03 1.000000000000e-03 1.047197551197e-05 -4.226443126665e-08 2.219243996628e-09 7.157715213121e-08
146 2 8.817966628125e-04 1.500707929756e-02 1.050323077798e-02 -7.550842993267e-04 -3.966674184501e-05 1.854371334730e-04 -3.000773942204e-01 -5.737901069635e-01 4.281608005139e-01 1.000000000000e-03 1.047197551197e-05 5.259927718789e-06 2.120362725372e-06 -4.076441035685e-06
147 2 3.585673264048e-03 8.069192355385e-03 5.256752883788e-03 -9.655601179417e-05 1.361406432156e-04 5.103292267787e-05 -1.011456858713e-01 -1.906216538847e-02 1.484180375495e-01 1.000000000000e-03 1.047197551197e-05 1.741722962136e-06 1.056854888013e-06 1.065773518327e-06
148 2 1.098695269940e-02 8.026693735778e-03 1.271962688213e-03 -4.867898241155e-05 -3.540520690599e-05 -2.048073338785e-05 -3.989999220311e-03 -2.529921383933e-02 7.066506000451e-03 1.000000000000e-03 1.047197551197e-05 6.704098874236e-07 4.459197219327e-07 2.960065995727e-07
149 2 1.244539190310e-02 1.464011163892e-02 1.168198959669e-02 -2.063172557545e-03 -4.436147207258e-04 1.252067278280e-04 -7.620787985086e-01 -9.940542977976e-02 -1.623252515382e+00 1.000000000000e-03 1.047197551197e-05 1.928066058664e-05 5.541866856940e-06 1.601764050584e-06
150 2 8.547310662360e-03 2.573845085707e-03 1.368964905054e-02 -6.016473920967e-04 6.438427516028e-04 1.076419129359e-04 -2.194398928634e-01 5.076607771440e-01 -2.093553641352e-01 1.000000000000e-03 1.047197551197e-05 4.773590306939e-06 -2.839177333372e-06 2.616894080928e-06
151 2 6.721904992261e-03 3.467153984774e-04 8.786554045595e-03 1.334974748267e-03 -1.056469815151e-03 1.178367813984e-03 -4.696891406464e-01 -9.085271945918e-01 -7.909620342196e-01 1.000000000000e-03 1.047197551197e-05 -1.066900337860e-05 1.259975579697e-05 -9.461262100322e-06
152 2 7.170755237908e-03 3.823041058047e-03 4.371813945900e-03 -8.613411242397e-05 8.430231125476e-05 1.866305079062e-04 -5.399080717000e-02 -6.046189061801e-03 -6.689954260528e-03 1.000000000000e-03 1.047197551197e-05 1.392554319478e-06 -2.921128114488e-07 -1.919246072802e-07
153 2 6.069563861195e-03 9.017570870195e-03 8.202913691791e-03 -1.506831846446e-03 1.600050594485e-03 3.444052236271e-03 -4.912218107858e+00 -4.181762332214e+00 -2.393504150794e-01 1.000000000000e-03 1.047197551197e-05 1.353631945433e-05 -1.326774372347e-05 -2.573549695376e-05
154 2 8.936093456747e-03 1.270298864354e-02 1.646466131995e-03 -1.969984459399e-05 -4.516534110828e-06 9.963491429713e-05 1.026573978409e-01 -1.569346560652e-01 -1.526524433082e-01 1.000000000000e-03 1.047197551197e-05 9.295029517305e-07 -2.848085799054e-07 2.070858281451e-07
155 2 1.258123789903e-02 9.286654212993e-03 7.787389330236e-03 -1.672468687300e-04 1.422017079075e-04 2.419883150608e-05 -1.213080909072e-01 -5.463285910594e-02 -3.483915845006e-01 1.000000000000e-03 1.047197551197e-05 1.967323553359e-06 1.285976310952e-08 6.289934237089e-08
156 2 9.999809941981e-03 1.084070364996e-02 7.873269790442e-03 -2.964233331218e-04 -2.130979855356e-04 -6.339923406471e-04 4.113144190095e-01 -4.957224126941e-01 5.815556876189e-01 1.000000000000e-03 1.047197551197e-05 3.264089949399e-06 3.149247563259e-06 6.817565902207e-06
157 2 8.850237740854e-03 3.798629584865e-03 1.105268827590e-02 -9.408595048828e-05 7.718249583668e-04 -2.793703115561e-04 1.005234974746e+00 1.150398277127e+00 -2.514084284980e-02 1.000000000000e-03 1.047197551197e-05 -2.447542480800e-06 -7.357994635299e-06 7.142369161885e-06
158 2 4.024654988143e-03 4.214933672637e-03 5.161776455179e-03 -9.386159520744e-05 -1.007416644432e-04 1.435953695272e-04 6.660445467316e-02 -2.728907212037e-02 3.559053650415e-02 1.000000000000e-03 1.047197551197e-05 9.525647092566e-07 3.084687303478e-06 -1.243791255564e-06
159 2 7.630326698105e-03 1.276349396406e-02 2.944293307974e-03 -2.338510945485e-04 8.998843349678e-05 7.663988865617e-05 -1.338484056994e-01 3.857877261965e-02 3.745639063608e-02 1.000000000000e-03 1.047197551197e-05 1.864651605782e-06 5.357589281148e-07 -1.861545481758e-08
160 2 2.286037117928e-03 1.450792747016e-02 9.251518894608e-03 -4.638984509337e-04 1.634336700455e-04 6.355579731386e-04 1.368083188030e-01 9.042281354181e-03 1.084340452401e-02 1.000000000000e-03 1.047197551197e-05 2.917007767509e-06 1.707215933510e-06 -6.586211574072e-06
161 2 1.792621440748e-03 3.731205667691e-03 9.420169135697e-04 -1.672530594161e-05 -2.276768072856e-05 4.139931626033e-05 1.169293922852e-02 -4.690029869815e-02 -1.907881759266e-02 1.000000000000e-03 1.047197551197e-05 5.579042068334e-09 1.929067291130e-07 -2.164693372085e-07
162 2 1.455765050060e-02 1.124967602660e-02 9.583745475461e-03 -9.331688346348e-04 3.250616788389e-04 3.803902749636e-04 3.578754845117e-01 -6.399853145726e-01 6.734122821126e-01 1.000000000000e-03 1.047197551197e-05 1.201014678214e-05 -1.516616500762e-06 -3.822549479203e-06
163 2 1.045005245036e-02 4.191222523558e-03 9.701302759816e-03 -7.202124619354e-04 4.927026552072e-04 4.144632745252e-04 -5.073338886537e-01 -6.320916157110e-02 -1.158535612058e+00 1.000000000000e-03 1.047197551197e-05 7.004178708359e-06 -4.914860638410e-06 -5.253210842469e-06
164 2 1.254680548900e-02 6.912890516409e-04 1.451520683774e-02 7.396783626894e-05 -9.335427020104e-05 -1.736126291886e-04 -3.225931757654e-02 -4.096283300057e-02 -1.552344597896e-01 1.000000000000e-03 1.047197551197e-05 -1.303808294542e-06 1.745141667866e-06 2.210139085587e-06
165 2 5.098210668751e-03 1.100775776110e-02 6.402410397108e-03 -2.287029838622e-05 -7.720858990238e-05 4.580613566482e-04 6.210863864516e-02 -1.344575056936e-02 5.131405684174e-01 1.000000000000e-03 1.047197551197e-05 8.794039896424e-08 3.468319158107e-06 6.376047518105e-07
166 2 1.096185314247e-02 1.080087376831e-02 1.098056753375e-02 -5.520133261547e-04 -8.159781166287e-04 -6.256440876673e-04 3.439465051453e-01 -9.169320981752e-03 2.327053852160e-01 1.000000000000e-03 1.047197551197e-05 5.438811595863e-06 1.070510726791e-05 8.623733902728e-06
167 2 6.883467619470e-03 3.406398476336e-03 1.438998517438e-02 -1.245995374552e-04 4.305282593776e-04 1.559393264879e-04 6.102333569668e-01 -2.883512755310e-02 1.869639270153e-01 1.000000000000e-03 1.047197551197e-05 9.770326504866e-07 -1.814191487653e-06 -1.741804150949e-06
168 2 1.206018529174e-02 1.185517877133e-02 4.431764644724e-03 -2.089566774491e-05 6.643488958913e-05 5.182125681903e-05 -9.991718441785e-02 -1.506359885068e-01 -1.130850185196e-01 1.000000000000e-03 1.047197551197e-05 3.677402709989e-07 -3.688444530802e-07 1.934431271368e-07
169 2 5.382330783793e-04 1.524630027133e-02 1.438841469325e-02 -7.855008281835e-06 -1.820959505491e-05 -2.098600703328e-05 -1.714717001803e-02 1.901482036891e-02 -9.696946347067e-02 1.000000000000e-03 1.047197551197e-05 9.967738476112e-07 3.680724612500e-07 -1.267918238578e-06
170 2 1.572026352627e-05 5.743046914516e-03 9.515402920616e-03 -4.539925431749e-04 -2.157682670555e-04 1.862173201145e-04 1.021910260644e-01 -1.097598981727e-01 3.513897359374e-01 1.000000000000e-03 1.047197551197e-05 4.434309010307e-06 2.366176268416e-06 -1.471448948056e-06
171 2 4.409792124048e-03 1.436221269571e-02 1.452833916768e-02 -2.569986316746e-04 2.794905863844e-04 -1.018829898232e-04 1.577880968867e-01 8.514906355542e-02 -1.436556325019e+00 1.000000000000e-03 1.047197551197e-05 4.201730088635e-06 1.751993867555e-06 -6.089443421564e-07
172 2 1.066708428684e-02 4.334046488155e-04 9.773502731712e-03 -2.085339378290e-03 -5.160649251511e-04 3.308664148856e-04 3.202463482339e-01 -3.437089103635e-01 -1.268195038572e+00 1.000000000000e-03 1.047197551197e-05 1.700880489411e-05 6.688639722626e-06 -5.577352221320e-07
173 2 1.071720288301e-02 2.329273915209e-04 1.156467547841e-02 -1.280841595231e-03 -2.002916750794e-04 6.051592074658e-04 -5.757219846643e-01 1.162236638440e+00 4.338460252921e-01 1.000000000000e-03 1.047197551197e-05 1.116109394004e-05 2.389820994617e-06 -3.305890399962e-06
174 2 6.048329905339e-03 2.532042316901e-03 1.402237950198e-03 -3.382854608461e-20 1.284852972051e-20 -8.097129631989e-21 -5.720202460898e+03 5.317858717167e+03 1.580366610651e+03 1.000000000000e-03 1.047197551197e-05 3.386088084399e-21 -1.286081089026e-21 8.104869211978e-22
175 2 2.570304147414e-04 1.484461802332e-02 9.786898165246e-04 -1.874176578466e-05 8.980942220718e-06 2.708554735721e-05 6.477385967825e-03 -1.459584333338e-02 -9.365497201509e-03 1.000000000000e-03 1.047197551197e-05 2.704340716643e-07 -3.332238126757e-07 -2.476598772012e-07
176 2 1.064396828877e-02 8.024404258270e-03 1.453527607849e-02 -3.855788594179e-04 6.323952660454e-05 -5.997017286874e-05 1.235509147568e-01 2.592622987358e-01 1.192268524533e-01 1.000000000000e-03 1.047197551197e-05 3.262658429019e-06 5.433938453427e-07 -8.880070441447e-07
177 2 4.418906905885e-03 1.277938849360e-02 1.362216080737e-02 -5.512024046905e-04 2.570031341145e-04 2.599130667345e-04 -4.996366335917e-01 -9.746684665052e-01 7.998779257557e-01 1.000000000000e-03 1.047197551197e-05 4.005358936058e-06 -3.165416128416e-06 4.400704771212e-06
178 2 1.316139906063e-03 9.733361398048e-03 1.442391526807e-02 1.994056042941e-05 -2.298508953169e-04 -4.744365076195e-05 -2.441236855985e-01 -1.087092128416e-01 -4.489288189979e-01 1.000000000000e-03 1.047197551197e-05 2.141892221156e-06 7.689081114294e-07 -8.670029045277e-07
179 2 7.795520633922e-03 1.001883721893e-02 1.456836598096e-02 -3.756272560067e-04 4.433903378049e-06 -2.346921218644e-04 8.581987017551e-02 4.007747284436e-01 1.071784105792e-01 1.000000000000e-03 1.047197551197e-05 5.999590128911e-06 4.017342585135e-06 1.190628571640e-06
180 2 7.002856054407e-03 6.393895698705e-03 4.927168813234e-03 -1.282407786622e-04 2.915051602439e-05 5.659167166900e-05 2.492349180224e-02 6.094483270259e-02 -5.340313774613e-02 1.000000000000e-03 1.047197551197e-05 1.724567418435e-06 1.218309116332e-06 -1.133710046818e-06
181 2 8.324236723041e-03 7.790225152234e-03 5.087212830974e-03 -1.339813283329e-04 4.871384791048e-05 5.899434199826e-05 7.731351143442e-02 -3.123874450632e-02 7.391983936569e-02 1.000000000000e-03 1.047197551197e-05 1.931810398826e-06 1.504581289726e-06 -9.535647609678e-07
182 2 1.136271876601e-02 8.955039695508e-03 2.961742706972e-03 -9.293234237903e-05 -5.677266036160e-05 -9.239293847946e-05 -6.366811469694e-02 1.895038474944e-02 1.818899907015e-02 1.000000000000e-03 1.047197551197e-05 1.318525463171e-06 9.149992935154e-07 8.660427799438e-07
183 2 5.954505935460e-04 4.423832979593e-03 5.580508029124e-03 -1.896942037128e-04 -2.159072060442e-04 -2.846589194227e-04 4.475245846401e-01 4.155755781701e-02 6.477933642696e-02 1.000000000000e-03 1.047197551197e-05 1.383397891878e-06 2.620539400507e-06 4.629762244282e-06
184 2 5.775456888026e-03 5.163555077756e-03 7.662192953657e-03 -4.809062336515e-04 1.588192495257e-04 2.533092533512e-04 -1.825750499256e-01 -1.839069004554e-01 -9.826407397231e-02 1.000000000000e-03 1.047197551197e-05 4.872970223813e-06 -2.709697635255e-07 -1.576835134861e-06
185 2 1.991561045116e-03 8.061156243785e-03 6.327069430812e-03 -1.118436163217e-04 8.019242389850e-05 1.016612584032e-05 -1.650691279066e-01 2.057530519730e-03 1.063702098370e-01 1.000000000000e-03 1.047197551197e-05 2.063137757086e-06 3.973803959655e-07 5.805047604280e-07
186 2 2.120951322180e-03 1.090212908982e-02 1.300412667211e-02 -5.793632255995e-04 1.038700523631e-03 -1.883422245608e-04 -5.522250189761e-01 -2.103544466320e-02 2.551702943636e+00 1.000000000000e-03 1.047197551197e-05 -9.943964311056e-07 2.364596636689e-06 -3.335988475823e-07
187 2 1.412588349011e-02 6.083349367585e-03 9.689468700705e-04 -2.171258829524e-05 -5.277718519979e-06 1.348828013446e-05 -7.780069312845e-03 1.326295472593e-02 7.433765952862e-03 1.000000000000e-03 1.047197551197e-05 2.266664021087e-07 4.717844444339e-08 8.696015589118e-08
188 2 2.506657679631e-03 5.655834227739e-03 6.341407937578e-03 -2.572623971711e-04 1.468259917853e-04 7.880224012310e-05 -1.653408183386e-01 2.077059690560e-01 -8.842871856510e-02 1.000000000000e-03 1.047197551197e-05 2.214829076748e-06 2.977948754476e-07 -4.876247258553e-07
189 2 8.882639777846e-03 7.401845776989e-04 9.308931486996e-03 -2.044730147951e-03 3.871461279481e-04 7.130935708911e-04 -1.510293759806e+00 1.009870254708e+00 -5.628714751025e-01 1.000000000000e-03 1.047197551197e-05 1.632525679650e-05 1.020212232088e-06 -6.218031981654e-06
190 2 9.995831701615e-03 1.096418378074e-02 1.264429358141e-02 3.757482454332e-04 -2.511989352718e-04 -2.043690496410e-05 -6.373493963232e-01 7.849884289810e-01 -5.500350883225e-01 1.000000000000e-03 1.047197551197e-05 -6.102144634099e-06 5.061861705958e-06 1.160579437103e-06
191 2 8.642267088548e-03 1.064493407652e-02 1.133306331442e-02 1.508507993060e-04 2.230463112263e-03 4.081067635351e-04 1.609559710620e+00 -5.363278709200e-01 -1.966475617365e+00 1.000000000000e-03 1.047197551197e-05 -2.041034047642e-06 -2.264009175053e-05 -5.195374071621e-06
192 2 9.698972853618e-04 4.024909180389e-03 9.607841918757e-03 -4.074157124890e-04 -3.861267532412e-05 3.983903538047e-05 3.003974630365e-01 -1.129036574823e-01 -1.730098159827e-01 1.000000000000e-03 1.047197551197e-05 4.150163383005e-06 1.792163760559e-06 -1.347095273181e-07
193 2 1.272314121404e-02 7.974453966526e-04 7.383160761334e-03 2.585834320136e-04 -4.736676662359e-04 5.274987381293e-04 1.331722948468e+00 1.784232531480e-01 8.877595126937e-02 1.000000000000e-03 1.047197551197e-05 4.783781928784e-06 -1.216698352993e-05 -1.373337524112e-05
194 2 1.469768750386e-02 1.079494734365e-02 6.183296609976e-03 -8.757284065346e-05 2.178069504708e-05 1.715390050059e-04 1.823058256921e-01 -2.349290354998e-01 -1.394326770488e-01 1.000000000000e-03 1.047197551197e-05 3.045757630485e-07 1.005713960226e-06 -2.107337830881e-07
195 2 1.387761052877e-02 2.940986590526e-03 8.927363335896e-03 -5.583978152976e-04 2.775666467256e-04 -1.505348193011e-04 -3.928710727350e-01 -3.879226176188e-01 2.940675288874e-02 1.000000000000e-03 1.047197551197e-05 3.598301600301e-06 5.009859789773e-08 1.600459807657e-06
196 2 7.736469902601e-04 2.643197569375e-03 1.316456964703e-02 2.084007865050e-05 -1.684175997765e-04 4.950123431432e-05 -1.576126953428e-01 6.366450802950e-01 -1.251423238860e-01 1.000000000000e-03 1.047197551197e-05 -6.111827078559e-07 1.220121423724e-06 -1.135568759675e-06
197 2 1.942590174254e-03 9.335018292186e-03 7.740525589505e-03 -1.711753004190e-04 7.806099272778e-06 3.128056133585e-05 2.825379510705e-01 1.424332376300e-02 -1.492527661119e-02 1.000000000000e-03 1.047197551197e-05 1.939738931742e-06 4.627226941074e-07 9.289200817368e-07
198 2 2.864297338577e-03 8.608010444277e-03 2.893370260663e-03 -9.285028568668e-05 -1.917989799431e-06 2.649528494369e-05 2.352736545287e-02 -1.239270531855e-02 2.715937109805e-03 1.000000000000e-03 1.047197551197e-05 1.012098742140e-06 1.419346180839e-06 1.033822317947e-06
199 2 1.420489630914e-02 1.340236189780e-02 8.820178008374e-04 5.172710829780e-05 3.182364935002e-05 1.059551605478e-04 -5.923472487754e-02 3.585273161839e-02 -5.936409134912e-02 1.000000000000e-03 1.047197551197e-05 -3.550523169122e-07 -8.632421148470e-07 -1.029994804838e-06
200 2 2.713876859535e-03 1.209503279828e-02 9.832143882873e-04 -2.138757917199e-05 3.027556776660e-05 3.038477277638e-05 -2.738496402142e-02 -1.273361035342e-02 1.200016918654e-02 1.000000000000e-03 1.047197551197e-05 6.063890709835e-07 -6.571523227224e-07 3.133169240967e-08
201 2 4.498940249024e-04 1.333163902362e-02 1.117837943117e-02 -5.074845042789e-04 -1.106793716652e-04 -1.920983679383e-04 5.108644588907e-01 4.276383199542e-02 9.018870374342e-03 1.000000000000e-03 1.047197551197e-05 5.605386387223e-06 3.069597530833e-06 2.698020851245e-07
202 2 5.122420238015e-03 1.420249392484e-02 1.252497336604e-02 9.686603509488e-05 -1.400950020779e-04 -1.915244418076e-04 -1.171670692076e+00 -8.641255111908e-01 -1.517073036299e-01 1.000000000000e-03 1.047197551197e-05 -3.382274299814e-07 1.324651550347e-06 1.906009248277e-06
203 2 9.096598184173e-03 1.521921486336e-02 5.146430584424e-03 1.346122857217e-04 -2.338151363757e-05 -5.684111944561e-05 6.755718648246e-01 3.228871448742e-01 2.585547524774e-01 1.000000000000e-03 1.047197551197e-05 7.338726003243e-07 -7.222982823875e-07 1.169518979003e-06
204 2 1.435793866036e-02 1.278147024182e-02 8.517631673533e-03 -7.067422470552e-04 3.524285972971e-04 5.854542931143e-04 -8.497280224060e-02 -6.021068267930e-01 9.401065888676e-02 1.000000000000e-03 1.047197551197e-05 6.103763164150e-06 -8.926195154756e-07 -5.222899580561e-06
205 2 1.364675206628e-02 1.177671766047e-02 1.617981409913e-03 2.862098645049e-05 3.350813899262e-05 1.405204856277e-04 6.018631397083e-02 -8.110747007290e-02 4.891449902958e-02 1.000000000000e-03 1.047197551197e-05 1.017087819354e-06 -1.116042906313e-06 -1.112520110320e-06
206 2 1.409158100515e-02 6.683183495312e-03 2.833248403362e-03 -1.159431840792e-04 1.953855044700e-05 3.117283638787e-05 -4.420497723802e-03 -1.128876869377e-01 5.443632266383e-03 1.000000000000e-03 1.047197551197e-05 1.193436711242e-06 1.506286920526e-07 1.165861126790e-07
207 2 1.402619620008e-03 6.767450664931e-03 7.597789826500e-03 3.765159209736e-05 3.149953292832e-04 3.306523784994e-04 -3.729271318666e-03 5.603397691869e-01 -4.763149699761e-01 1.000000000000e-03 1.047197551197e-05 4.851559707397e-06 6.235855722409e-07 9.152874106883e-07
208 2 1.481844937008e-02 4.018820675726e-03 1.067420508442e-02 -4.926949270490e-04 -1.515096399006e-04 5.414313822503e-05 -2.147078139972e-01 1.039288964014e-01 2.570611918797e-01 1.000000000000e-03 1.047197551197e-05 4.148950152762e-06 2.148000636172e-06 -1.842017225716e-07
209 2 1.289382132858e-02 1.223543837581e-02 9.686592455133e-03 -1.345744921786e-03 3.472371201652e-04 3.398667931829e-04 4.552666950225e-01 9.251821243565e-03 -4.503750569152e-01 1.000000000000e-03 1.047197551197e-05 1.407068392374e-05 -2.235942630066e-06 -1.140157193473e-06
210 2 1.063477856945e-02 5.168860080290e-03 6.331389329894e-03 -3.162339643354e-04 -1.680166332394e-04 -9.156320170701e-05 2.673986649210e-01 -1.493708272850e-01 -3.552436601435e-02 1.000000000000e-03 1.047197551197e-05 2.477453276586e-06 2.682184319419e-06 5.046472517701e-08
211 2 1.326919423830e-02 3.221247854246e-03 4.406729915953e-03 -2.330813324309e-05 2.747774377975e-05 1.881502806114e-05 -2.792315308100e-02 -1.249380046782e-02 9.019652287590e-02 1.000000000000e-03 1.047197551197e-05 -1.655488285494e-07 1.166243129937e-06 -1.059678743452e-06
212 2 5.371554361280e-03 2.908933831361e-03 1.119151633728e-02 -3.921998460082e-04 1.651575912677e-04 -1.373294893299e-04 7.495066782255e-01 2.592699506451e-01 2.466827677246e-01 1.000000000000e-03 1.047197551197e-05 3.543843971285e-06 2.200026965001e-06 8.973293166638e-08
213 2 1.357603731783e-02 5.129298308731e-03 9.670031804297e-03 -4.832613756825e-04 -5.847202063942e-05 3.844683301037e-05 3.570197866157e-02 2.336538039165e-03 -5.705694755564e-01 1.000000000000e-03 1.047197551197e-05 3.802882349550e-06 2.043595394530e-06 2.666172171718e-07
214 2 8.864245703847e-03 3.082944329296e-03 3.752021818250e-03 -1.077924372358e-04 1.997512252748e-05 2.326559227227e-04 -1.295224785148e-02 -7.325668111770e-03 -1.844292693236e-02 1.000000000000e-03 1.047197551197e-05 1.833087813709e-06 7.646152325612e-07 -8.823591302807e-08
215 2 9.522117448586e-03 6.913071710461e-03 8.986387288767e-04 -4.518820165077e-05 -6.057276027476e-06 -1.053017566361e-05 -1.973439879181e-02 -2.378648968802e-02 -3.358648736518e-02 1.000000000000e-03 1.047197551197e-05 2.259403294539e-07 2.922250118003e-07 1.335453213063e-07
216 2 3.952205807242e-04 9.655896555783e-03 1.003084416493e-02 -2.628909852972e-04 -1.529032673176e-05 -2.426958673175e-05 8.133874715517e-02 -1.069566800952e-01 8.634055862704e-02 1.000000000000e-03 1.047197551197e-05 1.693895773029e-06 -1.476454956867e-06 8.349221464197e-07
217 2 7.168805824063e-04 2.917802778288e-04 7.919834273387e-03 -5.205887229352e-04 -9.248136709344e-06 9.233746407803e-05 -3.014164108628e-03 -4.942740159836e-01 6.340635965146e-02 1.000000000000e-03 1.047197551197e-05 5.288936113263e-06 2.342755636721e-06 -2.644524983321e-06
218 2 5.247827531811e-03 1.254839724017e-02 9.624969122081e-03 9.669974328520e-05 -1.464717567927e-04 1.022400206183e-03 2.562764795638e+00 1.166220350498e+00 -4.954780371550e-01 1.000000000000e-03 1.047197551197e-05 -3.946942851655e-06 1.997619263927e-06 -5.144606520815e-06
219 2 1.389733979274e-02 2.436280008617e-03 1.140743186722e-02 -6.101129850786e-04 1.020103328214e-04 7.494044265823e-05 -2.913463355425e-01 -7.862793327863e-01 -2.871735256497e-02 1.000000000000e-03 1.047197551197e-05 4.283079955894e-06 4.362901278426e-07 -1.137176437407e-06
220 2 1.291194735369e-02 1.064766431622e-02 1.101356007799e-02 -5.203648877630e-04 -2.264621927592e-05 -2.562513434715e-04 9.493005288175e-02 -2.745710993589e-01 4.019911034533e-01 1.000000000000e-03 1.047197551197e-05 5.604812052968e-06 3.527641255227e-06 3.234112559212e-06
221 2 1.189802280521e-02 1.109530602098e-02 8.247455299331e-03 -3.753053772268e-04 1.212859452607e-04 -3.199088579898e-04 -8.054623303663e-01 5.783671782822e-03 -3.846047179490e-01 1.000000000000e-03 1.047197551197e-05 4.230894488329e-06 4.026494626696e-07 4.939633661456e-06
222 2 9.824348166035e-03 1.501219871652e-02 1.335836153461e-02 -4.369747042808e-04 3.546513728532e-04 -8.802033972706e-04 1.877394973623e+00 3.331526610931e-01 3.121352950029e-01 1.000000000000e-03 1.047197551197e-05 2.940855318384e-06 4.115661861268e-06 3.326493668692e-05
223 2 5.913448489318e-03 1.040954670182e-02 9.182466855363e-04 -1.155104424914e-05 5.418342571245e-05 1.073121050508e-04 -3.095727581310e-02 1.897452362203e-02 3.791959681947e-02 1.000000000000e-03 1.047197551197e-05 8.222377786813e-07 3.780218872627e-07 -2.540562609278e-07
224 2 4.904625360399e-03 6.918946897543e-04 9.261369991991e-03 8.758986329270e-04 2.051355170660e-04 -7.032532330828e-04 -9.485448782478e-01 -8.895424952633e-01 -2.344697403402e-01 1.000000000000e-03 1.047197551197e-05 -5.037379605438e-06 2.105623058615e-06 4.954893797589e-06
225 2 1.239642093448e-02 6.788475352602e-03 6.805298155421e-03 -7.141306672919e-05 1.574007435841e-04 6.995631342981e-05 -1.283567521841e-01 -8.314097907760e-02 -3.622697559339e-01 1.000000000000e-03 1.047197551197e-05 -1.504299970082e-07 1.696158413692e-07 -7.591802580852e-07
226 2 3.655940846236e-03 1.119292100346e-02 4.108060641624e-03 -1.216977427823e-04 9.152287058246e-05 2.497374400787e-04 -1.159272576425e-02 -2.934974126269e-01 1.438984490714e-02 1.000000000000e-03 1.047197551197e-05 -1.989606487850e-07 1.602124234675e-06 -6.434778592599e-07
227 2 1.110648748971e-02 1.509780104129e-02 8.127488474337e-03 -7.328491662338e-04 9.236227674426e-05 2.686507827748e-04 4.758719369390e-01 -1.226664280349e+00 7.571804825044e-01 1.000000000000e-03 1.047197551197e-05 4.786994057129e-06 2.655936069394e-06 2.651369459555e-06
228 2 7.374536119444e-03 4.085067934978e-03 1.815120657637e-03 -3.074929667074e-05 -1.573872290296e-05 1.545478982709e-04 -8.150227356599e-02 -1.765387276291e-02 2.380607558901e-02 1.000000000000e-03 1.047197551197e-05 1.717368331701e-07 3.221216785850e-07 7.942953077343e-08
229 2 1.847185668939e-03 5.592965722693e-03 9.089690460195e-03 -3.331702786082e-04 9.637941500107e-05 1.138992939503e-04 -1.638456783254e-01 2.137366083830e-01 3.709925996138e-02 1.000000000000e-03 1.047197551197e-05 4.348827944474e-06 2.760948186490e-07 -1.354507834286e-06
230 2 1.070412358805e-03 4.934303643938e-03 7.460624561988e-03 -3.855043468061e-04 2.968367924554e-04 2.021077012270e-04 2.522382841630e-01 -9.838903397988e-02 1.362130300294e-02 1.000000000000e-03 1.047197551197e-05 2.713919873830e-06 4.942213415008e-07 3.604463825820e-07
231 2 7.022245550952e-03 9.339215783281e-03 2.300469617582e-03 -5.923548359145e-05 2.694755592571e-05 3.934408961592e-05 -5.283225546393e-02 -1.720662593594e-02 -1.232330449562e-02 1.000000000000e-03 1.047197551197e-05 1.098355460384e-06 1.150537969570e-06 -1.956490953535e-07
232 2 1.426753588321e-02 1.484252986307e-02 1.129696576807e-02 -1.814697425064e-03 2.472078969129e-04 7.321763986801e-04 1.420018868104e-01 9.775431528860e-01 -3.061254341050e-01 1.000000000000e-03 1.047197551197e-05 1.416838710035e-05 -2.369968365087e-06 -8.056672744576e-06
233 2 8.411085977434e-03 9.595902500688e-03 5.844401520168e-03 -1.575699083595e-04 2.310946539064e-04 2.260890414817e-06 -3.612272346572e-01 -1.690997269461e-01 -2.706717023832e-01 1.000000000000e-03 1.047197551197e-05 2.698210804920e-06 -7.462461897847e-08 1.650801376959e-07
234 2 1.252153619035e-02 4.357847933159e-04 1.018106839442e-02 -1.792923381381e-03 -5.379907405435e-04 1.699415971534e-04 7.163293447764e-01 2.757286877871e-01 1.280231597248e+00 1.000000000000e-03 1.047197551197e-05 1.582914099271e-05 6.259407442421e-06 -6.504407249264e-07
235 2 5.100088955093e-03 1.049339091229e-02 1.146831305345e-02 -1.573257793168e-04 2.346728433880e-04 -8.692877651585e-05 -6.935634977260e-01 8.729974414871e-01 -2.312382466518e-01 1.000000000000e-03 1.047197551197e-05 1.179803074098e-06 3.078477466900e-06 4.504411060502e-06
236 2 1.472498426947e-02 1.184295653091e-02 1.136689645264e-02 -4.294339569983e-04 1.061298924819e-04 2.970800556473e-04 -1.212949241423e-01 1.293843429125e+00 -1.963516198357e-01 1.000000000000e-03 1.047197551197e-05 5.336444387563e-06 4.263560818750e-08 -2.544195412090e-06
237 2 5.122911320885e-03 1.577450901992e-03 1.264847077111e-02 -4.029361386075e-04 -2.614212726589e-04 1.972352279573e-05 1.049106903576e-01 -2.594395000281e-01 -3.449992348505e-01 1.000000000000e-03 1.047197551197e-05 1.795358260838e-06 4.661250488012e-06 5.295995744082e-07
238 2 2.512353445510e-03 8.237346734022e-03 1.219703537869e-02 -1.064341225382e-04 2.325688557938e-04 8.034057407806e-05 -2.255835993347e-01 -3.566572333819e-01 2.369781569954e-01 1.000000000000e-03 1.047197551197e-05 1.462847541128e-06 2.227562739859e-06 3.666380729067e-07
239 2 9.776138482060e-04 1.453998815452e-02 1.261949325289e-02 -3.489920275928e-04 -2.204969381680e-04 -1.329860579854e-04 -2.104159194247e-01 4.970084425317e-01 3.292888931771e-01 1.000000000000e-03 1.047197551197e-05 6.163162608271e-06 6.619564380687e-06 -2.723845846301e-06
240 2 8.135238996891e-05 3.462491233161e-03 8.002803751668e-03 -2.707759732527e-04 1.561098541378e-04 -2.578412007842e-05 -5.903991469942e-02 -3.014300104494e-02 1.277691959030e-01 1.000000000000e-03 1.047197551197e-05 2.228182683714e-06 -3.689480569869e-08 3.294144097957e-07
241 2 1.118155900262e-02 9.829718596993e-03 8.905944569822e-04 -3.345657858245e-05 -1.089053995402e-05 2.153055912068e-06 1.158694535973e-02 -2.939444654461e-02 -2.885084200390e-03 1.000000000000e-03 1.047197551197e-05 5.384244751525e-07 2.907865134905e-07 3.805207998449e-08
242 2 1.393992318135e-02 1.429105672839e-02 6.370420532245e-03 5.069177917449e-05 3.872953904923e-05 1.074940656946e-04 -9.218267921606e-02 -1.251727393828e-01 7.889061016520e-02 1.000000000000e-03 1.047197551197e-05 -7.990097726647e-07 -8.450543940625e-07 -9.180173770823e-07
243 2 7.070666304986e-03 1.410587256773e-02 1.700069369430e-03 -3.965822769724e-05 1.588101984564e-04 3.070249487530e-05 1.575621706571e-01 -1.133400677585e-01 -2.311962457395e-01 1.000000000000e-03 1.047197551197e-05 7.775041438500e-08 4.578391111462e-07 1.116551436402e-06
244 2 1.267395323369e-02 7.299679542601e-03 9.480182879162e-04 -2.901059798243e-05 -1.546261136588e-05 7.243545069965e-06 -6.752443094193e-03 -1.419452946350e-02 6.694706737922e-03 1.000000000000e-03 1.047197551197e-05 3.202587130401e-07 -5.526987517101e-09 9.688922628473e-09
245 2 5.990738250708e-03 1.528933039618e-02 1.384903814371e-02 -2.390647066860e-04 -3.977853768709e-05 1.580684349873e-04 4.720160940248e-01 1.687223645711e-01 6.534285392469e-01 1.000000000000e-03 1.047197551197e-05 3.396468168484e-06 3.142286579980e-06 -3.967642573196e-07
246 2 9.996927049486e-03 1.336692871048e-03 1.460681633743e-02 -2.580467099921e-04 6.518334160288e-04 1.455077222014e-04 6.007496205506e-01 3.106017193311e-01 -3.495656904055e-01 1.000000000000e-03 1.047197551197e-05 1.440692311079e-06 -2.090229353809e-06 -2.303078775061e-06
247 2 4.709528177064e-03 1.119630802842e-02 8.306496460104e-03 3.618578607224e-05 2.328239167483e-04 4.623242137018e-04 -7.699959901945e-01 1.202943480184e-01 1.604672663968e+00 1.000000000000e-03 1.047197551197e-05 -1.832139963160e-07 2.733835886300e-06 -9.356988986729e-07
248 2 5.349347235412e-03 8.554532041712e-03 1.108499914034e-02 -2.791993119302e-04 3.512743978212e-04 -2.386202584641e-04 -7.424276380547e-01 -3.210477051885e-01 -1.710561986925e-01 1.000000000000e-03 1.047197551197e-05 1.299618475383e-06 1.626204802843e-06 5.784850925395e-07
249 2 8.925807408519e-03 1.255066606232e-02 4.329842670615e-03 -1.600268565883e-04 3.190635861196e-05 -1.163224493339e-04 5.503475500798e-02 1.804535327537e-01 -1.349561899293e-01 1.000000000000e-03 1.047197551197e-05 1.447459425593e-06 2.560915503519e-06 2.532957012521e-06
250 2 3.563448400948e-03 1.819759889263e-03 5.338871577781e-03 -7.387560260922e-06 -1.883335016768e-04 4.377803164819e-04 8.991061887148e-02 -1.709784399086e-02 1.366430312170e-02 1.000000000000e-03 1.047197551197e-05 1.212662988339e-06 4.515925035805e-06 -4.754376274544e-06
251 2 6.518530278036e-03 6.879208831802e-03 7.955307806399e-03 -8.686393280915e-05 2.422250176935e-04 -1.351858752788e-04 -8.271875502594e-01 -1.047901834867e+00 -3.941105243587e-01 1.000000000000e-03 1.047197551197e-05 2.393017784693e-07 -1.609988851802e-06 9.181217525513e-07
252 2 6.957139261909e-03 4.743158445467e-03 9.057073065906e-03 -4.336750944189e-04 6.180233195782e-04 3.016195193452e-04 -8.342536819428e-01 4.262383550203e-01 -3.688368948684e-01 1.000000000000e-03 1.047197551197e-05 5.054464317800e-06 -3.282558443213e-06 -1.765794808606e-06
253 2 8.011185048859e-03 7.917365359809e-03 3.157907852296e-03 -1.430826242253e-04 -4.006756347785e-05 1.853203267510e-05 -1.416833518928e-01 7.877884113575e-02 -1.874975463132e-02 1.000000000000e-03 1.047197551197e-05 1.240225536206e-06 1.598983065180e-06 6.782918684878e-08
254 2 5.383574075678e-03 3.423806816987e-03 1.303722107334e-02 -8.428501690621e-05 -2.198984328831e-04 1.247680874322e-05 -1.987449510970e-01 1.824510454038e-01 -2.129403061811e-02 1.000000000000e-03 1.047197551197e-05 2.321058428543e-06 3.912804227350e-06 -1.027146205882e-06
255 2 4.820466765352e-03 1.242382867002e-02 1.165538468859e-02 -5.337702397912e-04 -9.436267485810e-05 3.046149666896e-05 6.164451199298e-01 -2.837768884998e-01 2.972813902251e-01 1.000000000000e-03 1.047197551197e-05 5.601059669738e-06 5.604727911024e-06 -1.887366980406e-06
256 2 1.236295367521e-02 5.356710019406e-03 8.846002159391e-04 -3.437459067357e-05 -1.747364893950e-05 8.299988056742e-06 1.819050488626e-02 -2.069302860568e-02 -1.240831790501e-03 1.000000000000e-03 1.047197551197e-05 1.920538187111e-07 1.733787728695e-07 3.529761120961e-08
257 2 1.231281277779e-02 1.362987802120e-02 5.007063263012e-03 -5.446565093945e-05 6.454363787225e-05 1.056226950752e-04 8.122372287546e-03 -3.103442466514e-01 -2.809020164108e-02 1.000000000000e-03 1.047197551197e-05 -1.254845387700e-06 5.330707108965e-07 5.269362592324e-08
258 2 1.326922118720e-02 9.374554324817e-03 3.115690660692e-03 -9.914260474917e-05 5.317752687302e-05 -1.968547109797e-05 -2.782448476735e-02 -6.075555707403e-02 3.232617654763e-02 1.000000000000e-03 1.047197551197e-05 1.526028762436e-06 -7.834642900109e-08 3.526818351803e-07
259 2 9.240565080855e-03 9.041158157988e-03 1.407500597239e-02 -4.146385923984e-04 2.432223238038e-04 -3.707795526337e-04 2.170355997982e-02 -5.474945899509e-01 -1.608799392637e-01 1.000000000000e-03 1.047197551197e-05 4.562380351948e-06 1.565058097425e-06 2.466895449868e-06
260 2 2.403654336113e-03 8.429781063315e-04 1.026828714477e-02 -8.780358382270e-04 3.362953560049e-04 3.881133948149e-04 -8.269134881281e-02 -1.734500529085e-02 1.321071599964e-03 1.000000000000e-03 1.047197551197e-05 5.720713158526e-06 -1.088545247653e-08 -2.440273855422e-06
261 2 7.190425536027e-03 5.788912913536e-03 8.511056329057e-04 -5.633166469722e-05 -2.719439683495e-05 4.998217078865e-05 3.744654154388e-03 -3.710039487752e-02 2.483786456515e-02 1.000000000000e-03 1.047197551197e-05 3.368040688419e-07 3.122369347333e-07 -4.702803851958e-07
262 2 8.732853983261e-03 9.882902169157e-03 3.935801553132e-03 -8.598414167741e-05 -1.189317246044e-04 -1.021501703886e-04 1.169720142892e-02 1.312909502363e-01 -1.090524437121e-01 1.000000000000e-03 1.047197551197e-05 9.932485822441e-07 2.064710422527e-06 1.028889732272e-06
263 2 1.057340953186e-02 1.257318410019e-02 5.267917031950e-03 -8.220042054367e-05 2.620728694138e-04 -3.769891218651e-04 -3.768854541860e-01 -2.897281146147e-02 1.814886674104e-01 1.000000000000e-03 1.047197551197e-05 9.058708642837e-07 -1.195985414512e-06 3.643234336102e-06
264 2 2.107326199469e-03 7.798718691893e-03 9.008713621901e-03 4.738407677878e-05 5.430718987465e-04 6.286170650263e-04 -7.319883508944e-02 -7.340091034567e-01 8.140560868240e-01 1.000000000000e-03 1.047197551197e-05 4.181826369358e-06 1.369181596692e-06 3.123086592605e-06
265 2 1.089820580976e-02 1.437459681700e-02 3.164065017089e-03 -1.416397212126e-04 -5.733650584254e-05 2.125028000083e-04 2.017803204781e-01 -1.871387316291e-01 5.231015813944e-02 1.000000000000e-03 1.047197551197e-05 -1.111834381046e-07 5.806184125432e-07 8.884684478492e-07
266 2 1.504854420341e-04 6.240741578952e-03 6.293348355515e-03 -1.960600932112e-04 8.607347691194e-05 2.828055091792e-04 -2.713180498466e-01 -4.535033928674e-01 2.904684178186e-01 1.000000000000e-03 1.047197551197e-05 1.889505254600e-06 1.779292368227e-06 1.512210604668e-06
267 2 1.024848604570e-02 4.053701986002e-03 2.800399941453e-03 -7.212921917159e-05 -2.039318934609e-05 1.092862354499e-04 -3.180419127607e-02 8.525880920889e-02 -1.923760833963e-02 1.000000000000e-03 1.047197551197e-05 4.107082542617e-07 6.033701316727e-07 -8.575563812373e-07
268 2 1.272418385351e-02 1.269823369404e-02 7.585455515644e-03 -9.250325940272e-05 1.137882609381e-04 -2.843360691438e-04 7.364379854585e-01 -4.045571291732e-01 3.832049574868e-01 1.000000000000e-03 1.047197551197e-05 -2.980647832907e-07 -6.977591745820e-07 4.406870779304e-06
269 2 1.314527887367e-02 1.201764736234e-02 1.447939345513e-02 -6.191582365956e-04 -7.709935166805e-06 1.508720539491e-04 5.402002351256e-02 6.707387809984e-01 -4.405241412533e-01 1.000000000000e-03 1.047197551197e-05 5.071624951346e-06 5.674589694892e-06 -2.737170146003e-06
270 2 9.219283835353e-03 1.194212475778e-02 6.419196410056e-03 2.233978174609e-04 -2.274250273487e-04 -4.644251301646e-04 3.034342993846e-01 9.580342775768e-02 5.257742673819e-01 1.000000000000e-03 1.047197551197e-05 -1.989999550991e-06 2.548622002508e-06 5.012989050834e-06
271 2 7.568056847185e-03 1.414191326970e-02 9.827971009492e-03 6.340684487363e-03 -3.437082024464e-03 1.444425171956e-03 -9.819976426071e+00 -5.996397749872e+00 1.857560604132e+01 1.000000000000e-03 1.047197551197e-05 -4.421698102529e-05 4.431082776957e-05 -8.029226262796e-06
272 2 8.573886020334e-03 1.380821357912e-02 6.442905306855e-03 2.081273583113e-04 -7.736681703085e-05 -5.408626520476e-04 -6.393139673692e-01 3.851864158126e-01 -4.626595257767e-01 1.000000000000e-03 1.047197551197e-05 -2.215658123072e-06 7.714246947436e-07 7.171012239003e-06
273 2 5.819110490145e-03 1.724038930144e-03 1.445664671347e-02 -8.694019851486e-05 6.688646611866e-05 2.558285400581e-06 -6.277168320658e-01 4.543591202188e-01 -4.302878956882e-01 1.000000000000e-03 1.047197551197e-05 -9.642558639050e-07 4.408055613155e-06 -1.465361929520e-06
274 2 8.785232162898e-03 1.265876512126e-02 1.202109165243e-02 -7.027320456932e-03 1.465537288519e-02 1.885324527919e-03 3.274912583288e+01 1.583743839060e+01 1.294146018572e+01 1.000000000000e-03 1.047197551197e-05 8.582399605959e-05 -1.728976061120e-04 -1.114400446394e-05
275 2 1.518248873294e-02 9.834436055353e-03 3.974016150733e-03 -2.796366186850e-04 1.001029316535e-04 -4.679785069214e-04 -3.651081217655e-01 -3.083119320528e-01 2.557309146173e-01 1.000000000000e-03 1.047197551197e-05 1.665019787422e-06 2.118145016449e-07 5.025454140880e-06
276 2 1.214646714472e-02 6.725723315275e-03 2.774090922793e-03 -1.256598357406e-04 5.536741331662e-06 -3.757976871793e-06 2.576416500595e-03 8.256789597047e-02 9.014280029879e-03 1.000000000000e-03 1.047197551197e-05 1.313666670272e-06 3.518561884422e-07 -2.156129865086e-07
277 2 9.303636492007e-03 1.124519404143e-02 1.444128009030e-02 -1.081643602787e-03 1.180649094549e-04 -7.624407031279e-04 -7.885519807334e-01 -4.719170847088e-01 8.598637245258e-01 1.000000000000e-03 1.047197551197e-05 1.589959610983e-05 -4.594571250688e-07 1.128731960187e-05
278 2 7.859480242674e-03 2.323286658723e-03 9.622784285563e-03 -6.011909989891e-04 1.280079548326e-03 2.447760455086e-04 1.054048658277e-01 1.236190645771e-01 -7.755579314886e-01 1.000000000000e-03 1.047197551197e-05 4.062981992610e-06 -7.698310841143e-06 1.140420677512e-06
279 2 1.277235064281e-02 1.691754408584e-03 5.545944489700e-03 6.349491166566e-05 5.649107995969e-06 -1.192685553202e-04 1.068968413779e-01 -1.924000268091e-02 1.885358051209e-03 1.000000000000e-03 1.047197551197e-05 8.215967773883e-07 2.228647161239e-06 3.452111436555e-07
280 2 1.446918336651e-02 1.528236068675e-02 2.509458229794e-03 -4.016258735810e-05 -8.136112530438e-05 2.328507042889e-05 1.894783682303e-01 -6.648516039787e-02 -7.556154872256e-02 1.000000000000e-03 1.047197551197e-05 2.152384669508e-07 8.636443810910e-07 6.961204286800e-08
281 2 4.588827354858e-03 1.273217559154e-02 8.898591317190e-04 -2.584695436931e-05 5.615825714184e-05 7.365866822135e-05 -2.741805662504e-02 -2.743961315758e-02 1.466405331208e-02 1.000000000000e-03 1.047197551197e-05 3.158669203267e-07 5.836648258918e-08 -3.016203654088e-07
282 2 3.579430987205e-03 1.345345517003e-02 1.017053749079e-02 -4.704889161962e-04 2.442773240969e-04 6.236058886648e-04 7.901477811188e-01 -7.214822595975e-01 7.867395751101e-01 1.000000000000e-03 1.047197551197e-05 3.778468491070e-07 2.328241099341e-06 -3.533290440500e-06
283 2 1.123049573504e-02 7.985255970222e-03 7.837105662501e-03 -1.033196963848e-04 3.034628357732e-04 -1.406467313350e-04 -1.673502518776e-02 -3.342774234446e-01 1.969615932483e-01 1.000000000000e-03 1.047197551197e-05 5.013124993662e-07 -1.802270454438e-06 1.589981444226e-06
284 2 8.210097129898e-03 8.695110067897e-04 1.441992519863e-02 -1.181009156007e-04 4.865150205484e-04 1.867879959911e-04 3.244823808404e-01 -1.634631977877e-01 6.491988458140e-01 1.000000000000e-03 1.047197551197e-05 4.205768318050e-07 7.686072342709e-07 3.217237291304e-06
285 2 1.435269216865e-02 1.016352933198e-02 1.438567626229e-02 -3.329976716116e-04 1.244590587992e-04 5.085727449969e-05 2.363543656668e-01 3.747030665461e-01 9.194775108006e-01 1.000000000000e-03 1.047197551197e-05 3.156500380320e-06 5.624073350257e-06 -1.940403295854e-06
286 2 7.148281656625e-03 2.205163142235e-03 3.226522923033e-03 -7.209063013121e-05 3.310713086685e-05 2.946532378525e-04 -1.202030777633e-01 -3.854961147169e-02 -1.408676663692e-02 1.000000000000e-03 1.047197551197e-05 4.047880148382e-06 -3.176304176123e-07 -1.028243551072e-06
287 2 9.158136556887e-03 3.287648623471e-03 9.348952038499e-04 -6.160699043877e-05 -3.295483948462e-05 3.775539570304e-05 3.121024928556e-02 -2.690259808928e-02 -8.433670239273e-03 1.000000000000e-03 1.047197551197e-05 -3.391023041747e-08 4.496912849108e-07 -8.878780828209e-07
288 2 4.132908269854e-03 1.478105880778e-02 4.451122785415e-03 9.094299069002e-05 -7.609701949252e-05 3.552098336729e-04 2.230844617040e-01 1.015616369437e-01 -2.270722092792e-01 1.000000000000e-03 1.047197551197e-05 -5.474254189291e-08 2.162253449807e-06 -2.834593621984e-06
289 2 5.218220683659e-03 5.150320737088e-03 1.385330792614e-02 -1.374100918067e-04 -6.739140558384e-05 -1.752529800065e-05 9.225718847616e-02 -1.652273633371e-01 1.259656985548e-01 1.000000000000e-03 1.047197551197e-05 1.076630255565e-06 1.844656307561e-06 3.372780704462e-07
290 2 1.456449505472e-02 7.291919301171e-04 6.757145057005e-03 -4.199033261244e-05 3.269523072387e-05 1.065717746141e-04 1.948417723692e-01 1.542027781458e-01 -5.807545439928e-02 1.000000000000e-03 1.047197551197e-05 2.475136365665e-06 2.144967486590e-06 -8.170728443915e-07
291 2 1.494521174306e-02 6.312232676845e-03 1.440214532935e-02 -3.617727748545e-06 2.482862443763e-05 -1.938112568707e-05 5.144877132606e-02 2.746533035826e-02 -3.556568361015e-01 1.000000000000e-03 1.047197551197e-05 1.388277567078e-06 7.530143252562e-07 1.310280470762e-06
292 2 5.188187215634e-04 2.189741854036e-03 6.728681237496e-03 -6.188629367174e-05 1.782396486448e-05 6.111120626956e-05 -1.899356952372e-01 -2.086428859258e-03 7.940415285978e-02 1.000000000000e-03 1.047197551197e-05 8.706141952511e-07 1.768423554041e-06 -1.759759830421e-06
293 2 2.393789597551e-03 1.368924342388e-02 1.365967410190e-02 -3.297331003035e-05 6.371605640601e-04 5.311520358598e-04 -1.924445159939e-01 -3.164476588579e-01 -4.352583284303e-01 1.000000000000e-03 1.047197551197e-05 -1.730673679280e-06 -1.609155557933e-06 -4.842533774145e-06
294 2 2.581536105760e-03 8.023206089074e-03 1.441806327422e-02 1.566203528573e-04 6.043773535027e-05 9.384140860125e-06 -5.278050451376e-02 1.330929456972e-01 -4.415984574657e-01 1.000000000000e-03 1.047197551197e-05 -1.683648586276e-06 1.438589139093e-06 -4.448916885578e-07
295 2 1.038943311883e-02 1.186723719912e-02 9.471580248134e-03 -5.456759792296e-04 -4.335571119784e-04 -7.923567579802e-04 -1.703161237237e-01 1.301700944581e-01 -3.931783181303e-01 1.000000000000e-03 1.047197551197e-05 4.421872499089e-06 4.609798573526e-06 1.028913799663e-05
296 2 3.830449143786e-03 4.600458392465e-03 7.165129670033e-03 -3.266297002244e-04 5.610203971868e-05 6.234611621469e-05 -2.910799821812e-02 -1.008062346308e-01 -2.187685275613e-01 1.000000000000e-03 1.047197551197e-05 4.055055957040e-06 1.074242394387e-06 -8.594794134926e-07
297 2 3.379009745404e-03 1.360762079975e-02 1.203635459315e-02 -4.005425269227e-04 -2.713953372160e-04 4.937277714760e-04 -3.213100245089e-01 7.917150554456e-01 -2.604980058077e-01 1.000000000000e-03 1.047197551197e-05 3.931539204912e-06 3.001309033761e-06 -2.046523711158e-06
298 2 1.118823607534e-02 9.517726124633e-03 9.059518035928e-03 -2.861001420375e-04 1.845758051044e-04 1.589078570647e-04 2.311667341640e-01 2.883632660846e-02 6.023510994150e-01 1.000000000000e-03 1.047197551197e-05 4.194167741251e-06 -8.796278473068e-07 -1.005610081592e-06
299 2 7.569174309474e-03 1.227254536137e-02 5.601683646084e-03 1.087356952342e-04 -4.372741895535e-04 1.069581124014e-04 6.328752790179e-01 3.082316128955e-01 9.495023417595e-02 1.000000000000e-03 1.047197551197e-05 -1.059518690566e-06 2.193602872894e-07 -5.185013002628e-06
300 2 2.470713055324e-03 3.926742625267e-03 8.381546502567e-03 -4.803742911700e-04 1.078913992287e-04 -7.210787544297e-05 2.652015533651e-01 1.329910071131e-01 -8.476180665952e-02 1.000000000000e-03 1.047197551197e-05 5.146560348371e-06 4.175943215832e-07 6.274571686512e-07
301 2 1.432349103110e-03 6.028724220325e-03 4.845659545340e-03 -2.324649678394e-04 2.600510015572e-05 8.222870577163e-05 -5.105732470545e-02 -1.796286493905e-01 -1.901999313501e-03 1.000000000000e-03 1.047197551197e-05 1.018028221440e-06 6.578857841209e-07 3.305384562329e-08
302 2 4.919965287942e-03 4.419575448380e-04 5.799595294247e-03 1.584062797481e-04 -3.092920448703e-04 7.343270625404e-04 -3.537381487770e-02 -4.127702977825e-01 -1.322033603553e-01 1.000000000000e-03 1.047197551197e-05 -1.286901318263e-06 4.429465531191e-06 -5.664360773702e-06
303 2 1.612327548161e-03 1.696773551652e-03 5.263125115257e-03 6.670815638189e-05 -2.194014068203e-04 2.368987800638e-04 -5.218010376599e-02 -1.277584439291e-01 -8.334186509693e-02 1.000000000000e-03 1.047197551197e-05 1.411651491541e-07 4.617941979548e-06 -3.247747308183e-06
304 2 9.734804660270e-03 8.268271750649e-03 8.971934626642e-03 8.561324507330e-05 5.513737562917e-05 -1.680986515106e-04 6.937355071710e-01 4.102018819823e-01 -3.273347002654e-01 1.000000000000e-03 1.047197551197e-05 -6.857237174146e-07 2.131897312051e-06 4.122587896273e-06
305 2 9.417054437212e-04 1.299002647887e-02 1.007563109501e-03 -2.133942141102e-05 1.684520517733e-05 1.899177846203e-06 3.004860897152e-02 -1.455635766275e-02 1.075041561569e-02 1.000000000000e-03 1.047197551197e-05 1.018420642038e-06 -2.645207497712e-07 8.150812968656e-08
306 2 5.479370757856e-03 6.804060299669e-03 1.190132596901e-02 -1.301563662537e-04 6.048573508310e-04 -3.513177107161e-04 9.379577549038e-01 3.618449717897e-01 2.343242195631e-01 1.000000000000e-03 1.047197551197e-05 -5.717604001528e-07 -2.168132825523e-06 4.276269794077e-06
307 2 1.263198196444e-02 7.008443308078e-03 8.712839176035e-03 -1.616344390430e-04 2.088649036877e-04 6.298207449092e-05 1.024021049221e-01 1.851961809256e-02 -2.414259799222e-01 1.000000000000e-03 1.047197551197e-05 2.124028347587e-07 -1.348118614070e-06 -2.794675852861e-07
308 2 7.817099840767e-03 6.838380295069e-03 1.264588234920e-02 8.039995926114e-05 5.248630971812e-04 -5.489447578579e-04 1.462397255200e+00 4.726852591753e-01 2.979203072470e-01 1.000000000000e-03 1.047197551197e-05 -2.272486021658e-06 -4.648447738980e-06 6.495037095888e-06
309 2 8.724127217110e-03 3.917970354490e-03 8.860636410707e-03 -4.777685180085e-04 8.138321373544e-04 3.155541720050e-04 -7.194544187986e-02 -1.469046684612e-01 6.073102792713e-01 1.000000000000e-03 1.047197551197e-05 4.874606503503e-06 -5.910812581610e-06 -3.597167404481e-06
310 2 1.405726727280e-03 1.641151092857e-03 1.453750085581e-02 2.097650435504e-04 -1.074268654564e-04 -5.538020209869e-05 -6.754215143660e-02 -1.253555282198e-01 -1.923019567529e-01 1.000000000000e-03 1.047197551197e-05 -1.229906877527e-06 3.205187136555e-07 -4.991582411418e-07
311 2 3.862259482646e-03 2.707680929936e-03 8.028246502589e-03 -5.944316854723e-04 9.373062370399e-05 1.215322608234e-04 -4.691782946623e-01 -3.237131491817e-01 5.051556965094e-02 1.000000000000e-03 1.047197551197e-05 6.360634011856e-06 9.167681764149e-07 -1.750762300321e-06
312 2 5.013918473898e-03 9.252371124103e-03 5.688390331496e-03 5.061842074259e-05 4.845103756100e-05 1.346417889995e-04 2.676412938875e-01 9.374279221157e-02 -3.371331408205e-01 1.000000000000e-03 1.047197551197e-05 1.654550256140e-06 1.647484669272e-06 1.655326336071e-06
313 2 1.246910808908e-02 8.125852305835e-03 4.362305896590e-03 -1.595776442517e-04 2.735161693743e-05 -3.040709221725e-05 -3.550169781180e-02 -9.744476339118e-02 4.328142445212e-02 1.000000000000e-03 1.047197551197e-05 1.629747974289e-06 8.436342860884e-07 8.147719933635e-07
314 2 1.193493872697e-02 5.726607361420e-03 1.049195194979e-02 -1.046569387232e-04 5.060788804601e-04 8.964037808732e-05 -2.159521688679e-02 1.191050945827e-02 -2.865526318577e-01 1.000000000000e-03 1.047197551197e-05 1.139224679529e-06 -4.179844892484e-06 -1.125357955837e-06
315 2 6.976163756467e-03 3.716336445878e-03 1.061581085702e-02 -3.962639859163e-04 9.057880575618e-04 5.237837278803e-04 5.775988769541e-01 -3.445030554470e-01 2.622715397452e-01 1.000000000000e-03 1.047197551197e-05 2.408892261767e-06 -3.535871183856e-06 -3.457626987538e-06
316 2 6.618257266811e-03 1.458169167088e-02 7.236815194506e-03 7.410331888970e-04 -3.490007694042e-04 8.591123873472e-04 5.793054520680e-01 2.959907339945e-01 -1.681424636006e-01 1.000000000000e-03 1.047197551197e-05 -9.560440843114e-06 8.328918833477e-06 -2.883712824564e-06
317 2 5.622319581236e-03 4.772737129003e-03 1.322399821085e-03 -3.786876024073e-05 -1.003540054501e-04 8.922523344537e-05 -5.786558303604e-02 -2.417724401885e-05 3.850090585944e-02 1.000000000000e-03 1.047197551197e-05 1.610014292483e-07 1.497898980963e-06 -1.015617636224e-06
318 2 5.968011887345e-03 5.364768196583e-03 1.069327559609e-02 -1.834848434992e-04 6.830730545544e-04 -1.919765014009e-04 -1.040360503688e+00 -3.866538346503e-01 -3.705611995553e-01 1.000000000000e-03 1.047197551197e-05 1.204868265259e-06 -3.017752309337e-06 1.649485569903e-06
319 2 7.294658494516e-03 3.329922111893e-03 1.245476748622e-02 -5.577882987020e-04 7.088127697843e-04 3.933420609075e-04 -4.745486019615e-01 2.789877573411e-01 -7.328460696100e-01 1.000000000000e-03 1.047197551197e-05 4.263663209604e-06 -4.490544505830e-06 -3.835236285286e-06
320 2 1.842002296916e-03 1.207814483485e-02 1.447466373479e-02 -8.692132174238e-04 7.089990990612e-04 7.037263942007e-05 7.589365025639e-01 8.559698028109e-01 -9.568499314286e-01 1.000000000000e-03 1.047197551197e-05 -6.417779925471e-06 2.708140443501e-06 -6.793220047180e-07
321 2 2.366990620789e-03 1.493969937817e-02 2.123249825303e-03 2.900439482418e-05 5.153966205084e-05 3.563263301506e-05 4.612554196796e-02 5.205826240100e-03 1.142445293505e-01 1.000000000000e-03 1.047197551197e-05 -1.427472331357e-07 2.229419510349e-07 2.702137153815e-08
322 2 2.697572120445e-03 3.737098512376e-03 3.837922620963e-03 -7.739824463481e-05 3.332260117373e-05 7.929985392072e-05 4.794529997388e-02 -2.057779122909e-02 -1.002759764993e-01 1.000000000000e-03 1.047197551197e-05 1.206025765188e-06 6.104631422292e-07 -5.774602831524e-07
323 2 1.442854605276e-02 3.423897112772e-03 1.300144965632e-02 -5.391426254976e-05 -1.017963356095e-04 7.400396930679e-05 -3.535053279709e-01 -3.501103785794e-01 6.100625714189e-02 1.000000000000e-03 1.047197551197e-05 -6.399059888937e-07 -1.326227718538e-07 -2.853140998276e-07
324 2 1.439482397826e-02 1.471942216632e-02 8.189335049335e-03 -8.914168940208e-04 3.029197382536e-04 3.771874907064e-04 -7.087164879644e-02 -9.060406857100e-01 4.130641116438e-01 1.000000000000e-03 1.047197551197e-05 7.527463677231e-06 4.763497220495e-07 -5.140523103771e-06
325 2 1.364720580981e-02 6.820518933654e-03 1.302179556658e-02 -1.339366788069e-05 2.162020305295e-04 3.297584937810e-05 -5.896617211334e-02 4.474424352726e-02 9.939546463507e-02 1.000000000000e-03 1.047197551197e-05 3.436522131062e-06 1.519309001362e-06 2.025854988389e-06
326 2 1.087715376721e-02 1.291598929253e-02 1.818664427972e-03 5.094880269511e-05 6.800893266817e-05 2.783832792374e-05 2.842094573795e-02 -7.776994354574e-02 -8.147210408016e-02 1.000000000000e-03 1.047197551197e-05 4.023529164563e-07 2.448080972569e-07 2.241709991629e-07
327 2 1.375931097797e-02 1.083873462846e-02 7.848628179562e-03 -2.846874756173e-04 -8.273030070305e-06 -3.439399311423e-05 -2.376745890478e-01 -1.272225665670e-01 3.732455148909e-01 1.000000000000e-03 1.047197551197e-05 2.797266166012e-06 1.139339261352e-06 1.057936058241e-06
328 2 2.086311104033e-03 9.872945550776e-03 1.089392832028e-02 -1.421182072890e-04 9.754301345748e-05 -1.143967284021e-04 3.018151249442e-01 3.102666197533e-01 3.369240842097e-01 1.000000000000e-03 1.047197551197e-05 -1.834171902936e-07 3.088916086017e-06 3.118221686748e-06
329 2 1.066169913281e-02 1.023240840785e-02 4.202025702329e-03 1.235384468115e-05 -1.221480084109e-04 -2.191799344083e-04 2.084573456629e-02 9.389245015269e-02 1.695233036890e-02 1.000000000000e-03 1.047197551197e-05 5.091674218402e-07 1.357610256400e-06 2.123791148793e-06
330 2 7.605618069733e-03 4.227280039328e-03 7.289643492652e-03 -4.710188787954e-04 -9.594422181923e-05 2.563937935784e-04 -3.508542306351e-02 -1.445464058005e-01 6.690654531180e-01 1.000000000000e-03 1.047197551197e-05 4.313323213028e-06 5.953675637205e-06 -1.577857705710e-06
331 2 9.513770664303e-03 1.009558609105e-02 9.740158272945e-03 -5.150268034638e-04 5.448178262965e-04 3.826967119862e-04 -1.927647522917e+00 6.019045914041e-01 -3.637029479821e-01 1.000000000000e-03 1.047197551197e-05 5.987158989315e-06 -3.808918932210e-06 -4.508238686286e-06
332 2 1.474256084240e-02 1.260577096392e-02 6.670129346863e-03 -2.389093844723e-05 7.662049140333e-05 4.268902993939e-04 -8.566144552381e-02 -7.992632653028e-02 -7.594434250647e-02 1.000000000000e-03 1.047197551197e-05 -5.259569284240e-07 6.291639526326e-07 -3.261736887149e-06
333 2 7.721454113152e-04 9.176681357883e-03 8.918485048758e-04 -3.216012194316e-05 3.507657297865e-06 -5.043223928970e-06 -1.017158358598e-02 -2.364005004161e-02 2.534188271640e-02 1.000000000000e-03 1.047197551197e-05 2.522341481661e-07 1.451143442220e-07 3.402751423074e-07
334 2 1.284574173214e-02 8.681490803049e-03 1.440016921208e-02 1.179525013745e-04 5.513166945733e-05 9.585112822005e-05 8.317423673503e-02 -9.120387685641e-02 7.363389751418e-01 1.000000000000e-03 1.047197551197e-05 -2.090063747993e-06 -1.441904630318e-06 -7.050683066448e-07
335 2 1.277495845923e-02 1.398513401070e-02 2.301834808717e-03 1.809449803946e-04 -2.217887210361e-04 -2.204558258243e-04 -1.232600003412e+00 1.598266605071e+00 -1.814551914999e+00 1.000000000000e-03 1.047197551197e-05 -1.078054993669e-06 7.601360013582e-07 -4.105656581598e-07
336 2 2.063289429943e-03 8.951696988295e-03 4.588196287601e-03 -1.373229688365e-04 -3.519029840471e-05 -2.528927436037e-05 -2.236729215188e-03 -3.509933955593e-02 -2.060165726663e-02 1.000000000000e-03 1.047197551197e-05 1.453820021384e-06 1.318796687308e-06 1.316947845192e-06
337 2 8.636683811729e-03 4.305078203964e-03 1.446024972713e-02 -3.483362002039e-04 4.905956368991e-04 5.561157977187e-05 3.404159549854e-01 4.692877289038e-01 2.278678432547e-01 1.000000000000e-03 1.047197551197e-05 1.672631930747e-06 -1.718428516913e-07 -1.574736144686e-06
338 2 1.399557538120e-03 2.209327990674e-03 8.506805545456e-03 -5.840437928270e-04 -2.340847289252e-04 1.947945784057e-04 5.353309497896e-01 -7.059380064638e-01 -3.988122827935e-01 1.000000000000e-03 1.047197551197e-05 5.944817913335e-06 4.362972281099e-06 -2.492745141837e-06
339 2 5.203703733663e-04 7.613068096796e-03 1.005790217873e-02 -2.914801835558e-04 -5.516922429759e-05 5.775061768481e-05 6.109256392123e-03 -4.384564533340e-02 -6.942840661390e-03 1.000000000000e-03 1.047197551197e-05 1.231627853475e-06 2.052558267541e-07 5.714607101472e-07
340 2 6.621666602395e-03 7.873629600941e-03 6.121580115946e-03 -4.188017123414e-05 -6.608491056568e-05 1.515792785621e-04 -4.083779744156e-02 7.429271459018e-03 -8.243280028943e-03 1.000000000000e-03 1.047197551197e-05 2.245291817525e-06 1.974561815846e-06 -2.004843508815e-06
341 2 1.770426639784e-03 1.066394602574e-02 9.111551569144e-03 -2.235317894527e-04 2.788842580579e-05 -4.892041312497e-05 -3.836852709481e-01 -1.035666516099e-01 5.800043374590e-02 1.000000000000e-03 1.047197551197e-05 2.487444834097e-07 1.036836229055e-06 1.345964116026e-06
342 2 8.855977659322e-04 9.665290368092e-03 6.020061213785e-03 -1.579422753382e-04 -1.005081167560e-04 5.801623594921e-05 1.141320386965e-01 1.222342015365e-01 -1.676001486596e-02 1.000000000000e-03 1.047197551197e-05 1.449278677571e-06 1.603659298497e-06 5.018975484851e-07
343 2 6.322040092839e-03 1.250995420925e-02 4.259824192706e-03 -2.239305974500e-04 4.580848675797e-05 3.541489797376e-04 1.324915680519e-01 1.001539648905e-01 3.337512883758e-02 1.000000000000e-03 1.047197551197e-05 1.580185197845e-06 1.082383669898e-06 -2.565429191585e-06
344 2 8.920950007893e-03 5.143518626416e-03 1.291336343288e-03 -5.861699062939e-05 -1.741490256067e-05 6.115017164983e-05 -2.188760781123e-02 4.746561105895e-02 1.035675185228e-03 1.000000000000e-03 1.047197551197e-05 2.842813857657e-07 2.619670720215e-07 -7.372802839460e-07
345 2 6.259173332914e-03 2.305620889664e-03 8.673636771899e-03 -4.568417934202e-04 1.436073641610e-04 1.730639978906e-04 -1.371835935420e+00 -2.141770696293e-01 1.395116654242e+00 1.000000000000e-03 1.047197551197e-05 4.640366700277e-06 6.444566487063e-06 -1.304153560511e-06
346 2 1.216336997297e-02 1.436210903322e-02 6.790302195558e-03 5.578868540498e-05 3.417668778227e-04 2.364248987848e-04 -2.154027964554e-01 3.450211838695e-01 -3.779695656919e-01 1.000000000000e-03 1.047197551197e-05 2.426266075049e-06 -1.217923923680e-06 3.138914097340e-06
347 2 6.953791771454e-03 1.477725159442e-02 1.220854966950e-02 -8.078736012783e-05 1.506007708238e-03 9.501217254649e-04 3.215295612073e-03 -7.355643960666e-01 1.866483054284e+00 1.000000000000e-03 1.047197551197e-05 1.924410636905e-06 -1.116998187034e-05 -8.049496148951e-06
348 2 8.458057488483e-05 9.957003176691e-03 7.998687891692e-03 -1.652608804586e-04 2.075843819663e-06 -2.861809214111e-05 -4.704026673995e-02 2.143449468030e-01 -2.393999632812e-01 1.000000000000e-03 1.047197551197e-05 1.830862538093e-06 1.631765104220e-07 1.540784536432e-06
349 2 4.627916990517e-03 1.421609187431e-02 8.722450529119e-03 -1.821428667012e-04 -1.825919145068e-04 1.028685795869e-03 -1.108835760524e+00 1.526667477307e-01 -1.090917393460e+00 1.000000000000e-03 1.047197551197e-05 -2.002604001669e-07 2.592612205436e-06 -4.534895610889e-06
350 2 1.516861452377e-02 1.011403243670e-02 1.181358396868e-02 2.247702505912e-04 1.682215193953e-04 1.759544753862e-04 -3.393947142564e-01 9.434440749317e-01 2.367907209947e-01 1.000000000000e-03 1.047197551197e-05 2.770259304678e-06 6.872072584713e-07 -5.047092649449e-07
351 2 6.037341596063e-03 1.111486296728e-03 7.169539973858e-03 6.076641627128e-04 -6.602210841577e-04 9.759873186669e-04 4.766341307561e-01 8.578496638913e-01 4.801653534993e-01 1.000000000000e-03 1.047197551197e-05 -5.708042520267e-06 1.078470923514e-05 -7.368494397269e-06
352 2 1.413632137741e-02 8.263458330790e-03 1.756175948276e-03 -5.474748734608e-05 1.203356653525e-05 -9.120455188254e-07 -1.780410285450e-02 2.065162593295e-02 1.085880470814e-02 1.000000000000e-03 1.047197551197e-05 7.818415457399e-07 -3.904221891825e-07 2.449505401345e-07
353 2 7.991822681542e-03 7.610898941286e-03 1.439892304636e-02 -5.206500822279e-04 1.182742772877e-04 -2.592194951334e-04 -9.120421496878e-01 -7.617786652269e-01 5.321130299378e-01 1.000000000000e-03 1.047197551197e-05 3.060475055161e-06 3.096782051025e-06 1.854731875680e-06
354 2 4.519897662230e-03 8.442635574466e-03 1.449323088406e-02 1.604472656219e-04 -1.586472115880e-04 -3.362264816611e-05 -1.380416562786e-01 -9.127248471939e-02 -3.759562371670e-01 1.000000000000e-03 1.047197551197e-05 -1.651454375027e-06 5.891455570331e-06 4.647113773012e-07
355 2 1.317782688770e-02 1.663408445523e-03 9.562826355590e-04 -2.687618056087e-05 1.478852903931e-05 -1.176554664752e-05 3.021315623016e-02 -2.349310970636e-02 -2.021691795156e-02 1.000000000000e-03 1.047197551197e-05 6.921520001499e-07 -1.422681397481e-07 4.736038758863e-07
356 2 1.074036141124e-02 5.545059055774e-03 1.805495127628e-03 -6.394242473485e-05 -2.106242037271e-05 1.347277820891e-05 -3.140567862559e-02 -1.295265428223e-02 -1.214937293075e-02 1.000000000000e-03 1.047197551197e-05 2.742018859474e-07 2.599500776703e-07 -2.933891836746e-07
357 2 4.536132531544e-03 9.422324120654e-03 9.542316120861e-03 8.643936893093e-04 8.856426257156e-04 -6.520253206055e-04 1.844003153028e+00 -1.568733527323e+00 1.018235383470e+00 1.000000000000e-03 1.047197551197e-05 5.328314339757e-06 7.043808679916e-06 -2.401780853184e-08
358 2 9.622333572064e-03 1.130235111814e-02 2.895031606711e-03 -1.048375812187e-04 -1.014475317628e-04 -5.608364032013e-05 4.000888724517e-02 -2.954866482460e-02 9.309410367459e-02 1.000000000000e-03 1.047197551197e-05 1.287372585577e-06 5.873610464653e-07 4.518798549591e-07
359 2 2.632961319469e-03 3.699003379129e-03 1.052768871851e-02 -3.051904879638e-04 2.587485149429e-04 8.741520479303e-05 6.384533330512e-02 -9.750333154244e-02 -6.530874963419e-02 1.000000000000e-03 1.047197551197e-05 2.980297049653e-06 5.611975948311e-07 -7.661044913191e-07
360 2 1.204717760454e-02 1.080081022831e-02 1.269856844131e-02 -2.361392753196e-04 -4.833514392574e-04 -1.738230032600e-04 -1.313170914389e-01 5.822770720478e-01 4.190115481682e-01 1.000000000000e-03 1.047197551197e-05 3.224539000333e-06 5.167014679106e-06 2.787076894263e-06
361 2 8.746268734830e-03 1.226660428050e-02 8.180563106693e-03 4.278234634214e-05 4.344785775613e-04 -7.192993120771e-04 -1.545357928212e+00 -2.733491034036e-01 3.447699949986e-01 1.000000000000e-03 1.047197551197e-05 -4.935043408827e-06 -3.512363241234e-06 7.565652177709e-06
362 2 6.417004230222e-03 1.222363715587e-02 7.029129304018e-03 -1.714440302471e-04 4.312389367521e-04 1.395200538765e-04 -1.562812401809e+00 -7.152766127644e-01 -5.807885663120e-01 1.000000000000e-03 1.047197551197e-05 8.295229593798e-06 2.859251354635e-06 -8.029681734988e-06
363 2 5.524592686567e-03 1.082679797330e-02 4.536898314003e-03 -1.522174292588e-04 3.881051563426e-05 3.030963977474e-04 1.689905210027e-02 1.784215955017e-01 1.086950835240e-02 1.000000000000e-03 1.047197551197e-05 1.053281734872e-06 1.473135355402e-06 -9.202008880206e-07
364 2 1.037554855059e-02 6.323908250193e-03 3.476600816257e-03 -1.282203945417e-04 5.791419346161e-06 1.192623709174e-05 3.437602637689e-02 -6.067089824589e-02 -2.540886783554e-02 1.000000000000e-03 1.047197551197e-05 1.201689297395e-06 7.868575432120e-07 -3.207501842264e-07
365 2 5.761312212998e-03 4.969677430891e-03 5.141018317543e-03 -1.279408169283e-04 4.883120872498e-05 1.346565978944e-04 -3.611954205689e-02 3.828253451862e-02 8.762025472922e-02 1.000000000000e-03 1.047197551197e-05 1.419425505270e-06 9.464073514905e-07 -1.039105871324e-06
366 2 9.969934833960e-03 1.624411120520e-03 4.634168926758e-03 -3.432926304469e-05 6.234810228798e-05 1.583245214325e-04 -2.250980018771e-02 7.859780732455e-02 1.447863697755e-01 1.000000000000e-03 1.047197551197e-05 1.912862680059e-07 3.990773534961e-07 7.982427190246e-07
367 2 1.068823165929e-02 1.073542740695e-02 6.046605290673e-03 2.765601210771e-04 4.809463178552e-05 -4.662510221492e-04 -2.412803163915e-01 1.670948647043e-02 -2.863455352636e-01 1.000000000000e-03 1.047197551197e-05 -9.836996606880e-07 1.028304862322e-06 4.610065114131e-06
368 2 1.169123483393e-02 1.497727150862e-02 9.648984733106e-04 1.078096511191e-06 -1.907919859029e-06 2.975165978899e-05 1.851750298336e-02 1.627785409611e-02 -4.429350871551e-02 1.000000000000e-03 1.047197551197e-05 -3.596056058708e-07 5.780298154535e-07 -2.767875633534e-07
369 2 9.530836979239e-03 6.577990856752e-03 7.062576048033e-03 9.142729385753e-05 2.530004925028e-04 4.694150358591e-06 -5.490237992027e-02 1.704971765768e-01 -6.636185700884e-01 1.000000000000e-03 1.047197551197e-05 -5.760628827010e-07 -7.976925529035e-07 -1.695906438919e-07
370 2 2.920057985788e-03 3.227296538680e-03 1.448174965499e-02 -7.061694069168e-05 2.979930759001e-07 2.594769949065e-05 -2.595524864396e-02 3.830255695477e-02 1.552264653756e-01 1.000000000000e-03 1.047197551197e-05 8.749830906570e-07 8.436148334595e-07 -5.914872614303e-07
371 2 6.165448550771e-03 7.721406964241e-03 2.084379914219e-03 -8.539727064160e-05 2.133888322564e-05 4.814165943480e-05 1.647675596744e-02 -7.966749923954e-03 -3.480211584901e-02 1.000000000000e-03 1.047197551197e-05 7.744894806553e-07 1.314361609989e-06 -7.549109479246e-09
372 2 7.909525829281e-03 5.545102576117e-04 6.572464008300e-03 3.030297074296e-04 -1.658115678177e-04 7.401971257216e-04 -4.593601809697e-01 1.507541248014e-01 1.747814718833e-01 1.000000000000e-03 1.047197551197e-05 -1.788575992816e-06 3.089552828189e-06 -6.079105276984e-06
373 2 2.539612189891e-03 4.849403170877e-03 1.212827438397e-02 -2.076971677138e-04 2.034548408393e-04 4.196067350062e-05 -5.821442513828e-02 6.273245128457e-02 -1.352715374163e-02 1.000000000000e-03 1.047197551197e-05 2.072555040854e-06 1.295811800328e-06 -7.131953120537e-07
374 2 7.086149871782e-03 2.269098299072e-03 6.045018324835e-03 -7.900241832652e-05 -7.278625444733e-05 5.058859257652e-04 5.462766236247e-02 -2.840762430493e-03 -9.054102242814e-03 1.000000000000e-03 1.047197551197e-05 1.096139691406e-06 3.217018689263e-06 -4.088711891603e-06
375 2 7.234872994479e-03 1.096992315641e-02 3.437283409035e-03 -1.349191569946e-04 7.901953754311e-05 1.663141567019e-04 8.032383264692e-02 1.682633087234e-01 -4.231077929742e-02 1.000000000000e-03 1.047197551197e-05 1.099210609855e-06 1.464541273300e-06 -2.496830444897e-07
376 2 8.592379398388e-03 4.857563540886e-03 3.193220518284e-03 -7.031984666170e-05 2.503961195448e-05 1.173911544332e-04 -5.313965087328e-02 -3.201495827824e-02 -8.025508296862e-03 1.000000000000e-03 1.047197551197e-05 8.756640031112e-07 6.989249892429e-07 -8.614051734637e-07
377 2 1.098592563372e-03 3.498463696601e-03 1.160071230037e-02 -4.112195885455e-04 -2.325021791492e-05 -9.534231583422e-06 3.141924298392e-01 5.637417256908e-03 -6.445345851130e-02 1.000000000000e-03 1.047197551197e-05 3.596968234396e-06 1.105587333513e-06 2.059279436601e-07
378 2 5.723112139241e-03 3.802292339819e-03 3.016758496338e-03 -8.487351938994e-05 1.515638432897e-05 2.541854055686e-04 -1.502381443550e-01 2.471762659875e-02 -1.241767053116e-01 1.000000000000e-03 1.047197551197e-05 1.842110578253e-06 1.093800262655e-06 -2.700778653652e-06
379 2 1.516367557884e-02 6.489096724552e-03 1.202170300419e-02 -9.186202323075e-05 1.176614857088e-04 3.654002081966e-06 -9.301007795097e-02 1.169730155341e-01 -1.444563160719e-01 1.000000000000e-03 1.047197551197e-05 1.896478363361e-06 1.941799166033e-06 -2.906741720391e-07
380 2 3.685582107779e-03 6.480136516380e-03 1.258039000602e-02 -1.929286121892e-05 1.453452458249e-04 -1.537851399104e-04 -1.204750510998e-01 2.217711039912e-02 9.904069147704e-02 1.000000000000e-03 1.047197551197e-05 -1.156022939577e-07 2.596563291382e-06 1.426772794549e-06
381 2 3.475699332565e-03 1.428936674855e-02 8.510776916154e-04 2.839705573308e-05 8.438435248695e-05 1.405108304956e-05 -8.446799774892e-02 3.245049100191e-02 -5.313638367664e-02 1.000000000000e-03 1.047197551197e-05 -4.902028790698e-07 -4.595022189551e-07 -7.730170457893e-08
382 2 1.318279769344e-02 2.492039786539e-03 1.439186265431e-02 5.006130411554e-05 3.342056829930e-05 -9.013660937940e-05 7.193584747982e-03 -1.352595373745e-03 2.812503224548e-01 1.000000000000e-03 1.047197551197e-05 2.501294195052e-06 -6.428588389790e-07 1.036170285743e-06
383 2 3.181326211490e-03 1.403290806658e-03 1.398778242984e-02 2.228268710599e-04 5.454953160723e-05 -4.566788256955e-04 6.608271004609e-01 2.887780398294e-01 1.899689945477e-01 1.000000000000e-03 1.047197551197e-05 -1.022074339416e-06 1.300160770394e-06 5.709205138474e-07
384 2 9.065546542573e-03 2.232834113454e-03 7.953604940452e-03 -5.119628130456e-04 5.475317254631e-04 5.322758417379e-04 -1.759171439960e-01 -2.197809251906e-01 -1.058103148336e+00 1.000000000000e-03 1.047197551197e-05 3.982223144958e-06 -4.432513381063e-06 -2.898485599283e-06
385 2 8.039994307249e-04 8.550661355100e-03 1.158323560415e-02 -6.935391369066e-05 5.764635739114e-05 -4.139663855717e-05 -1.904839433818e-01 2.760450497342e-01 -2.487152319459e-01 1.000000000000e-03 1.047197551197e-05 1.259860114681e-06 2.881724730947e-07 8.478714577862e-07
386 2 2.483682612920e-03 1.518622436121e-02 5.401916794651e-03 9.382081951998e-05 -5.893307216918e-05 4.674900479493e-04 2.849580761324e-01 -1.284990573324e-01 -2.883318502835e-02 1.000000000000e-03 1.047197551197e-05 -2.912186670814e-07 1.710206635845e-06 -4.512286348663e-06
387 2 9.727999461798e-03 2.385235973437e-03 9.879971936101e-03 -4.020532660200e-04 -1.290665071466e-04 -3.860646321627e-04 6.453097116215e-01 4.271808699033e-01 -7.056663086542e-01 1.000000000000e-03 1.047197551197e-05 1.693828761221e-06 5.920995564355e-06 5.356761622692e-06
388 2 1.154786692755e-02 6.592274963613e-03 4.953922710334e-03 -1.841091881837e-04 1.453055974604e-05 2.087130713865e-05 -7.499258087451e-02 -2.948623414053e-02 -1.005097482208e-03 1.000000000000e-03 1.047197551197e-05 1.845132948090e-06 1.402857816537e-06 -3.397243093922e-07
389 2 7.037547960379e-03 1.469732193573e-03 1.304259905906e-02 -2.398276652690e-04 6.523139297637e-04 3.144910734855e-05 1.028675617386e+00 -3.483577436137e-01 9.375595734335e-01 1.000000000000e-03 1.047197551197e-05 2.139882226751e-06 -3.949912476285e-06 3.917379627108e-06
390 2 9.854798526790e-04 5.328065879876e-03 1.111617888375e-02 -3.424720425184e-04 4.864472218603e-06 1.262001580906e-04 -1.781601982118e-01 1.221096708189e-01 4.305830344688e-02 1.000000000000e-03 1.047197551197e-05 2.920284484213e-06 1.445422316949e-06 -2.064760910927e-06
391 2 3.510844533971e-03 1.517075179890e-02 1.316031022733e-02 2.232766130062e-04 1.395604770304e-04 -5.867997399780e-04 -1.002391396677e+00 3.446568552499e-01 1.195170323407e-01 1.000000000000e-03 1.047197551197e-05 -4.903097505452e-07 9.301899149507e-08 2.362981365143e-06
392 2 8.726675726959e-03 1.480638631494e-02 1.131979204571e-02 -4.629590810757e-04 1.586370917071e-02 4.221838846185e-04 7.977020966439e+00 8.550409117361e-01 1.058774803133e+01 1.000000000000e-03 1.047197551197e-05 3.488139421795e-05 -2.027410662024e-04 2.905323610384e-05
393 2 2.406602673185e-03 6.855991183929e-03 3.446982392843e-03 -1.083446227118e-04 -2.641502418663e-05 7.536529444526e-05 -5.070877227232e-02 2.868084393681e-02 -1.275820615324e-02 1.000000000000e-03 1.047197551197e-05 1.221315692130e-06 1.297831191910e-06 6.824078408704e-07
394 2 1.414760542723e-02 1.300131952277e-02 4.915541888695e-03 -2.517062096212e-05 -1.082276896067e-04 2.697344068120e-04 -1.475415744528e-01 1.435332343772e-01 -1.199929158131e-01 1.000000000000e-03 1.047197551197e-05 -6.245332600668e-07 1.681950411792e-06 -2.338700369022e-06
395 2 1.034308279494e-02 1.401582902848e-03 1.288571392200e-02 -4.274791975796e-04 6.424041055203e-04 2.545993886809e-04 -4.033317850023e-01 -8.791838719613e-02 -5.431749101151e-01 1.000000000000e-03 1.047197551197e-05 4.295461187472e-06 -3.900670206476e-06 -1.847945292430e-06
396 2 1.989896706031e-03 1.259465279733e-02 9.438688264041e-03 -2.543241254393e-04 9.738178454437e-05 -9.446670104581e-06 5.113437569939e-01 6.632577775979e-01 9.129129756388e-02 1.000000000000e-03 1.047197551197e-05 5.010976885666e-07 1.757593905962e-06 -1.198099012181e-06
397 2 1.029581672426e-02 9.033467998326e-03 1.242318213800e-02 -5.621879798653e-05 -1.902498190657e-05 1.037210605112e-04 9.454191821894e-02 5.067524677868e-02 1.445855110917e-01 1.000000000000e-03 1.047197551197e-05 -4.725558650442e-06 7.114651865409e-06 -7.131826105389e-06
398 2 1.259430599361e-03 1.408505739413e-02 3.371041170341e-03 2.069055167128e-04 -1.317302870745e-04 1.166223288180e-04 -2.989186414169e-03 1.149955644195e-01 1.194524543537e-01 1.000000000000e-03 1.047197551197e-05 -1.679783907489e-06 2.200635984207e-06 -4.566574278983e-07
399 2 1.362931643676e-02 1.519305484026e-02 8.832711203920e-04 1.647366871344e-05 3.687526744609e-05 1.236217073710e-07 -4.656826369335e-02 1.182525047539e-02 8.248182013572e-02 1.000000000000e-03 1.047197551197e-05 -3.646093244863e-07 -7.761396252940e-07 2.311696684236e-07
400 2 3.494641744488e-03 9.839837344099e-03 1.217734741231e-02 -3.550996765871e-04 5.433798464441e-04 2.371968178837e-04 -2.479850410039e-01 -7.720150230228e-01 1.696641581889e-01 1.000000000000e-03 1.047197551197e-05 1.851448785607e-06 3.429683113089e-06 9.872241096060e-07
401 3 2.864516421145e-03 9.733934480174e-03 1.102471946607e-03 -4.502001078544e-05 3.064842480348e-05 2.611943624437e-05 -2.070301864058e-02 -3.411538866701e-02 -7.458996952822e-03 1.250000000000e-03 2.045307717181e-05 9.886850698872e-07 7.013466977411e-07 8.095256863410e-07
402 3 8.641500900547e-03 1.723152281547e-03 1.162180033839e-02 -2.983189030904e-04 8.739176340214e-04 2.104944121416e-04 -1.075646821411e+00 2.082409961055e-01 -5.303851528283e-01 1.250000000000e-03 2.045307717181e-05 1.207825658493e-05 -1.849009866916e-05 1.044299344095e-06
403 3 1.420452329865e-02 8.781015966237e-03 6.567043465285e-03 -2.057844588492e-04 -8.709159529065e-05 2.245525376283e-05 3.431597984315e-03 -6.751774384180e-03 8.581535052668e-02 1.250000000000e-03 2.045307717181e-05 4.355265357972e-06 2.796689690007e-06 1.504640734767e-06
404 3 1.060196522231e-02 1.308769645780e-02 7.643438772132e-03 7.231288411815e-05 -9.727338983856e-05 -7.133433026833e-04 5.798696415140e-02 -1.292458458233e-01 -2.313767702274e-01 1.250000000000e-03 2.045307717181e-05 -4.179542859029e-06 3.930256814221e-06 1.839700359202e-05
405 3 2.558342909105e-03 1.146186959446e-03 7.100045644296e-03 -1.863889918806e-04 -1.368344794385e-04 4.850120398854e-04 -1.238238034060e-01 -1.311146692365e-01 -3.579892000914e-02 1.250000000000e-03 2.045307717181e-05 4.890177136904e-06 6.568250572583e-06 -1.028242220810e-05
406 3 1.381658599083e-02 1.508884342499e-02 4.445330694843e-03 2.558663173726e-05 -1.013079789647e-04 4.296608977236e-05 -1.070220404365e-01 1.175846318932e-01 -2.709339669245e-02 1.250000000000e-03 2.045307717181e-05 -2.370813301611e-06 3.582501230004e-06 -1.255573382564e-07
407 3 2.659751026374e-04 5.146646648006e-03 3.210739220702e-03 -1.235698122444e-04 4.569048344988e-07 4.245170336903e-05 -9.371002124954e-03 3.582728613363e-02 -4.119087760106e-02 1.250000000000e-03 2.045307717181e-05 2.365865379622e-06 1.656780468355e-06 -1.351726325346e-06
408 3 5.962938813797e-04 1.177332357396e-02 4.801716980828e-03 1.333600670493e-04 1.294564648495e-05 2.757329312930e-04 -2.501074643545e-02 9.363289423520e-02 -5.279888064431e-02 1.250000000000e-03 2.045307717181e-05 -3.194593403202e-06 2.538420390368e-06 -2.200609928024e-06
409 3 4.879394956380e-03 9.374478918482e-03 2.803367702189e-03 -8.293414590365e-05 3.461176189104e-05 6.293127072241e-05 3.676386674772e-02 4.811946911302e-03 1.515358535025e-02 1.250000000000e-03 2.045307717181e-05 2.630284091709e-06 2.514074269225e-06 2.944123031868e-07
410 3 1.173614248490e-02 6.652111935788e-04 4.052352274863e-03 -3.403197421677e-05 -5.979147659234e-06 1.302178598946e-04 -2.558529901793e-01 1.739864016424e-01 -1.004711520276e-01 1.250000000000e-03 2.045307717181e-05 -3.001782255362e-07 4.066078510329e-06 3.868852319678e-06
411 3 3.894036606648e-03 1.346581811310e-02 2.803810785802e-03 -1.366386045907e-04 1.293414579103e-04 7.779885551282e-05 3.598871187470e-02 -1.099542873737e-01 -1.223057445275e-01 1.250000000000e-03 2.045307717181e-05 2.353138815327e-06 4.216531341241e-07 -6.396434944340e-07
412 3 1.251358306087e-02 1.400194217665e-02 1.378070692140e-02 -5.218085059097e-04 -1.951327742254e-04 2.223730339098e-04 -5.609668201403e-01 6.550132926957e-01 -2.064447527776e-01 1.250000000000e-03 2.045307717181e-05 5.021337916416e-06 8.284962150765e-06 1.318978823347e-06
413 3 9.595283652242e-03 1.476162595884e-02 1.553734317513e-03 -4.967372984071e-05 6.123592348587e-05 9.357260330986e-05 -1.069312284617e-02 8.809960260820e-03 -1.188697791015e-03 1.250000000000e-03 2.045307717181e-05 -2.647477558837e-07 -3.515552508678e-07 7.671478616257e-07
414 3 1.141059397401e-02 1.381436247971e-02 9.809706155103e-03 -2.347702955327e-03 -5.737466149029e-04 1.189960573213e-04 6.984744590367e-01 -1.877578280489e+00 1.256646975646e+00 1.250000000000e-03 2.045307717181e-05 4.795097181898e-05 1.671370752167e-05 4.040038055863e-06
415 3 4.239484679447e-03 1.073421154148e-02 1.397548339137e-02 -4.491288347804e-04 3.115674108860e-04 3.578367013021e-04 2.653182484068e-01 2.384442183165e-01 -5.189308546931e-01 1.250000000000e-03 2.045307717181e-05 1.634491504639e-05 -9.313877870703e-06 1.121469409169e-05
416 3 1.073661207556e-02 4.640299730326e-03 1.408575278388e-02 -3.078060677141e-04 2.249892313561e-04 -4.581820703192e-05 -1.883976212659e-01 -3.443429098841e-01 -3.701270526545e-01 1.250000000000e-03 2.045307717181e-05 4.946737078571e-06 3.351607128697e-07 -1.430496826562e-06
417 3 1.557572201110e-04 1.091915459099e-03 1.191792937009e-02 -8.991003869777e-04 -8.231416888128e-05 2.682549960345e-04 2.949654232053e-01 4.110463924099e-01 -1.418341537544e-01 1.250000000000e-03 2.045307717181e-05 9.765502911421e-06 2.684609406289e-06 -7.337019577673e-06
418 3 2.046890844801e-03 6.373326376119e-03 1.176497998865e-03 -3.448239226094e-05 -5.424720997887e-06 2.787212400872e-05 -7.072908333520e-03 -1.837880939600e-02 1.513664032307e-03 1.250000000000e-03 2.045307717181e-05 1.554219128226e-06 7.876066930118e-07 -9.242280211535e-07
419 3 1.371690725279e-02 9.290276552739e-03 9.569836974812e-03 -2.360281599087e-04 3.960944879649e-05 -5.580042206055e-05 -1.090624146081e-01 2.950157770763e-02 -8.459127142167e-02 1.250000000000e-03 2.045307717181e-05 1.385194662145e-06 2.956332362538e-06 3.083494444210e-06
420 3 7.095352868260e-03 1.195007300818e-02 1.426807157861e-02 -5.648094094052e-04 3.634763672032e-05 1.889477421478e-04 4.932897930028e-02 4.621772681980e-01 -5.261772120014e-04 1.250000000000e-03 2.045307717181e-05 1.564539761350e-05 1.061536281193e-05 -1.143526502019e-06
421 3 5.227096465313e-03 7.324914997604e-03 4.058623323142e-03 -9.251958796720e-05 6.099519364649e-05 7.623138427737e-05 -5.087639193206e-02 2.185075068207e-02 -3.911269137444e-02 1.250000000000e-03 2.045307717181e-05 2.403650561866e-06 3.005209308700e-06 -3.341240071679e-07
422 3 6.817445017571e-03 1.163781320885e-02 1.199921544909e-02 -3.244097009300e-04 1.355579429975e-03 1.325789995491e-04 1.137572762688e+00 -5.091476606425e-01 1.494428533116e+00 1.250000000000e-03 2.045307717181e-05 1.032894875170e-05 -1.228566158607e-05 1.886118302031e-06
423 3 1.496677843510e-02 1.290654994001e-02 2.859001047016e-03 9.911429729140e-05 -3.771482430767e-05 2.265413802222e-04 -3.292483058209e-02 2.494737720871e-02 -1.650931184867e-01 1.250000000000e-03 2.045307717181e-05 -8.849843506930e-07 2.100537376665e-06 -3.880541611786e-06
424 3 1.192074775075e-02 4.292463622157e-03 7.869809214728e-03 -4.039769163798e-04 -6.716731392180e-04 -1.810717796229e-04 4.599834622261e-01 -1.913082394819e-01 3.116463634507e-01 1.250000000000e-03 2.045307717181e-05 7.444786618172e-06 1.337747200232e-05 1.654802887366e-06
425 3 5.273363627766e-03 7.138689610640e-03 9.615114721986e-03 -3.461487696695e-04 2.925365098273e-04 -2.287808798920e-04 5.521368817382e-01 6.082097186124e-01 4.167939290910e-01 1.250000000000e-03 2.045307717181e-05 6.070197419105e-06 -3.583009916292e-07 5.739393780435e-06
426 3 3.327724355440e-03 2.828652940270e-03 1.239155711303e-02 -2.232041874841e-04 2.254398026650e-04 6.129183989300e-06 -2.510471675694e-03 1.473583611022e-01 -4.025976685195e-02 1.250000000000e-03 2.045307717181e-05 6.107225125662e-06 3.506334460807e-06 -2.237163119200e-06
427 3 1.061720991560e-02 6.158269678798e-03 8.846568522463e-03 1.051019273592e-04 1.736563727767e-04 -5.460841915097e-05 -8.042077910548e-02 -1.308031994798e-01 3.538851145223e-01 1.250000000000e-03 2.045307717181e-05 -3.202932400550e-06 -4.395826148765e-06 -6.118913350300e-07
428 3 1.023614838288e-02 8.402552832860e-03 5.997244496899e-03 -9.907104582464e-05 1.690744515210e-04 -1.064671767955e-04 7.264756669062e-02 2.489438860359e-01 1.484193444404e-01 1.250000000000e-03 2.045307717181e-05 3.293594933833e-06 2.524543948998e-07 1.594919047518e-06
429 3 7.873217321648e-03 9.077823379813e-03 1.257338368085e-02 -5.506504457823e-04 8.669787006913e-04 -7.781816176259e-04 6.570451820148e-01 4.314888804196e-01 5.141241398205e-01 1.250000000000e-03 2.045307717181e-05 8.236115038203e-06 -1.694946125372e-05 1.706502279162e-05
430 3 1.239269217310e-02 3.521370929811e-03 1.028177614833e-02 -7.275403181670e-04 -5.810731439355e-05 -7.949643977848e-05 3.247971162221e-01 3.594046684074e-01 2.979776198984e-01 1.250000000000e-03 2.045307717181e-05 1.233420878926e-05 3.939812260784e-06 2.697939501492e-06
431 3 4.781708508231e-04 1.430837899165e-02 5.356427627220e-03 8.669081133107e-05 -7.514072392696e-05 1.543136253731e-04 -7.986165606918e-02 -1.409065542181e-01 1.713793019507e-02 1.250000000000e-03 2.045307717181e-05 -2.561985010652e-06 4.178941977369e-06 -2.782671400139e-06
432 3 3.008514372134e-03 6.425275854153e-03 1.060313651938e-02 -7.846968053236e-05 1.643056362591e-04 -1.010337816078e-04 2.260448936454e-03 2.679581320039e-02 -1.665373571729e-01 1.250000000000e-03 2.045307717181e-05 5.926303261561e-06 4.314953178703e-06 -1.842981865363e-06
433 3 4.886012134271e-03 6.662056936839e-03 6.311977324105e-03 -1.481676065113e-04 1.238486609253e-04 1.093295606033e-04 2.883825481590e-02 -2.899426085471e-02 -1.430495618008e-01 1.250000000000e-03 2.045307717181e-05 6.358400863048e-06 2.857956011565e-06 -2.013153732371e-07
434 3 1.405802095303e-02 5.330965457217e-03 7.588475516535e-03 -3.698356434626e-04 -8.609606385900e-05 1.141861076191e-04 5.798559662236e-02 2.276057960003e-02 2.353310471184e-02 1.250000000000e-03 2.045307717181e-05 3.255316071717e-06 5.187416834298e-06 -5.159411891201e-07
435 3 3.528538398741e-03 6.410768606173e-03 8.176263011853e-03 -3.782804773327e-04 1.482853600343e-04 -3.297708033439e-05 -1.529342458049e-02 -1.924457997791e-01 1.031557005943e-01 1.250000000000e-03 2.045307717181e-05 7.621304498817e-06 9.534349173232e-07 -6.618607851002e-07
436 3 5.412230696001e-03 3.330032078971e-03 6.652452369411e-03 -2.570793781446e-04 -7.291533875006e-05 3.840768476803e-04 -6.790397393785e-02 -1.817385820633e-01 8.955381046442e-02 1.250000000000e-03 2.045307717181e-05 6.124580053381e-06 5.785522865490e-06 -8.018926325003e-06
437 3 1.287243109998e-02 1.008139990808e-02 5.158084099489e-03 -1.988215489731e-04 -1.796177710601e-05 9.447784340855e-05 1.274260710022e-01 -2.203526203270e-02 -4.687740657414e-02 1.250000000000e-03 2.045307717181e-05 3.767248177060e-06 1.599986636255e-06 -2.536588164845e-07
438 3 6.768334917516e-03 9.128182606949e-03 4.450677733943e-03 -8.772531819869e-05 6.493001523144e-06 7.036212782606e-05 5.391951876022e-02 1.585466724363e-02 3.609587403559e-03 1.250000000000e-03 2.045307717181e-05 2.476039380764e-06 3.311532944948e-06 -5.236115463089e-07
439 3 1.508009751993e-03 1.301233214348e-03 1.094382182549e-03 -5.455517414799e-06 -9.382887147190e-06 7.401170056215e-05 -4.783441979551e-03 -1.094877560376e-03 -2.018818420301e-02 1.250000000000e-03 2.045307717181e-05 -7.458764400064e-07 -8.056633920858e-08 -1.638358531111e-06
440 3 4.044838672483e-03 8.648243719591e-03 7.522353344152e-03 -2.222781470594e-04 1.582381091868e-04 -2.205456768372e-05 -1.119071065492e-01 -2.633697602736e-01 -1.183686516129e-02 1.250000000000e-03 2.045307717181e-05 5.127392948014e-06 1.905622038837e-06 5.719846531011e-06
441 3 6.475818560506e-03 1.047046090506e-03 1.081003991007e-02 -1.488625294958e-04 5.389015816513e-04 2.101550953801e-04 -7.638653900296e-01 -8.008663115875e-01 -1.103839889399e-03 1.250000000000e-03 2.045307717181e-05 5.726356472266e-06 -4.823196433437e-06 1.337038874875e-06
442 3 3.586253995817e-03 1.128163984222e-02 1.017347800020e-02 -2.538884303426e-04 8.084613737853e-05 6.079796353994e-05 -4.955245297897e-02 -2.989207869683e-01 -2.785988709462e-01 1.250000000000e-03 2.045307717181e-05 4.512045429270e-07 5.997720936008e-06 2.766120630363e-06
443 3 1.379717353900e-02 7.084831459948e-03 1.053122897949e-02 -1.988079857490e-04 -8.116156024789e-06 4.796204096756e-05 4.363125368474e-03 -2.178401882353e-02 1.683636016285e-01 1.250000000000e-03 2.045307717181e-05 -3.818848006603e-06 4.632957296777e-06 2.665252141325e-06
444 3 7.300936813726e-03 9.314581625695e-03 1.002032943648e-02 -4.431632855992e-05 2.895387802866e-03 2.416169886860e-03 4.965227677652e-01 4.318250238572e+00 -2.733524903610e+00 1.250000000000e-03 2.045307717181e-05 5.611905302600e-06 -4.905000565529e-05 -3.427235770484e-05
445 3 1.144662534852e-02 2.077695282195e-03 8.616772761926e-03 -2.345715443526e-04 -9.952432651090e-04 1.413835755974e-04 -9.223714727491e-01 -7.447277010658e-01 1.821274582051e-01 1.250000000000e-03 2.045307717181e-05 -5.029063002682e-06 1.753297012855e-05 -8.030840010188e-06
446 3 9.053088959368e-03 7.902275016268e-03 1.095582960732e-02 -1.148083344369e-04 7.343713430890e-04 -4.321053871146e-04 -1.077990648900e+00 -5.737198678762e-01 4.093608031880e-03 1.250000000000e-03 2.045307717181e-05 3.984653459767e-06 -1.509160515155e-05 1.486581154535e-05
447 3 3.085155631849e-03 5.290609326991e-03 1.424640067895e-02 -4.520686284197e-05 7.931555504594e-05 -1.764628505405e-05 5.954331150520e-02 8.048923166951e-02 -1.866188270346e-01 1.250000000000e-03 2.045307717181e-05 1.776658196931e-06 -7.678073667364e-07 -1.567558345536e-07
448 3 1.139835603061e-02 7.878189993720e-03 1.047907191846e-02 1.637662610983e-04 3.249747679314e-04 6.532452547439e-05 -1.273015395015e-01 1.373884273739e-01 -7.128511838250e-02 1.250000000000e-03 2.045307717181e-05 5.480103009140e-06 -9.739639058242e-06 -6.330524485905e-06
449 3 3.587683756639e-03 4.388159442595e-03 1.964756825333e-03 -2.443209868520e-05 -5.070946735189e-05 9.047138195173e-05 -4.682521430089e-02 -1.388313060063e-02 -2.174309322193e-02 1.250000000000e-03 2.045307717181e-05 -1.393601675590e-07 2.757101491907e-06 -1.737476011963e-06
450 3 7.899150465037e-03 1.416909620240e-02 1.413947595398e-02 3.117982712907e-05 1.696592524922e-04 -8.087989574310e-05 -8.712854617745e-02 5.071501086581e-02 -4.133516007212e-01 1.250000000000e-03 2.045307717181e-05 -5.103895193996e-06 1.322497213541e-05 5.529176754878e-06
451 3 1.511236822289e-03 6.619512870882e-03 1.320203929480e-02 -3.095508552430e-05 1.457307996828e-04 8.474280060033e-06 -1.361759196617e-02 -1.114493372287e-01 1.285886104831e-01 1.250000000000e-03 2.045307717181e-05 6.864542851064e-06 -2.459980170148e-06 -4.008900202153e-06
452 3 1.858185582382e-03 1.398546020899e-02 7.207503092339e-03 -2.518993178908e-04 4.620901226486e-05 5.806554412363e-04 -9.656724345967e-02 -2.385221249301e-01 -6.061533329544e-02 1.250000000000e-03 2.045307717181e-05 3.133692853342e-06 3.437459406336e-06 -9.581738632041e-06
453 3 1.032011777848e-02 1.294198121017e-02 1.359384628731e-02 -2.822164186502e-04 1.614604821978e-04 -1.204804602879e-03 -7.710463549028e-01 -2.772748825410e+00 6.605357576029e-03 1.250000000000e-03 2.045307717181e-05 1.416557796121e-06 4.889559786060e-06 4.781764995191e-05
454 3 7.786354020767e-04 4.460697564474e-03 1.422576520541e-02 6.348928142411e-05 -2.047000536200e-05 -4.191848756978e-05 -3.012522108565e-04 -6.906183040295e-02 2.984766588640e-01 1.250000000000e-03 2.045307717181e-05 -1.863918360579e-06 -6.274399905806e-07 8.430174916376e-07
455 3 1.508316704126e-02 8.319779518932e-03 1.335341968354e-02 1.847047963827e-04 7.978018017383e-05 2.524256356623e-04 4.427153305660e-01 1.213513630475e-01 -2.336788493103e-01 1.250000000000e-03 2.045307717181e-05 4.475859731468e-06 2.565828879819e-06 -3.648623005011e-07
456 3 4.298187411551e-03 4.602356928262e-03 9.534621242261e-03 -2.055924218821e-04 2.089840314859e-04 5.392980736763e-05 -1.076943323738e-01 9.068028028645e-02 9.833758774636e-02 1.250000000000e-03 2.045307717181e-05 1.031847866845e-06 1.500206679225e-06 -1.337857274334e-06
457 3 3.589665891767e-03 1.245609412466e-02 6.938719262032e-03 -3.227612356585e-04 -3.450255307480e-04 6.174338129626e-04 5.785714347610e-01 -3.151486472298e-01 -3.457512737428e-01 1.250000000000e-03 2.045307717181e-05 3.098827315502e-06 6.091939482082e-06 -7.337024940447e-06
458 3 1.248018748692e-02 1.199939015332e-03 1.249758099937e-02 -5.065569354272e-04 5.560676301941e-05 -1.911179515858e-04 3.080361950048e-01 4.536582393085e-01 3.293945213077e-02 1.250000000000e-03 2.045307717181e-05 6.504540628115e-06 4.139029936681e-07 3.719552361534e-06
459 3 5.535587582338e-03 2.549711021183e-04 2.971255951708e-03 -6.793825222304e-05 -4.772166324743e-05 2.565710957723e-04 1.899954507532e-02 1.567186439404e-01 -2.741123195995e-02 1.250000000000e-03 2.045307717181e-05 4.453370825008e-06 5.300022740198e-06 -1.863661488406e-06
460 3 1.185599565938e-02 2.659510990509e-03 2.856896905128e-03 -4.712371158934e-05 -4.751455138065e-05 -1.027937179550e-05 7.788244372776e-02 7.212685751890e-04 6.772500913686e-03 1.250000000000e-03 2.045307717181e-05 -5.939002810626e-07 1.598660918714e-06 5.640090428858e-07
461 3 2.976311065587e-03 1.031082416848e-02 6.053518602854e-03 -2.964932524261e-04 2.275939933207e-05 -8.819589562773e-05 3.442379500860e-02 3.888234842561e-02 2.087869692959e-01 1.250000000000e-03 2.045307717181e-05 3.728451266487e-06 2.492593261376e-06 3.357993435773e-06
462 3 7.948588894068e-03 1.531031203766e-02 3.264955977069e-03 -1.123396497077e-04 4.119728023828e-05 1.377849255644e-04 -4.670109608964e-02 -5.577553710261e-02 9.246945277795e-02 1.250000000000e-03 2.045307717181e-05 2.559224557338e-06 8.798652692181e-07 3.203679539342e-06
463 3 9.404305126531e-03 9.195314597925e-03 2.015979626365e-03 -1.116527942273e-04 -7.006790512130e-05 -1.152135915900e-04 4.219573552505e-02 -8.306157619959e-02 7.608231550526e-03 1.250000000000e-03 2.045307717181e-05 2.296557863991e-06 1.370306773435e-06 1.502758941627e-06
464 3 1.204528233455e-02 1.258206811131e-02 1.171022419825e-02 -2.294595293830e-03 -5.130776375361e-04 1.929645119700e-04 3.246240240384e-01 -1.543251624366e-01 1.317087765111e+00 1.250000000000e-03 2.045307717181e-05 4.555678397961e-05 1.273254460745e-05 1.102990218782e-06
465 3 9.662761413625e-03 1.539992892822e-03 2.531996415153e-03 -1.021323533310e-04 7.026644733665e-05 1.447902387849e-04 5.530053316204e-02 -1.024539032338e-02 1.169864369278e-02 1.250000000000e-03 2.045307717181e-05 1.862410114359e-06 3.159272354848e-07 1.597968039179e-07
466 3 8.275969029829e-03 6.452325984269e-03 9.194641738668e-03 1.246766290637e-04 6.754962128142e-05 -2.144035119175e-04 2.767899104307e-01 -6.766655090006e-02 -2.981156851139e-01 1.250000000000e-03 2.045307717181e-05 -3.734835052229e-06 2.895127338630e-06 4.190366131413e-06
467 3 2.595534617229e-03 1.311118230352e-02 4.787476564142e-03 2.181146299731e-04 7.128940367605e-05 3.897210517071e-04 -1.827206385479e-01 -2.681228101393e-01 7.653172758530e-02 1.250000000000e-03 2.045307717181e-05 -3.345823101783e-06 1.243112072859e-06 -3.887693663288e-06
468 3 5.422606194328e-03 1.169569182006e-02 2.570377834844e-03 -1.541786638282e-04 8.115510714354e-05 1.838750037649e-04 1.514876343395e-02 -1.260193119617e-01 5.371709083241e-02 1.250000000000e-03 2.045307717181e-05 2.375872591295e-06 1.519328530057e-06 -1.441057069712e-06
469 3 2.326438565181e-03 3.419789097041e-03 6.243141066189e-03 -2.006035517864e-04 -7.137966396419e-05 -1.319892304975e-05 -3.279859281679e-01 -2.770701724355e-01 1.124033643415e-01 1.250000000000e-03 2.045307717181e-05 4.483978340631e-06 5.823553490022e-06 4.490528928583e-07
470 3 1.340539476922e-02 5.050431056652e-03 1.187661296181e-02 -3.199692150136e-04 5.751976395356e-05 3.470579561390e-05 -5.336946536357e-02 3.696156704009e-02 -3.125959396273e-01 1.250000000000e-03 2.045307717181e-05 6.939560712004e-06 2.108241144571e-06 1.516789411912e-06
471 3 9.880346856273e-03 5.698177480418e-03 1.118140730097e-02 4.059779127268e-05 7.314806506883e-04 4.413387021827e-04 4.594685520827e-01 2.777110395514e-01 6.342788017294e-02 1.250000000000e-03 2.045307717181e-05 -1.014497601465e-06 -1.509266495639e-05 -9.688870852729e-06
472 3 7.271520342607e-04 8.131003725768e-03 2.736161379592e-03 -9.512158338542e-05 9.634915971370e-07 1.010208978338e-05 5.823746032250e-04 -4.458934044051e-02 -1.305051051434e-02 1.250000000000e-03 2.045307717181e-05 1.607825888792e-06 1.127525298784e-06 1.359116879158e-06
473 3 1.821661239631e-03 1.057315506073e-02 3.106552801122e-03 -4.933024434282e-05 2.956304697099e-05 7.674841710544e-05 6.125269832906e-02 5.879106985125e-02 -1.039976390352e-02 1.250000000000e-03 2.045307717181e-05 -8.278168000963e-07 1.278321324312e-06 8.446147294979e-07
474 3 1.321654686594e-02 4.648737520513e-03 1.424420094554e-02 -1.375769742482e-04 1.044542661838e-04 -1.523665253555e-05 9.921400282231e-02 1.393508469566e-01 -1.248908622153e-01 1.250000000000e-03 2.045307717181e-05 2.644991527250e-06 -1.013337108690e-06 7.712201834172e-07
475 3 5.470693857605e-03 2.208580440310e-03 4.527494838162e-03 -4.837146157615e-05 -3.067144307506e-05 3.810468519427e-04 8.579787202275e-02 5.850130829357e-02 6.975351482276e-02 1.250000000000e-03 2.045307717181e-05 4.433200133208e-06 3.909589551432e-06 -7.535356432953e-06
476 3 4.175563378635e-03 7.076852144600e-03 1.850758465550e-03 -7.049281629226e-05 2.336713436970e-05 4.554753994175e-05 9.511606266668e-03 -4.445417168504e-03 3.121631110354e-02 1.250000000000e-03 2.045307717181e-05 1.512449048049e-06 2.822564234204e-06 -1.153466041776e-06
477 3 1.271724564526e-02 4.972319087964e-03 5.642447932893e-03 -1.797017667369e-04 4.418747553778e-05 6.003158767186e-05 9.374488927061e-02 -7.424061550345e-02 7.650280026126e-02 1.250000000000e-03 2.045307717181e-05 3.519855635228e-06 2.493494667460e-06 -1.964038435062e-06
478 3 3.909301454385e-03 2.081518645205e-03 2.785476428089e-03 -5.090799348676e-05 -4.655170193749e-05 2.588946621347e-04 -3.958289998268e-02 -9.002682454274e-02 3.698711893486e-02 1.250000000000e-03 2.045307717181e-05 4.623645232994e-06 2.612922874457e-06 -5.512046950181e-06
479 3 1.196423304618e-02 6.616548253439e-03 1.415127982328e-02 -1.147347600037e-04 1.501477359978e-04 -5.130398800692e-05 -1.281375738789e-01 -1.925951116989e-01 1.219342980145e-01 1.250000000000e-03 2.045307717181e-05 5.407393160422e-06 2.223296816368e-06 -1.226276837786e-06
480 3 1.320659606249e-03 8.976737054672e-04 3.407747419011e-03 5.955517672235e-05 -1.267326201314e-04 1.743157301704e-04 9.590708881568e-02 6.243965290767e-02 -1.606373410468e-02 1.250000000000e-03 2.045307717181e-05 -5.464810900657e-07 4.797297399467e-06 -3.628047544621e-06
481 3 1.108287916731e-02 1.002310786333e-02 1.427698492900e-02 -2.402967419989e-05 -9.181703470081e-05 8.443375270715e-05 -8.321386458952e-02 -8.325622350520e-02 -4.565267055928e-01 1.250000000000e-03 2.045307717181e-05 4.172880554607e-06 3.971263979582e-06 1.086148078024e-07
482 3 7.608965043203e-03 1.175307314360e-02 9.832032490319e-03 3.236069372633e-04 2.352675755986e-03 2.207920916009e-04 -1.626935256953e+00 -4.282247201142e-02 2.052567639225e+00 1.250000000000e-03 2.045307717181e-05 -1.152589719010e-05 -4.321958709336e-05 -1.744926555480e-07
483 3 1.474688256370e-02 7.419764258630e-03 8.338483887096e-03 -2.218049152868e-04 -7.073401708974e-05 6.213967689011e-05 -6.945033279872e-02 3.633527540898e-03 -6.002756918448e-02 1.250000000000e-03 2.045307717181e-05 -3.636404204344e-08 3.555251180045e-06 1.956969727359e-06
484 3 1.261844241832e-03 1.164324084212e-02 7.236033348383e-03 -2.146019392452e-04 2.963103767694e-05 1.095658580454e-04 3.949543255739e-01 1.173960808563e-01 5.890263799822e-02 1.250000000000e-03 2.045307717181e-05 1.750902060716e-06 1.939120311852e-06 -1.021694890150e-06
485 3 1.485975876856e-02 1.831457514138e-03 4.850196243066e-03 5.233398695963e-05 -5.387731704052e-05 2.128967360801e-05 1.045658221599e-01 -6.426285373134e-02 -2.912579795321e-02 1.250000000000e-03 2.045307717181e-05 -1.115278515728e-06 3.746165478889e-06 -2.620263534572e-06
486 3 4.184520765680e-03 2.706916497679e-04 1.123603322998e-02 4.340503493269e-05 -5.457318779447e-06 -9.325960302616e-04 7.371301065574e-01 -1.327422651768e-01 6.148587152141e-01 1.250000000000e-03 2.045307717181e-05 2.339198297432e-06 4.793531242341e-06 1.029219555842e-05
487 3 7.573123482290e-03 1.052508337420e-02 7.738644744501e-03 -4.426523999841e-04 2.531147582019e-04 1.208181016946e-03 -4.841885707737e-02 1.581918133879e+00 -3.461486362874e-01 1.250000000000e-03 2.045307717181e-05 3.534783901509e-06 -2.639986881393e-06 -1.875331253539e-05
488 3 6.707609867690e-03 5.835331411297e-03 2.905870226717e-03 -1.080446749337e-04 6.252479728558e-06 6.248602366717e-05 -1.849278352983e-02 -1.675241940120e-02 3.080963611821e-02 1.250000000000e-03 2.045307717181e-05 1.127446903189e-06 1.667051981678e-06 -1.435603131490e-06
489 3 1.083144822834e-02 6.366987221758e-04 6.265285597676e-03 1.367282423774e-04 2.701121620307e-04 1.693481575237e-04 3.591804178300e-02 -2.000566879361e-01 3.067185335968e-01 1.250000000000e-03 2.045307717181e-05 -1.650809812624e-05 1.313326366174e-05 1.108628830498e-05
490 3 2.569225302167e-04 7.868252704809e-03 4.971865859287e-03 -1.639781561304e-04 -2.040732676720e-05 9.902944312943e-06 1.302677803383e-02 1.508710474229e-02 -7.545748671094e-03 1.250000000000e-03 2.045307717181e-05 2.952644287056e-06 1.616748482219e-06 1.726943019630e-06
491 3 1.378185694227e-02 3.070351954311e-03 6.768557774101e-03 -1.265853447248e-04 -3.828114558886e-05 -7.763937626042e-05 5.426913717782e-02 -4.056169644916e-02 1.327739787194e-01 1.250000000000e-03 2.045307717181e-05 2.701808111686e-06 4.493641238605e-06 1.049658822771e-06
492 3 1.518897234540e-02 3.007451704501e-03 1.310988901909e-03 -2.072675534807e-05 -7.668124768762e-06 4.668069345690e-05 -5.092811302791e-02 1.902789202439e-02 1.298825525878e-02 1.250000000000e-03 2.045307717181e-05 6.521279049815e-08 4.502975241596e-07 -8.283507490259e-07
493 3 1.180463609277e-02 1.106538776134e-02 2.456905217469e-03 -2.023905780010e-05 -1.468229144956e-05 3.444719624437e-05 1.198769464415e-02 3.152524330205e-04 -2.171317401433e-02 1.250000000000e-03 2.045307717181e-05 2.081516530922e-06 7.269187952988e-07 -2.607998942564e-07
494 3 8.998305061841e-03 3.134141598796e-03 5.958981581253e-03 -6.230304038776e-05 1.409055845910e-04 2.350191583922e-04 -1.872753157417e-01 1.370103432031e-01 1.208869251789e-01 1.250000000000e-03 2.045307717181e-05 -4.601361771909e-07 -5.174854430016e-08 4.259386403111e-07
495 3 7.767429458323e-03 9.444168716213e-04 1.115299848665e-03 -7.988727895120e-05 -1.474949189720e-05 4.566180652759e-05 5.700779049944e-03 -4.956100395851e-02 8.093389518959e-02 1.250000000000e-03 2.045307717181e-05 4.623328173685e-07 8.828475279098e-07 1.533582946285e-06
496 3 1.451733952390e-02 1.015053161143e-03 9.619042046325e-03 -1.471785526937e-03 1.507253366171e-04 3.268745356256e-04 5.037350097112e-02 -1.703901644107e-01 -6.581050110527e-01 1.250000000000e-03 2.045307717181e-05 2.440223597402e-05 1.220011267574e-06 -9.692092163194e-06
497 3 1.328516595743e-02 4.667499746143e-03 2.671350069165e-03 -8.441630138290e-05 7.510656697089e-06 3.197471782209e-05 -2.868865676624e-02 -3.159964060860e-02 2.473983856143e-02 1.250000000000e-03 2.045307717181e-05 1.283723567130e-06 5.707193814713e-07 9.939583924612e-08
498 3 8.179009927679e-03 8.220429765644e-03 7.533305925722e-03 -1.295256023359e-04 3.505224634880e-04 2.228876688855e-04 2.075638606758e-01 1.278059547406e-02 6.287167747424e-01 1.250000000000e-03 2.045307717181e-05 2.088502930030e-06 -2.731741214239e-06 -3.391421819410e-06
499 3 1.122053059825e-02 3.259155174964e-03 5.158536436299e-03 -8.240859896219e-05 6.426878441363e-05 -7.204429028697e-06 -9.189561918961e-02 2.812958072361e-03 -6.480218855911e-02 1.250000000000e-03 2.045307717181e-05 1.527038483920e-06 1.987071844476e-06 2.930128863273e-06
500 3 6.877412684328e-03 1.434068878514e-02 5.135846864670e-03 -3.487240250621e-05 -7.139516144373e-06 3.943558376768e-04 -1.463115103802e-03 3.128932527821e-01 -1.134351962999e-01 1.250000000000e-03 2.045307717181e-05 1.780633854694e-07 6.916750922620e-07 1.168387388774e-06
