ITEM: TIMESTEP
200000
ITEM: NUMBER OF ATOMS
500
ITEM: BOX BOUNDS pp pp ff
0.0000000000000000e+00 1.5370634520482899e-02
0.0000000000000000e+00 1.5370634520482899e-02
0.0000000000000000e+00 1.5370634520482899e-02
ITEM: ATOMS id type x y z radius mass fx fy fz
1 1 0.0151327 0.00115563 0.0017419 0.00075 4.41786e-06 -2.37515e-13 -4.74695e-14 -1.3285e-13
2 1 0.0143213 0.013037 0.0102118 0.00075 4.41786e-06 -3.9807e-13 -6.04167e-13 -2.98716e-13
3 1 0.00944696 0.00479737 0.00514464 0.00075 4.41786e-06 -4.1207e-13 7.41125e-13 1.31424e-13
4 1 0.0109111 0.00425955 0.000707616 0.00075 4.41786e-06 -1.26269e-13 2.45033e-13 -1.6213e-14
5 1 0.00670849 0.000866951 0.0051779 0.00075 4.41786e-06 4.5551e-14 5.67359e-14 -1.94397e-13
6 1 0.0148072 0.0143992 0.00983163 0.00075 4.41786e-06 5.46663e-12 -3.05365e-12 -6.90448e-12
7 1 0.0010147 0.000831218 0.00941065 0.00075 4.41786e-06 -3.12669e-14 -2.98621e-13 -1.15085e-13
8 1 0.00451682 0.000645025 0.0146578 0.00075 4.41786e-06 3.75268e-13 2.70916e-13 -2.19972e-14
9 1 0.0147206 0.0139046 0.0127193 0.00075 4.41786e-06 7.3441e-14 -1.65567e-14 -1.17335e-13
10 1 0.00355315 0.0144407 0.00649175 0.00075 4.41786e-06 5.57489e-13 2.16811e-14 -2.27793e-12
11 1 0.00900278 0.0131608 0.00991587 0.00075 4.41786e-06 5.23131e-13 6.15687e-13 -4.4068e-13
12 1 0.00433361 0.00239023 0.0146814 0.00075 4.41786e-06 -1.78765e-14 5.38871e-13 -2.34349e-14
13 1 0.0106765 0.0141214 0.00590043 0.00075 4.41786e-06 5.38139e-13 2.3757e-13 3.34576e-13
14 1 0.00881584 0.0110499 0.00511223 0.00075 4.41786e-06 2.23755e-13 1.06614e-13 -1.98774e-13
15 1 0.00440735 0.00171469 0.00676586 0.00075 4.41786e-06 -7.44083e-13 9.97792e-13 3.67473e-13
16 1 0.00732712 0.00481976 0.00574086 0.00075 4.41786e-06 6.13003e-14 -6.68624e-13 1.86968e-13
17 1 0.0129534 0.00863682 0.0112829 0.00075 4.41786e-06 -1.688e-12 1.69315e-12 5.844e-13
18 1 0.014561 0.00517853 0.00553652 0.00075 4.41786e-06 -2.23552e-12 -2.87296e-12 -5.34944e-12
19 1 0.00489308 0.00282388 0.00927113 0.00075 4.41786e-06 2.76897e-13 3.02035e-13 -2.30084e-14
20 1 0.00520413 0.0128654 0.00795112 0.00075 4.41786e-06 6.94651e-13 -5.08727e-13 -3.00927e-13
21 1 0.0131483 0.0128473 0.00355844 0.00075 4.41786e-06 4.59292e-13 -3.17479e-13 1.53256e-13
22 1 0.0101335 0.00352324 0.00755119 0.00075 4.41786e-06 9.07269e-14 5.73405e-13 -8.83077e-14
23 1 0.00344209 0.0149641 0.00780268 0.00075 4.41786e-06 -6.27517e-13 1.09441e-12 2.39007e-12
24 1 0.0065052 0.0126342 0.00859981 0.00075 4.41786e-06 -4.12605e-14 2.43254e-13 -7.63768e-14
25 1 0.0151499 0.0117645 0.0146206 0.00075 4.41786e-06 -6.53289e-12 -7.36457e-12 7.35082e-12
26 1 0.00331565 0.0101723 0.00853776 0.00075 4.41786e-06 -3.00437e-13 4.17773e-13 7.97148e-15
27 1 0.00614201 0.00943366 0.0120799 0.00075 4.41786e-06 1.34351e-12 1.36436e-13 -3.72106e-12
28 1 0.00809682 0.0118118 0.00060256 0.00075 4.41786e-06 2.13187e-13 -2.9792e-13 -2.72726e-13
29 1 0.00901365 0.00584643 0.0138838 0.00075 4.41786e-06 1.02765e-12 -3.93366e-13 2.00023e-13
30 1 0.00360533 0.00803064 0.00957249 0.00075 4.41786e-06 3.50057e-13 3.29179e-13 -2.09278e-13
31 1 0.00154186 0.012482 0.00257877 0.00075 4.41786e-06 3.7661e-14 -3.52762e-13 8.42913e-14
32 1 0.00803572 0.00260863 0.00192811 0.00075 4.41786e-06 2.5448e-13 -2.07189e-14 -1.49676e-13
33 1 0.0117285 0.0120384 0.00640567 0.00075 4.41786e-06 -5.80552e-13 -5.20483e-13 -6.53027e-13
34 1 0.00589282 0.0104346 0.00926257 0.00075 4.41786e-06 -3.20139e-13 -4.72095e-14 -4.38062e-13
35 1 0.0014993 0.0125015 0.0126506 0.00075 4.41786e-06 4.40779e-13 -3.10983e-12 3.44214e-13
36 1 0.00455226 0.00648969 0.0147271 0.00075 4.41786e-06 1.50619e-11 1.29014e-11 -3.91672e-11
37 1 0.00519157 0.00363314 0.0146867 0.00075 4.41786e-06 1.03469e-13 -8.61041e-15 1.68528e-14
38 1 0.00935738 0.00719085 0.0025238 0.00075 4.41786e-06 7.79346e-14 -9.54398e-14 -5.02968e-14
39 1 0.00904302 0.0137127 0.00310217 0.00075 4.41786e-06 7.75701e-14 -4.57045e-13 5.42376e-14
40 1 0.0135203 0.00288739 0.00207765 0.00075 4.41786e-06 -1.2696e-15 5.31351e-15 -1.25717e-13
41 1 0.000439146 0.0110944 0.0134521 0.00075 4.41786e-06 1.17101e-11 1.04444e-11 1.6536e-11
42 1 0.00988317 0.0135683 0.0110293 0.00075 4.41786e-06 -3.87794e-13 1.60003e-13 7.72017e-14
43 1 0.0141238 0.00807977 0.00377993 0.00075 4.41786e-06 1.28032e-12 -1.38108e-12 -9.32629e-13
44 1 0.00200279 0.00132408 0.0126816 0.00075 4.41786e-06 1.08694e-322 -1.08694e-322 -1.08694e-322
45 1 0.0102279 0.0128672 0.00336011 0.00075 4.41786e-06 3.73841e-13 1.08588e-13 -3.90477e-13
46 1 0.00295233 0.0096089 0.0147241 0.00075 4.41786e-06 1.7715e-13 3.06544e-13 -4.88266e-13
47 1 0.00518597 0.00873135 0.000823127 0.00075 4.41786e-06 1.08694e-322 1.08694e-322 1.08694e-322
48 1 0.00133145 0.00697416 0.0113659 0.00075 4.41786e-06 -8.93334e-14 3.95792e-14 -2.36259e-13
49 1 0.00446207 0.000609924 0.00765116 0.00075 4.41786e-06 3.46522e-13 -1.06493e-13 -4.95687e-13
50 1 0.00831433 0.000220829 0.0128202 0.00075 4.41786e-06 -1.89586e-13 1.67626e-13 1.04951e-14
51 1 0.00464623 0.00358161 0.000637897 0.00075 4.41786e-06 -5.77453e-14 5.90073e-13 1.23095e-13
52 1 0.00751657 0.0133117 0.00783416 0.00075 4.41786e-06 -5.56213e-13 7.46752e-14 3.87501e-14
53 1 0.00837038 0.00561283 0.0045936 0.00075 4.41786e-06 1.64469e-15 3.96764e-13 -3.32015e-13
54 1 0.0131996 0.00924544 0.000649426 0.00075 4.41786e-06 -3.92709e-13 1.46474e-13 5.17001e-13
55 1 0.000778654 0.00867041 0.00876685 0.00075 4.41786e-06 2.5187e-13 1.02908e-13 -8.25969e-13
56 1 0.0111335 0.00654266 0.000629808 0.00075 4.41786e-06 -3.83547e-14 5.66938e-15 -5.9167e-14
57 1 0.0117349 0.0129254 0.00322802 0.00075 4.41786e-06 3.69101e-13 -6.37053e-13 6.13607e-13
58 1 0.00100069 0.00971544 0.0128179 0.00075 4.41786e-06 -8.6087e-13 9.88474e-13 -9.24083e-13
59 1 0.00213613 0.00532787 0.00279534 0.00075 4.41786e-06 9.97792e-14 2.35582e-13 4.24332e-13
60 1 0.0120355 0.013347 0.00068661 0.00075 4.41786e-06 -1.9795e-13 2.35997e-13 1.1907e-13
61 1 0.0110029 0.00961298 0.00729321 0.00075 4.41786e-06 3.14759e-13 1.78829e-13 -1.50379e-12
62 1 0.0060172 0.0129855 0.0130881 0.00075 4.41786e-06 5.59363e-14 -7.95554e-13 7.00042e-13
63 1 0.00992413 0.0133021 0.00053523 0.00075 4.41786e-06 -4.07353e-14 3.10641e-13 2.8048e-13
64 1 0.00293915 0.00172612 0.00892091 0.00075 4.41786e-06 8.06421e-14 -1.47812e-13 -3.61262e-14
65 1 0.0141194 0.00470703 0.00433182 0.00075 4.41786e-06 3.37434e-12 1.88695e-12 6.30801e-12
66 1 0.00121268 0.0113235 0.00138436 0.00075 4.41786e-06 -3.05859e-14 -3.24605e-14 -5.52568e-13
67 1 0.00688462 0.00627852 0.00651933 0.00075 4.41786e-06 1.3331e-12 5.64607e-13 -2.48793e-13
68 1 0.014513 0.00303612 0.00319182 0.00075 4.41786e-06 -4.13067e-14 -2.59007e-14 -2.16559e-13
69 1 0.00707004 0.0133918 0.0112428 0.00075 4.41786e-06 -3.54373e-13 3.03247e-13 1.46502e-13
70 1 0.0100237 0.00090997 0.00807165 0.00075 4.41786e-06 7.75727e-13 -2.88819e-13 -2.96301e-13
71 1 0.00294313 0.00540802 0.00424802 0.00075 4.41786e-06 -2.66293e-13 -1.19047e-13 -6.85228e-14
72 1 0.00202257 0.0139033 0.0111178 0.00075 4.41786e-06 -3.10279e-13 -1.0818e-13 -2.05254e-14
73 1 0.00319117 0.000773919 0.00404224 0.00075 4.41786e-06 5.30321e-13 4.92295e-13 6.79413e-13
74 1 0.00411156 0.0111401 0.00131896 0.00075 4.41786e-06 -2.75693e-13 -1.54667e-13 3.01238e-13
75 1 0.00365903 0.00848651 0.0109622 0.00075 4.41786e-06 1.34377e-12 6.40795e-13 -3.68262e-13
76 1 0.0139297 0.00441449 0.000810209 0.00075 4.41786e-06 6.76637e-14 -4.33677e-13 -1.57101e-13
77 1 0.0132174 0.0116445 0.00633496 0.00075 4.41786e-06 1.22209e-12 -3.60124e-13 8.29436e-13
78 1 0.0152694 0.0114629 0.000730223 0.00075 4.41786e-06 3.67676e-13 1.38226e-13 -2.48569e-13
79 1 2.10957e-05 0.0124219 0.0128926 0.00075 4.41786e-06 1.47721e-12 -1.67853e-12 8.79287e-14
80 1 0.00812884 0.00672759 0.00191333 0.00075 4.41786e-06 9.28423e-15 -8.76068e-14 4.72745e-14
81 1 0.0139239 0.0132632 0.0116239 0.00075 4.41786e-06 -9.63418e-13 -1.07226e-13 2.65051e-13
82 1 0.0143449 0.00874883 0.0113934 0.00075 4.41786e-06 -1.9094e-12 6.05475e-13 7.16976e-13
83 1 0.00970284 0.0148041 0.0072549 0.00075 4.41786e-06 9.83141e-13 -2.2199e-13 -5.00178e-13
84 1 0.0141921 0.0016198 0.00281419 0.00075 4.41786e-06 1.82261e-12 -8.32521e-13 -6.94058e-13
85 1 0.0124835 0.0087772 0.00175103 0.00075 4.41786e-06 -2.57964e-13 -4.68948e-14 6.23664e-13
86 1 0.00855338 0.00550281 0.00613339 0.00075 4.41786e-06 -3.06091e-14 3.00574e-14 8.07301e-14
87 1 0.00574114 0.00670103 0.000719644 0.00075 4.41786e-06 5.02559e-13 8.77372e-14 -1.16668e-13
88 1 0.00946706 0.00689528 0.0146936 0.00075 4.41786e-06 5.26365e-13 -4.76717e-13 -1.13409e-14
89 1 0.0108709 0.0145836 0.0146587 0.00075 4.41786e-06 -8.41961e-14 -2.72008e-13 2.23975e-14
90 1 0.0119734 0.000960034 0.00193928 0.00075 4.41786e-06 -3.00442e-13 4.61912e-13 -7.51125e-14
91 1 0.000840014 0.000597723 0.00628912 0.00075 4.41786e-06 -8.5533e-13 -3.42985e-13 1.24363e-13
92 1 0.0127506 0.0149793 0.00864884 0.00075 4.41786e-06 -6.41643e-15 3.73066e-13 1.07008e-12
93 1 0.00327322 0.000392376 0.00893675 0.00075 4.41786e-06 5.34177e-14 -4.04853e-14 -3.72215e-13
94 1 0.01105 0.00419438 0.0114617 0.00075 4.41786e-06 1.77249e-13 3.88371e-13 2.97811e-13
95 1 0.000918659 0.00812926 0.0147495 0.00075 4.41786e-06 -2.89541e-13 9.53103e-14 -4.554e-13
96 1 0.000769681 0.0133036 0.0139116 0.00075 4.41786e-06 6.67218e-14 -3.18602e-13 2.15959e-13
97 1 0.00339048 0.0115744 0.0120943 0.00075 4.41786e-06 6.38299e-14 -1.04255e-12 5.79238e-13
98 1 0.00954842 0.00167467 0.000636293 0.00075 4.41786e-06 6.01258e-14 5.97106e-15 -1.52646e-13
99 1 0.00747248 0.00193563 0.00762142 0.00075 4.41786e-06 -1.84985e-14 -1.32765e-13 1.02099e-13
100 1 0.00501008 0.00690803 0.0134989 0.00075 4.41786e-06 -1.47819e-11 -1.3371e-11 3.86771e-11
101 2 0.00968778 0.0110666 0.000939472 0.001 1.0472e-05 7.45675e-15 8.17923e-13 -3.42119e-14
102 2 0.012526 0.00349482 0.000923494 0.001 1.0472e-05 -8.14247e-14 -2.15705e-13 -6.90668e-13
103 2 0.0110664 0.00219539 0.0112643 0.001 1.0472e-05 1.36363e-13 -9.47733e-14 2.35255e-14
104 2 0.000355866 0.00506505 0.00096501 0.001 1.0472e-05 5.64726e-13 6.4097e-14 -7.92713e-13
105 2 0.00815764 0.00155739 0.00468163 0.001 1.0472e-05 -4.53148e-13 2.59148e-13 -3.50014e-13
106 2 0.00379715 0.00221146 0.0103515 0.001 1.0472e-05 -1.80634e-13 4.1679e-13 -5.34456e-13
107 2 0.00562145 0.0141155 0.0106443 0.001 1.0472e-05 -1.00466e-13 3.28814e-13 1.67249e-13
108 2 0.0047149 0.001044 0.000983718 0.001 1.0472e-05 -6.32332e-13 2.83126e-13 6.74878e-14
109 2 0.0144644 0.0100909 0.00140118 0.001 1.0472e-05 -2.57326e-13 -5.64178e-13 4.88795e-13
110 2 0.00650561 0.0124136 0.000884147 0.001 1.0472e-05 1.23241e-12 -7.52222e-14 5.49054e-13
111 2 0.00785746 0.0103366 0.00103145 0.001 1.0472e-05 2.23032e-14 -5.30535e-13 -3.22087e-13
112 2 0.0120908 0.00355286 0.0127108 0.001 1.0472e-05 -7.62853e-13 1.12927e-13 1.57607e-14
113 2 0.0137511 0.0112117 0.00349255 0.001 1.0472e-05 1.61494e-12 -2.00731e-13 2.87732e-12
114 2 0.00508388 0.0139401 0.00632774 0.001 1.0472e-05 9.91035e-13 1.36005e-12 1.89278e-12
115 2 0.00638442 0.00655959 0.014431 0.001 1.0472e-05 -3.52925e-14 -6.6485e-13 1.03681e-12
116 2 0.0032663 0.00252057 0.000871886 0.001 1.0472e-05 -1.7182e-14 8.09732e-13 5.09904e-13
117 2 0.00706742 0.00700147 0.0108788 0.001 1.0472e-05 -1.8782e-13 -4.87667e-13 -8.00959e-13
118 2 0.00470819 0.0124864 0.00514439 0.001 1.0472e-05 -2.71937e-13 -4.20062e-13 8.79458e-13
119 2 0.00538559 0.0145562 0.00093035 0.001 1.0472e-05 3.40838e-14 7.47393e-14 -6.98792e-13
120 2 0.000887498 0.00319027 0.00397745 0.001 1.0472e-05 -8.54517e-13 8.63876e-13 -2.58239e-12
121 2 0.00456288 0.00532131 0.0036275 0.001 1.0472e-05 -3.23013e-12 -5.50478e-12 -1.97037e-12
122 2 0.0112451 0.00258122 0.0141094 0.001 1.0472e-05 -8.61692e-16 4.23982e-13 3.17252e-13
123 2 0.000890145 0.00223572 0.0102524 0.001 1.0472e-05 -5.70106e-13 -1.19247e-12 7.2847e-14
124 2 0.0145371 0.0134171 0.0143886 0.001 1.0472e-05 4.21706e-13 -1.16401e-13 4.24848e-13
125 2 0.0138481 0.00660686 0.00474022 0.001 1.0472e-05 1.30698e-12 -1.05605e-12 -1.48334e-12
126 2 0.00623783 0.0100748 0.0135859 0.001 1.0472e-05 -4.81199e-13 1.41094e-12 -1.00703e-12
127 2 0.000544785 0.0137134 0.00885746 0.001 1.0472e-05 -5.44978e-12 2.90026e-12 3.18991e-12
128 2 0.000154724 0.0073296 0.000870085 0.001 1.0472e-05 9.48209e-12 1.48027e-12 1.29703e-11
129 2 0.014849 0.00153167 0.014381 0.001 1.0472e-05 5.0969e-13 -6.67763e-13 -1.74384e-13
130 2 0.00435341 0.00823317 0.0126542 0.001 1.0472e-05 -1.17768e-12 3.08686e-13 3.08328e-12
131 2 0.00985779 0.00815529 0.00388315 0.001 1.0472e-05 -3.97419e-14 3.57772e-13 1.98788e-13
132 2 0.0100439 0.00330211 0.0124968 0.001 1.0472e-05 6.69157e-13 5.37562e-13 -2.16862e-13
133 2 0.0065924 0.00527887 0.0125227 0.001 1.0472e-05 -6.13974e-13 -1.15052e-12 1.29499e-13
134 2 0.0138307 0.0113549 0.0128799 0.001 1.0472e-05 6.49498e-13 -4.53021e-13 5.17303e-13
135 2 0.00964616 0.00644989 0.00520181 0.001 1.0472e-05 -7.58922e-13 2.71868e-13 8.9144e-13
136 2 0.00827685 0.0147628 0.00814513 0.001 1.0472e-05 6.90064e-13 8.24952e-13 -1.24015e-13
137 2 0.00983731 0.00711561 0.0129465 0.001 1.0472e-05 1.48409e-12 1.61842e-12 2.80318e-12
138 2 0.00450206 0.00480361 0.0119904 0.001 1.0472e-05 7.54815e-15 1.69316e-13 -2.29493e-13
139 2 0.00846184 0.00490389 0.0126128 0.001 1.0472e-05 -1.94592e-13 -3.18634e-13 -9.96124e-13
140 2 0.0134074 0.0094787 0.0127003 0.001 1.0472e-05 -1.55299e-12 1.18907e-12 1.14438e-12
141 2 0.0120181 0.00811492 0.0125764 0.001 1.0472e-05 -1.17707e-12 1.72586e-12 2.16985e-12
142 2 0.00772678 0.00808528 0.000953171 0.001 1.0472e-05 7.79952e-14 -1.69437e-13 -1.36363e-13
143 2 0.00608817 0.00820031 0.0133661 0.001 1.0472e-05 -2.68136e-12 -5.37516e-13 2.10186e-12
144 2 0.0012251 0.0115874 0.0109257 0.001 1.0472e-05 -1.39455e-12 2.56054e-13 -1.27183e-14
145 2 0.0109118 0.00251323 0.000948249 0.001 1.0472e-05 -1.69897e-14 -1.84846e-12 -3.80233e-13
146 2 0.00088105 0.0150072 0.0105034 0.001 1.0472e-05 3.18645e-13 8.4432e-13 -9.96537e-13
147 2 0.00358557 0.00806951 0.00525681 0.001 1.0472e-05 -5.56745e-15 -9.44309e-13 -8.76265e-13
148 2 0.0109869 0.0080267 0.00127195 0.001 1.0472e-05 -4.03046e-14 -3.46604e-13 -4.7642e-14
149 2 0.0124435 0.0146398 0.0116824 0.001 1.0472e-05 -7.93366e-13 1.39613e-13 1.01228e-12
150 2 0.00854676 0.00257448 0.0136897 0.001 1.0472e-05 -1.19796e-12 2.37929e-14 5.17493e-14
151 2 0.00672295 0.000346097 0.0087875 0.001 1.0472e-05 -7.81266e-13 2.43743e-13 6.35289e-14
152 2 0.00717064 0.00382324 0.00437199 0.001 1.0472e-05 -2.35805e-13 -6.74311e-13 -3.04751e-13
153 2 0.00606834 0.00901907 0.00820549 0.001 1.0472e-05 1.70649e-13 2.64407e-13 2.63447e-13
154 2 0.00893611 0.0127031 0.00164658 0.001 1.0472e-05 -8.34165e-13 -8.62267e-13 -3.01626e-14
155 2 0.012581 0.00928693 0.00778731 0.001 1.0472e-05 -4.4309e-13 1.55211e-12 3.40991e-13
156 2 0.00999947 0.0108406 0.00787277 0.001 1.0472e-05 4.20723e-12 -1.03848e-11 -4.42328e-12
157 2 0.00885009 0.00379943 0.0110525 0.001 1.0472e-05 -9.15491e-15 -5.33814e-13 2.35734e-13
158 2 0.00402451 0.00421498 0.0051619 0.001 1.0472e-05 7.6831e-13 1.90223e-12 -3.39307e-13
159 2 0.00763007 0.0127637 0.00294432 0.001 1.0472e-05 -9.66247e-13 -1.67413e-12 2.95215e-13
160 2 0.0022856 0.0145082 0.00925216 0.001 1.0472e-05 7.25217e-13 2.24464e-13 -1.53932e-12
161 2 0.00179259 0.00373121 0.000942048 0.001 1.0472e-05 -2.71362e-13 -7.43316e-14 2.8741e-14
162 2 0.0145569 0.01125 0.00958401 0.001 1.0472e-05 5.04335e-13 -1.06877e-12 -1.08137e-13
163 2 0.0104494 0.0041918 0.00970165 0.001 1.0472e-05 -6.21414e-14 5.61152e-13 2.25188e-13
164 2 0.0125467 0.000691416 0.0145152 0.001 1.0472e-05 -9.6797e-13 3.02796e-13 -1.66096e-14
165 2 0.00509822 0.0110078 0.00640293 0.001 1.0472e-05 1.49587e-12 -1.51539e-12 -3.97577e-13
166 2 0.0109612 0.0108004 0.01098 0.001 1.0472e-05 2.97416e-13 -2.34867e-13 1.16057e-12
167 2 0.00688329 0.00340692 0.0143901 0.001 1.0472e-05 -6.30759e-13 1.42732e-12 1.91282e-13
168 2 0.0120602 0.0118554 0.00443186 0.001 1.0472e-05 8.81373e-13 -3.32542e-12 3.04033e-12
169 2 0.000538242 0.0152463 0.0143884 0.001 1.0472e-05 -3.29014e-13 -2.31704e-13 -4.15041e-13
170 2 1.52415e-05 0.00574302 0.00951558 0.001 1.0472e-05 -1.78946e-12 2.96174e-13 -1.00357e-12
171 2 0.00440958 0.0143626 0.0145282 0.001 1.0472e-05 3.04521e-13 -1.49395e-14 3.27564e-14
172 2 0.0106653 0.000433149 0.0097738 0.001 1.0472e-05 8.24029e-13 -3.5207e-13 2.24548e-17
173 2 0.010716 0.000232972 0.0115652 0.001 1.0472e-05 -4.28571e-13 3.63481e-13 -4.95503e-13
174 2 0.00604833 0.00253204 0.00140224 0.001 1.0472e-05 1.7325e-166 -6.58026e-167 4.14687e-167
175 2 0.000257004 0.0148446 0.000978732 0.001 1.0472e-05 -1.27794e-13 1.0823e-14 7.49072e-13
176 2 0.0106435 0.00802451 0.0145352 0.001 1.0472e-05 -2.10833e-13 8.30994e-13 -1.27714e-13
177 2 0.00441845 0.0127797 0.0136226 0.001 1.0472e-05 -2.12131e-12 -1.19778e-12 -1.24204e-12
178 2 0.0013163 0.00973301 0.0144238 0.001 1.0472e-05 -3.41106e-12 1.56868e-12 -1.36869e-12
179 2 0.00779511 0.0100188 0.0145682 0.001 1.0472e-05 -3.55574e-13 3.00085e-12 -1.18276e-12
180 2 0.00700269 0.00639403 0.00492724 0.001 1.0472e-05 6.72025e-13 2.58902e-13 2.29411e-13
181 2 0.00832408 0.00779038 0.00508726 0.001 1.0472e-05 3.79371e-12 -3.35379e-12 1.82938e-12
182 2 0.0113626 0.00895506 0.00296166 0.001 1.0472e-05 1.46907e-12 -7.5441e-14 2.10008e-12
183 2 0.000595232 0.00442376 0.00558026 0.001 1.0472e-05 1.93329e-12 5.44659e-13 4.49976e-12
184 2 0.00577495 0.00516388 0.00766243 0.001 1.0472e-05 1.38954e-13 8.81277e-13 6.76314e-15
185 2 0.00199147 0.00806141 0.0063271 0.001 1.0472e-05 5.67457e-13 2.77222e-14 3.29845e-12
186 2 0.00211998 0.0109038 0.0130038 0.001 1.0472e-05 -2.74172e-12 -4.59509e-13 -5.9586e-13
187 2 0.0141259 0.00608338 0.000968971 0.001 1.0472e-05 7.44381e-13 7.37092e-14 1.46587e-12
188 2 0.00250635 0.00565612 0.0063415 0.001 1.0472e-05 2.75625e-12 -2.19124e-12 9.56521e-13
189 2 0.00888094 0.000740739 0.0093095 0.001 1.0472e-05 7.99131e-13 -5.39301e-13 -1.75492e-13
190 2 0.00999621 0.0109642 0.0126444 0.001 1.0472e-05 -3.16207e-13 -4.32828e-14 -1.18636e-13
191 2 0.00864237 0.0106469 0.0113334 0.001 1.0472e-05 2.84346e-13 -1.6652e-13 -1.45671e-13
192 2 0.000969465 0.00402503 0.00960789 0.001 1.0472e-05 3.94925e-13 3.93391e-13 1.24351e-13
193 2 0.0127233 0.00079723 0.00738357 0.001 1.0472e-05 1.72145e-12 1.95016e-12 9.78655e-13
194 2 0.0146976 0.0107951 0.00618344 0.001 1.0472e-05 3.5314e-12 2.52181e-12 -1.98503e-12
195 2 0.0138771 0.00294134 0.00892731 0.001 1.0472e-05 -1.29274e-13 8.62541e-13 4.92201e-12
196 2 0.000773612 0.00264311 0.0131646 0.001 1.0472e-05 4.06244e-13 2.74798e-13 2.55197e-13
197 2 0.00194235 0.00933517 0.00774063 0.001 1.0472e-05 1.26922e-12 1.32179e-12 -4.80051e-13
198 2 0.0028642 0.00860811 0.00289342 0.001 1.0472e-05 -1.28875e-12 -5.93128e-13 5.99132e-13
199 2 0.0142049 0.0134024 0.000882122 0.001 1.0472e-05 -4.80921e-13 -4.38286e-13 5.5357e-13
200 2 0.00271385 0.0120951 0.000983228 0.001 1.0472e-05 3.94505e-13 7.48273e-13 4.22363e-13
201 2 0.000449221 0.0133317 0.0111781 0.001 1.0472e-05 -1.06682e-12 5.00407e-13 1.57048e-12
202 2 0.00512241 0.0142025 0.0125249 0.001 1.0472e-05 -4.58949e-13 7.77502e-13 8.86502e-13
203 2 0.0090967 0.0152193 0.0051464 0.001 1.0472e-05 -1.10758e-13 -1.73773e-14 4.49611e-14
204 2 0.0143573 0.0127819 0.00851817 0.001 1.0472e-05 -9.43522e-13 1.92347e-13 3.72857e-13
205 2 0.0136468 0.0117768 0.00161815 0.001 1.0472e-05 1.03303e-12 -2.98644e-13 2.37502e-12
206 2 0.0140915 0.00668328 0.00283329 0.001 1.0472e-05 -3.08714e-12 -9.42186e-13 -3.30807e-12
207 2 0.00140268 0.00676794 0.00759816 0.001 1.0472e-05 2.6135e-12 5.16311e-13 4.32828e-12
208 2 0.0148179 0.00401886 0.0106743 0.001 1.0472e-05 -2.56916e-13 -1.37299e-12 -4.99948e-13
209 2 0.0128927 0.0122358 0.00968693 0.001 1.0472e-05 -8.2772e-13 -1.2182e-12 -5.1809e-13
210 2 0.0106344 0.00516889 0.00633136 0.001 1.0472e-05 -2.6141e-13 1.19619e-12 5.66632e-14
211 2 0.0132691 0.00322139 0.00440678 0.001 1.0472e-05 -3.19093e-14 -5.5101e-13 8.32945e-13
212 2 0.00537116 0.00290926 0.0111914 0.001 1.0472e-05 3.19222e-13 3.26708e-13 4.79395e-13
213 2 0.0135756 0.00512942 0.00967011 0.001 1.0472e-05 7.85694e-13 -1.53236e-12 -3.17476e-13
214 2 0.00886412 0.00308307 0.00375224 0.001 1.0472e-05 1.04555e-13 1.31866e-13 -3.72829e-13
215 2 0.00952206 0.00691311 0.000898627 0.001 1.0472e-05 7.58489e-14 -3.73958e-13 -1.26868e-13
216 2 0.000394765 0.00965594 0.0100309 0.001 1.0472e-05 8.69644e-13 -1.74496e-12 -2.90283e-13
217 2 0.0007164 0.000291917 0.00791993 0.001 1.0472e-05 -8.35398e-13 -1.25271e-12 -4.71075e-13
218 2 0.00524774 0.0125483 0.00962598 0.001 1.0472e-05 2.64717e-13 -6.80479e-13 8.59232e-14
219 2 0.0138968 0.00243653 0.0114075 0.001 1.0472e-05 -4.34274e-14 -1.38022e-13 1.15484e-13
220 2 0.0129113 0.0106478 0.0110132 0.001 1.0472e-05 1.85704e-12 -1.38907e-12 7.22065e-13
221 2 0.0118976 0.0110956 0.00824709 0.001 1.0472e-05 2.17164e-12 -9.31375e-15 -9.88139e-15
222 2 0.00982367 0.0150127 0.0133574 0.001 1.0472e-05 -1.31958e-13 -2.50691e-14 2.26383e-13
223 2 0.00591345 0.0104097 0.000918365 0.001 1.0472e-05 6.84665e-14 1.23005e-13 7.68467e-14
224 2 0.00490533 0.00069221 0.00926079 0.001 1.0472e-05 -8.0003e-13 5.55962e-14 -2.51641e-12
225 2 0.0123963 0.00678884 0.00680525 0.001 1.0472e-05 1.45685e-12 8.81255e-13 3.71765e-13
226 2 0.00365581 0.0111931 0.00410831 0.001 1.0472e-05 -1.44811e-12 -9.83164e-13 -2.61445e-13
227 2 0.0111058 0.015098 0.00812776 0.001 1.0472e-05 2.63642e-12 -6.46897e-13 1.18861e-13
228 2 0.00737449 0.00408512 0.00181528 0.001 1.0472e-05 1.33957e-13 -2.49888e-13 -9.40274e-13
229 2 0.0018468 0.00559321 0.0090898 0.001 1.0472e-05 2.36529e-13 1.14598e-12 6.36736e-13
230 2 0.00106997 0.00493477 0.00746085 0.001 1.0472e-05 1.22752e-12 7.48114e-13 7.76318e-13
231 2 0.00702218 0.00933933 0.00230049 0.001 1.0472e-05 7.05788e-14 -3.04885e-13 3.839e-13
232 2 0.0142658 0.0148428 0.0112978 0.001 1.0472e-05 -3.49467e-12 3.20033e-12 2.78051e-12
233 2 0.00841092 0.00959626 0.0058444 0.001 1.0472e-05 3.0521e-13 1.26826e-12 3.5746e-13
234 2 0.0125201 0.000435398 0.0101814 0.001 1.0472e-05 8.06182e-13 1.74665e-13 -5.86962e-13
235 2 0.00509977 0.0104938 0.0114683 0.001 1.0472e-05 4.73345e-13 -5.64566e-13 -7.92601e-13
236 2 0.0147244 0.0118431 0.011367 0.001 1.0472e-05 -8.26045e-13 -9.5572e-13 8.58496e-13
237 2 0.00512251 0.00157736 0.0126485 0.001 1.0472e-05 -8.01662e-13 1.67694e-13 1.37621e-13
238 2 0.00251217 0.00823778 0.0121972 0.001 1.0472e-05 -1.64418e-12 4.11342e-13 2.28266e-12
239 2 0.000977121 0.0145399 0.0126192 0.001 1.0472e-05 -7.03441e-13 -1.81931e-12 -8.17629e-13
240 2 8.10685e-05 0.00346276 0.00800281 0.001 1.0472e-05 1.01304e-12 5.40515e-13 -1.32034e-13
241 2 0.0111815 0.00982975 0.000890611 0.001 1.0472e-05 7.94457e-13 -1.92259e-13 -8.77501e-14
242 2 0.01394 0.0142913 0.00637056 0.001 1.0472e-05 -4.01489e-12 1.32304e-12 6.89175e-13
243 2 0.00707059 0.0141062 0.00170009 0.001 1.0472e-05 1.91396e-13 4.22943e-13 -2.1869e-13
244 2 0.0126739 0.00729969 0.000948025 0.001 1.0472e-05 -1.15985e-12 -4.10793e-13 -8.81816e-13
245 2 0.00599052 0.0152894 0.0138492 0.001 1.0472e-05 -9.21059e-13 -2.5853e-13 1.06898e-12
246 2 0.00999666 0.00133732 0.0146069 0.001 1.0472e-05 2.47856e-13 3.44562e-13 3.50099e-14
247 2 0.00470948 0.0111967 0.008307 0.001 1.0472e-05 -1.18522e-12 2.60064e-13 2.77583e-12
248 2 0.00534896 0.0085551 0.0110848 0.001 1.0472e-05 3.27631e-12 2.74054e-12 -5.67325e-12
249 2 0.00892562 0.0125508 0.00432971 0.001 1.0472e-05 7.09661e-14 -3.3009e-13 -1.01991e-12
250 2 0.00356341 0.00181973 0.00533926 0.001 1.0472e-05 1.20215e-12 7.66215e-13 -5.24514e-13
251 2 0.00651834 0.00687967 0.00795518 0.001 1.0472e-05 4.89025e-13 1.95583e-13 1.41028e-13
252 2 0.00695671 0.00474392 0.00905735 0.001 1.0472e-05 4.03541e-13 -9.18592e-14 -8.95021e-14
253 2 0.00801103 0.00791742 0.00315793 0.001 1.0472e-05 7.36485e-13 2.95649e-13 -6.53681e-13
254 2 0.00538342 0.0034238 0.0130372 0.001 1.0472e-05 9.10162e-14 1.23002e-13 3.83252e-13
255 2 0.0048199 0.0124239 0.0116554 0.001 1.0472e-05 -5.82406e-13 -1.49372e-13 -4.26009e-13
256 2 0.0123629 0.00535672 0.000884611 0.001 1.0472e-05 -4.69651e-13 -9.40225e-13 -1.15052e-12
257 2 0.0123128 0.0136301 0.00500719 0.001 1.0472e-05 1.04299e-12 -6.20466e-13 4.15699e-13
258 2 0.0132691 0.0093747 0.00311564 0.001 1.0472e-05 1.72858e-12 -1.09856e-12 1.2095e-12
259 2 0.00924009 0.00904139 0.0140747 0.001 1.0472e-05 -2.3251e-13 1.76365e-12 -2.96615e-14
260 2 0.00240283 0.000843443 0.0102687 0.001 1.0472e-05 -1.81266e-12 -1.39446e-12 -1.27043e-12
261 2 0.00719036 0.00578893 0.00085116 0.001 1.0472e-05 3.66927e-13 -6.85641e-14 -5.68783e-13
262 2 0.00873277 0.00988291 0.00393572 0.001 1.0472e-05 5.80902e-13 2.72422e-13 5.32199e-13
263 2 0.0105733 0.0125735 0.00526755 0.001 1.0472e-05 -2.01948e-13 -5.82051e-13 1.28356e-12
264 2 0.00210729 0.00779943 0.00900949 0.001 1.0472e-05 1.49098e-12 5.00403e-13 6.07258e-13
265 2 0.010898 0.0143746 0.00316433 0.001 1.0472e-05 -1.3094e-13 4.35412e-13 5.83179e-13
266 2 0.000150276 0.00624099 0.00629367 0.001 1.0472e-05 -4.83053e-13 1.26237e-13 3.46297e-12
267 2 0.0102484 0.00405377 0.00280051 0.001 1.0472e-05 -3.26482e-14 3.25165e-14 -5.96661e-13
268 2 0.0127241 0.0126985 0.00758516 0.001 1.0472e-05 2.19695e-12 -4.78207e-13 9.3226e-13
269 2 0.0131443 0.012018 0.0144795 0.001 1.0472e-05 8.51296e-13 -5.20522e-13 -3.40715e-13
270 2 0.00921945 0.0119421 0.00641884 0.001 1.0472e-05 -3.59951e-13 3.98774e-13 3.81531e-13
271 2 0.00757315 0.0141395 0.00982918 0.001 1.0472e-05 2.16764e-13 1.09362e-12 -1.14702e-12
272 2 0.00857401 0.0138082 0.00644255 0.001 1.0472e-05 -3.18986e-13 -5.03026e-14 -6.88744e-13
273 2 0.00581911 0.00172426 0.0144566 0.001 1.0472e-05 -2.60441e-13 1.27777e-12 -1.2036e-14
274 2 0.00878013 0.0126694 0.0120224 0.001 1.0472e-05 4.66474e-13 -3.11754e-13 -3.42503e-13
275 2 0.0151819 0.00983466 0.00397306 0.001 1.0472e-05 4.61561e-10 -1.0558e-11 6.8512e-10
276 2 0.0121463 0.00672581 0.0027741 0.001 1.0472e-05 -1.10869e-12 -1.15645e-12 -6.30558e-13
277 2 0.00930259 0.0112453 0.0144407 0.001 1.0472e-05 -6.52154e-13 1.2221e-12 1.81387e-13
278 2 0.00785891 0.00232456 0.00962299 0.001 1.0472e-05 2.93965e-15 -5.11809e-13 7.11683e-13
279 2 0.0127724 0.00169191 0.00554587 0.001 1.0472e-05 -7.5822e-13 8.4292e-13 -6.61872e-13
280 2 0.0144691 0.0152824 0.00250948 0.001 1.0472e-05 -3.4296e-13 1.48298e-12 2.32245e-13
281 2 0.00458878 0.0127323 0.000889927 0.001 1.0472e-05 9.01659e-13 5.93298e-13 5.51522e-13
282 2 0.00357887 0.0134538 0.0101713 0.001 1.0472e-05 -4.05862e-13 3.92076e-13 -2.19675e-13
283 2 0.0112303 0.00798569 0.00783697 0.001 1.0472e-05 1.03038e-12 -2.9336e-13 2.68173e-13
284 2 0.0082099 0.000870013 0.0144201 0.001 1.0472e-05 3.57357e-13 6.27011e-14 6.81672e-13
285 2 0.0143522 0.0101641 0.0143856 0.001 1.0472e-05 1.55869e-13 -7.12118e-13 -5.05346e-14
286 2 0.00714818 0.00220529 0.00322679 0.001 1.0472e-05 -3.18888e-13 -9.10889e-14 -5.37389e-13
287 2 0.00915807 0.00328766 0.000934924 0.001 1.0472e-05 9.61574e-13 -3.80175e-13 4.04775e-13
288 2 0.00413295 0.0147811 0.00445143 0.001 1.0472e-05 2.04438e-12 -2.14125e-13 1.3185e-13
289 2 0.00521796 0.00515041 0.0138533 0.001 1.0472e-05 3.50113e-13 -5.97502e-13 -2.74237e-13
290 2 0.0145644 0.000729407 0.00675731 0.001 1.0472e-05 -1.80599e-12 1.78458e-12 9.14546e-15
291 2 0.0149452 0.00631236 0.0144022 0.001 1.0472e-05 -1.39936e-15 -8.06588e-13 4.37211e-13
292 2 0.000518752 0.00218991 0.00672875 0.001 1.0472e-05 -9.69554e-14 6.22896e-13 -1.20824e-12
293 2 0.00239349 0.0136902 0.0136603 0.001 1.0472e-05 2.53223e-13 6.06127e-14 -8.71375e-13
294 2 0.00258171 0.00802324 0.0144181 0.001 1.0472e-05 -3.89445e-13 -3.52499e-13 3.86208e-14
295 2 0.0103888 0.0118671 0.00947094 0.001 1.0472e-05 -1.93248e-13 -1.29475e-12 1.12087e-13
296 2 0.00383011 0.00460069 0.00716519 0.001 1.0472e-05 5.10423e-13 9.19603e-13 1.70705e-13
297 2 0.00337851 0.0136074 0.012037 0.001 1.0472e-05 -1.0755e-12 4.90103e-13 -6.42967e-13
298 2 0.0111879 0.00951807 0.00905958 0.001 1.0472e-05 -8.46373e-14 -4.33372e-13 6.18915e-13
299 2 0.00756921 0.0122723 0.00560177 0.001 1.0472e-05 1.4248e-12 2.31615e-13 -1.78195e-13
300 2 0.00247022 0.003927 0.0083815 0.001 1.0472e-05 8.36806e-13 9.71283e-13 4.92832e-13
301 2 0.00143209 0.00602887 0.00484575 0.001 1.0472e-05 6.76893e-13 -2.49161e-12 2.98446e-12
302 2 0.00492007 0.000441801 0.00580023 0.001 1.0472e-05 1.67376e-12 -7.14681e-14 3.87279e-13
303 2 0.00161236 0.00169672 0.00526334 0.001 1.0472e-05 9.97438e-13 1.73972e-12 -5.33682e-13
304 2 0.00973482 0.00826854 0.00897179 0.001 1.0472e-05 5.19621e-14 7.3087e-14 -6.97929e-14
305 2 0.000941687 0.0129901 0.00100755 0.001 1.0472e-05 -1.1335e-12 -1.49025e-13 7.40472e-14
306 2 0.00547909 0.00680481 0.011901 0.001 1.0472e-05 -1.20029e-12 1.0331e-12 9.6629e-14
307 2 0.0126317 0.00700878 0.00871286 0.001 1.0472e-05 9.27407e-13 -1.25933e-12 -1.91118e-13
308 2 0.00781705 0.00683899 0.0126454 0.001 1.0472e-05 -2.83161e-13 -8.61536e-13 3.68914e-13
309 2 0.00872367 0.00391884 0.00886091 0.001 1.0472e-05 -3.01679e-13 -4.29192e-13 -2.5227e-13
310 2 0.00140595 0.0016411 0.0145374 0.001 1.0472e-05 1.9249e-13 -4.33406e-14 1.48951e-13
311 2 0.00386171 0.00270794 0.00802837 0.001 1.0472e-05 7.81083e-13 -3.44209e-13 -2.93948e-12
312 2 0.00501401 0.00925255 0.00568857 0.001 1.0472e-05 3.43593e-13 -1.56822e-12 -1.12083e-12
313 2 0.0124689 0.00812599 0.00436228 0.001 1.0472e-05 2.53464e-12 -3.804e-12 1.02251e-12
314 2 0.0119348 0.00572724 0.0104921 0.001 1.0472e-05 3.99718e-13 4.78426e-13 1.1699e-13
315 2 0.00697578 0.00371731 0.0106163 0.001 1.0472e-05 3.03873e-13 -6.53445e-13 -1.57662e-13
316 2 0.0066188 0.0145815 0.00723761 0.001 1.0472e-05 -2.22009e-14 -4.32829e-13 -7.76628e-13
317 2 0.00562226 0.00477273 0.00132247 0.001 1.0472e-05 -2.13384e-14 6.68349e-13 -1.02476e-12
318 2 0.00596783 0.00536559 0.010693 0.001 1.0472e-05 6.17017e-13 -1.60287e-12 2.47269e-13
319 2 0.00729414 0.00333063 0.0124551 0.001 1.0472e-05 7.10572e-14 -4.10023e-13 -4.74267e-13
320 2 0.00184032 0.0120793 0.0144747 0.001 1.0472e-05 -6.40952e-13 -1.299e-12 -3.84873e-14
321 2 0.00236701 0.0149398 0.00212329 0.001 1.0472e-05 1.77926e-13 8.53961e-13 7.10278e-14
322 2 0.00269748 0.00373721 0.00383797 0.001 1.0472e-05 1.01816e-12 1.49409e-12 -1.47737e-13
323 2 0.0144285 0.00342394 0.0130015 0.001 1.0472e-05 -3.80049e-13 -3.79622e-13 -3.21654e-13
324 2 0.014394 0.0147198 0.00818975 0.001 1.0472e-05 -1.75738e-12 -2.97713e-13 1.0438e-12
325 2 0.0136472 0.006821 0.0130219 0.001 1.0472e-05 -1.0542e-12 -1.03419e-12 -7.79118e-13
326 2 0.0108772 0.0129161 0.00181871 0.001 1.0472e-05 -5.33152e-13 6.71441e-13 1.04913e-12
327 2 0.013759 0.0108389 0.00784852 0.001 1.0472e-05 1.8495e-12 2.05582e-12 2.52062e-13
328 2 0.002086 0.00987322 0.0108939 0.001 1.0472e-05 9.95007e-13 -4.44189e-13 8.08793e-13
329 2 0.0106617 0.0102324 0.00420182 0.001 1.0472e-05 6.23565e-13 8.38416e-13 -1.28732e-12
330 2 0.00760515 0.0042274 0.00728987 0.001 1.0472e-05 7.70733e-14 -8.61934e-13 3.53168e-13
331 2 0.00951329 0.0100961 0.00974049 0.001 1.0472e-05 8.35515e-13 7.08266e-13 1.53323e-13
332 2 0.0147426 0.012606 0.00667052 0.001 1.0472e-05 -1.4006e-12 1.27341e-12 6.66217e-14
333 2 0.000772106 0.00917672 0.000891831 0.001 1.0472e-05 1.33944e-13 1.28821e-12 1.48954e-12
334 2 0.0128459 0.00868162 0.0144002 0.001 1.0472e-05 9.76201e-13 3.91654e-13 -9.96473e-15
335 2 0.0127752 0.0139847 0.00230137 0.001 1.0472e-05 5.72424e-13 4.66661e-13 3.75092e-13
336 2 0.00206314 0.0089518 0.00458818 0.001 1.0472e-05 3.57684e-12 1.64168e-12 9.3905e-13
337 2 0.00863629 0.00430558 0.0144603 0.001 1.0472e-05 -8.33011e-13 -8.75943e-14 1.66005e-13
338 2 0.00139906 0.0022093 0.00850697 0.001 1.0472e-05 4.98095e-13 -1.84196e-13 5.68224e-14
339 2 0.000519877 0.00761316 0.010058 0.001 1.0472e-05 1.10536e-12 8.24461e-13 -3.90929e-12
340 2 0.0066216 0.0078737 0.00612172 0.001 1.0472e-05 -4.52806e-13 -3.91786e-13 -3.19003e-13
341 2 0.00177003 0.0106641 0.00911158 0.001 1.0472e-05 1.29016e-12 -4.41618e-13 1.06248e-12
342 2 0.000885436 0.00966532 0.00602013 0.001 1.0472e-05 -2.63941e-12 8.93921e-13 -1.40553e-12
343 2 0.0063218 0.0125101 0.00426012 0.001 1.0472e-05 -3.98089e-13 -6.6165e-13 1.26701e-12
344 2 0.00892088 0.00514356 0.00129141 0.001 1.0472e-05 8.82539e-13 6.8689e-15 -3.22111e-13
345 2 0.00625872 0.00230596 0.00867378 0.001 1.0472e-05 -1.69197e-13 1.19365e-12 5.61818e-13
346 2 0.0121634 0.0143626 0.00679055 0.001 1.0472e-05 3.14102e-12 1.02772e-13 -5.62334e-13
347 2 0.00695371 0.0147786 0.0122093 0.001 1.0472e-05 -1.29066e-12 3.25895e-13 4.38191e-14
348 2 8.43548e-05 0.00995715 0.00799865 0.001 1.0472e-05 -2.66458e-13 6.48042e-13 1.61051e-13
349 2 0.00462761 0.014216 0.00872348 0.001 1.0472e-05 -1.77093e-13 -5.54664e-13 -1.61367e-12
350 2 0.015169 0.0101144 0.011814 0.001 1.0472e-05 1.36216e-12 -9.39333e-13 -1.71341e-13
351 2 0.00603778 0.00111112 0.00717034 0.001 1.0472e-05 -1.49979e-12 3.5861e-13 3.95004e-14
352 2 0.0141363 0.00826352 0.00175616 0.001 1.0472e-05 -2.79632e-12 2.94468e-13 -3.29776e-13
353 2 0.0079913 0.00761103 0.0143987 0.001 1.0472e-05 5.36961e-13 -1.24959e-12 -9.42479e-14
354 2 0.00452008 0.00844254 0.0144932 0.001 1.0472e-05 -1.8242e-12 -7.07508e-13 3.80715e-12
355 2 0.0131778 0.00166347 0.000956286 0.001 1.0472e-05 5.56629e-13 3.85712e-12 7.63764e-14
356 2 0.0107403 0.0055451 0.00180551 0.001 1.0472e-05 -3.57207e-14 7.67511e-14 -1.29617e-13
357 2 0.00453691 0.00942341 0.00954167 0.001 1.0472e-05 5.60748e-13 -5.23559e-14 -3.45519e-12
358 2 0.00962222 0.0113023 0.00289497 0.001 1.0472e-05 2.1129e-14 1.27536e-13 -8.32684e-13
359 2 0.0026326 0.00369939 0.0105278 0.001 1.0472e-05 -3.61745e-14 5.09826e-13 -5.92102e-13
360 2 0.0120467 0.0108003 0.0126983 0.001 1.0472e-05 7.65361e-13 6.48759e-13 -3.531e-13
361 2 0.00874637 0.0122671 0.00818002 0.001 1.0472e-05 -2.82934e-12 6.58176e-12 1.61766e-12
362 2 0.00641682 0.0122244 0.00702925 0.001 1.0472e-05 1.54998e-12 -4.89879e-13 -6.33373e-13
363 2 0.00552444 0.0108269 0.00453722 0.001 1.0472e-05 -2.94486e-13 -1.73508e-12 1.1291e-12
364 2 0.0103754 0.006324 0.00347663 0.001 1.0472e-05 -4.22458e-14 -1.67481e-15 7.6448e-13
365 2 0.00576113 0.00496984 0.00514114 0.001 1.0472e-05 -5.39039e-13 -2.5529e-13 2.33085e-13
366 2 0.00996983 0.00162457 0.00463433 0.001 1.0472e-05 -2.07916e-13 1.29447e-12 2.92393e-13
367 2 0.0106884 0.0107356 0.00604621 0.001 1.0472e-05 1.50059e-12 -1.50684e-12 -1.63763e-12
368 2 0.0116912 0.0149773 0.00096492 0.001 1.0472e-05 -7.99817e-13 4.27857e-13 -2.50787e-13
369 2 0.00953084 0.00657841 0.0070626 0.001 1.0472e-05 -6.49156e-13 6.67213e-13 -1.31569e-15
370 2 0.00291999 0.00322739 0.0144818 0.001 1.0472e-05 -5.99587e-13 -2.80868e-14 8.57695e-15
371 2 0.00616535 0.00772151 0.00208443 0.001 1.0472e-05 2.82643e-13 -5.39892e-13 4.42078e-13
372 2 0.00790977 0.0005545 0.00657309 0.001 1.0472e-05 -5.93045e-13 -1.83418e-13 -7.2778e-13
373 2 0.00253931 0.00484977 0.0121283 0.001 1.0472e-05 -4.01068e-13 -1.28495e-13 9.37265e-13
374 2 0.00708603 0.00226918 0.00604545 0.001 1.0472e-05 -3.40783e-13 8.84727e-14 5.91916e-14
375 2 0.00723472 0.0109701 0.00343743 0.001 1.0472e-05 -6.83618e-13 -5.70432e-13 9.20255e-13
376 2 0.00859229 0.00485768 0.00319335 0.001 1.0472e-05 3.30248e-13 1.00815e-13 -9.08904e-14
377 2 0.00109812 0.00349856 0.0116007 0.001 1.0472e-05 -8.95244e-13 -1.91864e-13 -1.65666e-13
378 2 0.00572299 0.00380241 0.00301698 0.001 1.0472e-05 7.31472e-17 -1.06766e-13 -5.87025e-13
379 2 0.0151635 0.00648948 0.0120217 0.001 1.0472e-05 6.28148e-13 -1.2142e-12 -6.84942e-13
380 2 0.00368541 0.00648051 0.0125803 0.001 1.0472e-05 -2.18237e-12 -1.69579e-12 2.55614e-12
381 2 0.0034757 0.0142895 0.000851078 0.001 1.0472e-05 2.88292e-13 2.96037e-13 -6.41393e-13
382 2 0.0131829 0.00249219 0.0143918 0.001 1.0472e-05 -9.77191e-13 -3.72428e-13 -3.56508e-14
383 2 0.00318155 0.0014035 0.0139873 0.001 1.0472e-05 -3.82597e-14 1.11255e-13 -4.7064e-13
384 2 0.00906508 0.00223346 0.00795407 0.001 1.0472e-05 1.28372e-12 -1.96178e-15 -6.01229e-13
385 2 0.000803853 0.00855083 0.0115832 0.001 1.0472e-05 5.77981e-13 -3.40102e-13 -9.26429e-13
386 2 0.00248374 0.0151863 0.00540234 0.001 1.0472e-05 9.12255e-13 1.16145e-12 6.74621e-13
387 2 0.0097276 0.00238535 0.00987972 0.001 1.0472e-05 1.68214e-13 -1.27041e-13 2.5921e-13
388 2 0.0115477 0.00659241 0.00495397 0.001 1.0472e-05 -2.84612e-13 -2.27724e-15 6.12021e-13
389 2 0.00703731 0.00147038 0.0130426 0.001 1.0472e-05 -5.37809e-13 -5.15431e-14 1.82553e-13
390 2 0.00098502 0.0053282 0.0111163 0.001 1.0472e-05 -4.14042e-13 3.89947e-14 1.30091e-13
391 2 0.003511 0.015171 0.0131598 0.001 1.0472e-05 -1.11427e-13 1.01162e-12 -6.84484e-13
392 2 0.00872676 0.0148175 0.0113207 0.001 1.0472e-05 -3.8506e-13 -7.96699e-13 -1.29625e-12
393 2 0.00240649 0.00685607 0.00344709 0.001 1.0472e-05 6.24977e-13 -9.81146e-14 2.61575e-12
394 2 0.0141476 0.0130014 0.00491582 0.001 1.0472e-05 -2.42847e-13 2.2207e-12 -7.40364e-13
395 2 0.0103426 0.00140231 0.0128859 0.001 1.0472e-05 -3.20182e-13 2.5859e-13 6.12046e-13
396 2 0.00198955 0.0125949 0.00943874 0.001 1.0472e-05 1.24349e-12 -1.49576e-13 -1.00392e-12
397 2 0.0102956 0.00903363 0.0124232 0.001 1.0472e-05 1.34116e-12 -4.53451e-14 5.66055e-13
398 2 0.00125962 0.014085 0.00337117 0.001 1.0472e-05 -2.93595e-13 1.22346e-12 -3.435e-13
399 2 0.0136293 0.0151931 0.000883264 0.001 1.0472e-05 -6.33115e-13 1.23426e-12 1.77253e-14
400 2 0.00349408 0.00984074 0.0121777 0.001 1.0472e-05 -1.14081e-12 -1.44428e-12 2.31926e-12
401 3 0.00286447 0.009734 0.0011025 0.00125 2.04531e-05 -4.34662e-12 -2.8236e-12 -5.76421e-13
402 3 0.00864119 0.00172406 0.011622 0.00125 2.04531e-05 -1.03203e-12 1.74393e-13 2.87899e-12
403 3 0.0142043 0.00878106 0.00656703 0.00125 2.04531e-05 5.19291e-12 -6.14157e-12 5.64125e-12
404 3 0.0106021 0.0130877 0.00764289 0.00125 2.04531e-05 1.7635e-12 1.76354e-12 7.59921e-14
405 3 0.00255816 0.00114621 0.00710047 0.00125 2.04531e-05 -2.52429e-13 9.66491e-13 -3.92033e-13
406 3 0.0138166 0.0150889 0.00444539 0.00125 2.04531e-05 -3.57784e-12 4.58037e-12 -8.97716e-13
407 3 0.000265837 0.00514675 0.0032108 0.00125 2.04531e-05 -8.04163e-14 1.1465e-12 -3.1862e-12
408 3 0.000596411 0.0117735 0.00480197 0.00125 2.04531e-05 -5.51539e-13 5.53881e-12 -3.55158e-12
409 3 0.00487931 0.00937461 0.00280342 0.00125 2.04531e-05 -1.67279e-12 -4.01052e-13 -6.43538e-13
410 3 0.011736 0.00066532 0.00405254 0.00125 2.04531e-05 -2.18802e-12 2.50334e-12 5.33055e-13
411 3 0.00389386 0.013466 0.00280387 0.00125 2.04531e-05 1.25862e-12 1.05662e-12 -7.61217e-13
412 3 0.0125126 0.0140022 0.0137814 0.00125 2.04531e-05 -2.2133e-12 -7.08561e-13 5.69113e-13
413 3 0.00959524 0.0147618 0.00155384 0.00125 2.04531e-05 4.24531e-13 8.11024e-14 1.59351e-14
414 3 0.0114087 0.0138141 0.00980987 0.00125 2.04531e-05 1.26751e-12 7.78291e-13 1.89561e-13
415 3 0.00423907 0.0107346 0.0139761 0.00125 2.04531e-05 1.0239e-12 1.75721e-12 -1.76945e-12
416 3 0.0107363 0.00464063 0.0140857 0.00125 2.04531e-05 -8.15449e-13 -4.87055e-13 -5.10372e-14
417 3 0.000154844 0.00109198 0.0119181 0.00125 2.04531e-05 -1.59788e-12 -5.06909e-13 1.76149e-12
418 3 0.00204686 0.00637336 0.00117652 0.00125 2.04531e-05 -5.32601e-12 3.60511e-13 -2.1046e-12
419 3 0.0137165 0.00929045 0.00956968 0.00125 2.04531e-05 3.53665e-12 -3.07882e-12 -1.86662e-13
420 3 0.00709482 0.0119501 0.0142682 0.00125 2.04531e-05 2.58718e-12 -6.27061e-12 4.52758e-14
421 3 0.00522698 0.0073251 0.0040587 0.00125 2.04531e-05 -2.46829e-13 3.42135e-12 4.64439e-13
422 3 0.0068171 0.0116391 0.0119993 0.00125 2.04531e-05 -1.74154e-14 -1.60699e-12 -1.91204e-13
423 3 0.0149669 0.0129066 0.00285924 0.00125 2.04531e-05 -2.06013e-13 3.36175e-12 4.30026e-13
424 3 0.0119203 0.00429212 0.00786969 0.00125 2.04531e-05 1.16943e-12 1.79054e-12 -2.56047e-14
425 3 0.00527292 0.00713916 0.00961492 0.00125 2.04531e-05 2.70478e-12 -4.18405e-13 -6.86276e-12
426 3 0.00332749 0.00282902 0.0123916 0.00125 2.04531e-05 -1.65792e-12 1.00539e-12 5.42017e-14
427 3 0.0106172 0.0061586 0.00884653 0.00125 2.04531e-05 5.1539e-13 1.01277e-12 -3.50291e-14
428 3 0.010236 0.00840283 0.00599713 0.00125 2.04531e-05 -1.09911e-13 -3.95552e-14 -2.70734e-13
429 3 0.00787271 0.0090787 0.0125727 0.00125 2.04531e-05 -1.13092e-12 2.54946e-12 -6.98974e-13
430 3 0.012392 0.0035215 0.0102817 0.00125 2.04531e-05 4.82555e-13 -5.30649e-13 1.58653e-13
431 3 0.000478223 0.0143084 0.00535659 0.00125 2.04531e-05 -4.12307e-12 1.79285e-12 -2.49152e-13
432 3 0.00300831 0.00642562 0.010603 0.00125 2.04531e-05 -8.24695e-13 1.12013e-12 1.56776e-12
433 3 0.00488582 0.00666235 0.00631211 0.00125 2.04531e-05 -1.27624e-12 -3.40342e-13 4.47702e-13
434 3 0.0140576 0.00533103 0.00758861 0.00125 2.04531e-05 4.76958e-13 -3.77245e-13 6.66429e-13
435 3 0.00352808 0.00641109 0.00817625 0.00125 2.04531e-05 2.4258e-12 1.53566e-12 2.35833e-12
436 3 0.00541196 0.00333014 0.00665278 0.00125 2.04531e-05 -1.56037e-12 1.74247e-12 -2.08648e-12
437 3 0.0128722 0.0100815 0.00515816 0.00125 2.04531e-05 6.77754e-13 5.19591e-12 -4.66529e-12
438 3 0.00676824 0.0091283 0.00445074 0.00125 2.04531e-05 -3.44984e-12 2.86504e-12 -1.9571e-12
439 3 0.00150798 0.00130126 0.00109445 0.00125 2.04531e-05 8.44394e-14 1.34309e-12 1.5127e-12
440 3 0.00404456 0.00864856 0.00752236 0.00125 2.04531e-05 -2.65426e-13 1.15844e-12 -8.57119e-13
441 3 0.00647566 0.00104766 0.0108102 0.00125 2.04531e-05 -1.59623e-12 5.07553e-13 7.68663e-13
442 3 0.00358582 0.0112819 0.0101736 0.00125 2.04531e-05 2.39529e-12 -1.67725e-12 -3.21012e-12
443 3 0.0137968 0.00708503 0.0105313 0.00125 2.04531e-05 4.39621e-12 -4.59771e-12 -4.06619e-12
444 3 0.00730094 0.00931706 0.010022 0.00125 2.04531e-05 9.62816e-13 -6.01375e-13 -6.12867e-13
445 3 0.0114463 0.00207711 0.00861686 0.00125 2.04531e-05 -6.66471e-14 -8.22255e-13 1.04017e-12
446 3 0.009053 0.0079031 0.0109555 0.00125 2.04531e-05 2.31817e-13 -1.17605e-12 1.57557e-13
447 3 0.00308504 0.00529079 0.0142464 0.00125 2.04531e-05 -1.53412e-13 -1.15025e-12 -1.91897e-12
448 3 0.0113986 0.00787863 0.0104791 0.00125 2.04531e-05 -2.38226e-12 2.93572e-12 1.10735e-12
449 3 0.00358764 0.0043882 0.00196482 0.00125 2.04531e-05 -3.53571e-13 1.42595e-12 1.28958e-12
450 3 0.0078991 0.0141693 0.0141394 0.00125 2.04531e-05 -7.9533e-13 -2.19686e-12 9.77189e-13
451 3 0.00151112 0.00661975 0.013202 0.00125 2.04531e-05 -1.10166e-12 2.30135e-14 -1.04189e-12
452 3 0.00185793 0.0139856 0.00720806 0.00125 2.04531e-05 -2.74262e-13 1.62562e-12 -4.61487e-12
453 3 0.0103195 0.0129423 0.0135931 0.00125 2.04531e-05 -4.30747e-13 4.28723e-13 8.22657e-13
454 3 0.000778643 0.0044607 0.0142257 0.00125 2.04531e-05 -4.23111e-13 -6.94497e-13 5.26955e-14
455 3 0.0150834 0.00832007 0.0133538 0.00125 2.04531e-05 2.14968e-13 5.35484e-13 -3.15244e-12
456 3 0.00429788 0.00460278 0.00953474 0.00125 2.04531e-05 7.16071e-14 3.68455e-13 2.90192e-12
457 3 0.00358932 0.0124559 0.00693932 0.00125 2.04531e-05 1.97373e-12 -5.47604e-13 -4.11886e-12
458 3 0.0124797 0.00120012 0.0124975 0.00125 2.04531e-05 -1.61053e-12 2.59343e-13 1.81529e-12
459 3 0.0055355 0.000255031 0.0029715 0.00125 2.04531e-05 6.80663e-13 2.29752e-12 -1.99023e-12
460 3 0.0118559 0.00265954 0.0028569 0.00125 2.04531e-05 -4.81233e-13 -2.30781e-12 -5.84602e-13
461 3 0.002976 0.010311 0.00605346 0.00125 2.04531e-05 -2.31888e-12 2.66212e-13 -3.37361e-12
462 3 0.00794846 0.0153104 0.00326511 0.00125 2.04531e-05 -1.01972e-14 7.9499e-14 -3.73429e-13
463 3 0.00940419 0.00919532 0.00201588 0.00125 2.04531e-05 2.05906e-12 -9.24069e-13 8.19953e-13
464 3 0.0120431 0.0125817 0.0117104 0.00125 2.04531e-05 7.39496e-13 -3.31992e-13 -1.11435e-12
465 3 0.00966264 0.00154015 0.00253213 0.00125 2.04531e-05 1.36191e-12 -3.52416e-13 -3.1512e-13
466 3 0.008276 0.00645263 0.00919447 0.00125 2.04531e-05 1.34987e-14 -5.04285e-14 1.94832e-13
467 3 0.00259572 0.0131113 0.00478786 0.00125 2.04531e-05 4.31606e-13 1.0018e-12 1.35599e-12
468 3 0.00542242 0.0116958 0.00257056 0.00125 2.04531e-05 3.79315e-13 -3.05406e-13 3.08884e-12
469 3 0.00232622 0.00341988 0.00624313 0.00125 2.04531e-05 1.7018e-12 2.1344e-13 -1.31487e-12
470 3 0.0134051 0.00505072 0.0118767 0.00125 2.04531e-05 1.86864e-13 -1.82835e-12 -5.66204e-13
471 3 0.00988032 0.00569896 0.0111818 0.00125 2.04531e-05 -8.39477e-13 9.24772e-14 -7.42491e-13
472 3 0.000727052 0.00813109 0.00273617 0.00125 2.04531e-05 7.03119e-12 -7.51968e-12 -2.56479e-12
473 3 0.0018216 0.0105733 0.00310661 0.00125 2.04531e-05 -4.2046e-12 2.32337e-12 -4.13408e-12
474 3 0.0132164 0.00464896 0.0142442 0.00125 2.04531e-05 -8.35328e-13 -7.77533e-13 -1.5987e-13
475 3 0.00547061 0.00220868 0.00452783 0.00125 2.04531e-05 -1.88379e-13 1.25549e-12 -6.59662e-13
476 3 0.00417548 0.00707696 0.00185079 0.00125 2.04531e-05 2.02187e-12 -2.14712e-12 -1.79217e-12
477 3 0.012717 0.00497249 0.00564253 0.00125 2.04531e-05 2.23084e-12 5.23906e-13 6.61218e-13
478 3 0.00390924 0.00208158 0.00278571 0.00125 2.04531e-05 2.70889e-13 1.18545e-12 1.89956e-12
479 3 0.0119641 0.0066168 0.0141512 0.00125 2.04531e-05 1.79482e-13 -1.57943e-12 -5.14225e-13
480 3 0.00132069 0.000897655 0.00340791 0.00125 2.04531e-05 3.03906e-12 8.26667e-13 2.19185e-12
481 3 0.0110828 0.010023 0.0142771 0.00125 2.04531e-05 -1.54327e-12 3.56085e-14 3.31681e-14
482 3 0.00760919 0.0117553 0.00983223 0.00125 2.04531e-05 -1.42988e-12 2.32625e-12 7.91412e-14
483 3 0.0147465 0.00741987 0.00833856 0.00125 2.04531e-05 -1.1553e-12 1.08391e-12 -6.50368e-12
484 3 0.00126161 0.0116434 0.00723613 0.00125 2.04531e-05 4.94646e-13 2.95004e-12 -2.21257e-13
485 3 0.0148598 0.00183155 0.00485025 0.00125 2.04531e-05 -2.70706e-12 5.066e-12 -1.87842e-12
486 3 0.0041845 0.000270788 0.0112352 0.00125 2.04531e-05 -2.35043e-12 1.41657e-12 -4.95756e-13
487 3 0.00757262 0.0105256 0.00773959 0.00125 2.04531e-05 1.58094e-12 2.22312e-12 2.80133e-12
488 3 0.00670747 0.00583542 0.00290594 0.00125 2.04531e-05 -2.16162e-13 -1.97115e-12 -9.82005e-13
489 3 0.0108315 0.00063707 0.00626549 0.00125 2.04531e-05 3.01204e-12 5.24657e-13 2.13112e-12
490 3 0.000256757 0.00786836 0.00497188 0.00125 2.04531e-05 -4.52562e-12 -1.07691e-11 3.92533e-12
491 3 0.0137817 0.00307043 0.00676854 0.00125 2.04531e-05 3.9845e-14 1.84454e-12 -4.86933e-12
492 3 0.0151889 0.00300748 0.00131104 0.00125 2.04531e-05 -2.05179e-12 -2.21151e-13 2.56974e-13
493 3 0.0118046 0.0110655 0.00245696 0.00125 2.04531e-05 1.18149e-12 -3.53575e-12 2.16909e-12
494 3 0.00899819 0.00313438 0.00595921 0.00125 2.04531e-05 -1.57318e-12 2.71786e-12 -1.17405e-12
495 3 0.00776734 0.000944439 0.00111534 0.00125 2.04531e-05 5.53398e-13 6.23858e-13 -9.07787e-13
496 3 0.0145161 0.00101532 0.00961945 0.00125 2.04531e-05 -9.73647e-13 2.34661e-12 -2.53935e-12
497 3 0.0132851 0.00466757 0.0026714 0.00125 2.04531e-05 -2.00667e-12 -2.54694e-12 -5.43813e-12
498 3 0.00817881 0.00822097 0.00753351 0.00125 2.04531e-05 9.94291e-13 7.95787e-13 7.60857e-13
499 3 0.0112204 0.00325932 0.00515858 0.00125 2.04531e-05 7.06283e-13 3.48847e-12 -1.18826e-12
500 3 0.00687735 0.0143408 0.00513623 0.00125 2.04531e-05 -8.29609e-13 -1.53672e-13 -9.25635e-13
