ITEM: TIMESTEP
50000
ITEM: NUMBER OF ATOMS
500
ITEM: BOX BOUNDS pp pp ff
0.0000000000000000e+00 1.5370634520482899e-02
0.0000000000000000e+00 1.5370634520482899e-02
0.0000000000000000e+00 1.5370634520482899e-02
ITEM: ATOMS id type x y z vx vy vz omegax omegay omegaz radius mass fx fy fz
1 1 3.669440220348e-03 4.709264018227e-04 6.666652851781e-03 1.702977567241e-06 4.126217810395e-06 -1.934127685177e-06 -2.527878475600e-03 7.447869163046e-04 2.993116124354e-04 7.500000000000e-04 4.417864669111e-06 -7.143368384182e-09 -1.713114356498e-08 8.332773591659e-09
2 1 5.781445138898e-03 4.670502978724e-03 6.295448308088e-03 1.710053778819e-06 4.375766962196e-06 -1.000386766841e-06 4.766510679396e-04 -3.378497319334e-04 4.723909860985e-04 7.500000000000e-04 4.417864669111e-06 -7.246327178732e-09 -1.839857269824e-08 4.199942287031e-09
3 1 1.750990413758e-03 6.429054411982e-03 3.714203280845e-03 5.207909964919e-06 2.548600111247e-06 -1.373047302856e-06 1.507865191585e-02 9.860755862512e-03 1.504925715673e-02 7.500000000000e-04 4.417864669111e-06 -2.177828306639e-08 -1.074896785580e-08 5.691369186194e-09
4 1 5.572718759549e-03 4.454763485110e-03 6.859149057849e-04 -3.805443941756e-06 2.169739004043e-06 1.903448315940e-06 -2.804206074373e-03 -4.567202163441e-03 -1.144086482132e-03 7.500000000000e-04 4.417864669111e-06 1.585736209220e-08 -9.182605374163e-09 -7.967665423413e-09
5 1 1.832059477185e-03 5.552208036176e-03 6.857292006808e-04 3.535065155543e-06 -6.080721209501e-06 1.409199323300e-06 7.865483615897e-03 4.939244285545e-03 -1.004825794878e-03 7.500000000000e-04 4.417864669111e-06 -1.479059618429e-08 2.528472169408e-08 -5.880810302837e-09
6 1 5.762543389493e-03 6.860726302319e-03 2.428446458089e-03 5.463800735014e-06 4.434037575395e-06 1.926270424406e-06 -2.347994595098e-04 2.726885166806e-03 4.914549846732e-03 7.500000000000e-04 4.417864669111e-06 -2.295247372920e-08 -1.866026706837e-08 -8.043693207546e-09
7 1 2.804799367415e-03 1.969785247319e-03 2.129700187826e-03 -3.673538847683e-06 5.861847887443e-06 -3.498215603350e-07 4.570801324122e-02 -1.018251119044e-02 -5.066249725568e-03 7.500000000000e-04 4.417864669111e-06 1.520619410396e-08 -2.463464433687e-08 1.491836905867e-09
8 1 3.746282906013e-03 6.568277544622e-03 3.209019538304e-03 3.500212558872e-80 5.901175849564e-80 -1.705492592492e-80 -1.318176451983e+01 3.034971343926e+01 -1.081675735394e+01 7.500000000000e-04 4.417864669111e-06 -3.508153393770e-81 -5.914563683113e-81 1.709361796110e-81
9 1 4.777854833206e-03 4.996344465464e-03 1.751769968431e-03 9.192347733466e-07 1.291760704522e-05 2.705739190536e-06 -3.978003887935e-03 6.331198164325e-03 -1.385563216901e-02 7.500000000000e-04 4.417864669111e-06 -3.930624227628e-09 -5.412157669106e-08 -1.133622464863e-08
10 1 5.440021050336e-03 2.545214765277e-03 3.059123868077e-03 -1.130542844655e-05 1.011385431557e-05 8.069651972679e-06 1.095111186608e-02 -4.838215495013e-02 2.454154542288e-02 7.500000000000e-04 4.417864669111e-06 4.695915071646e-08 -4.232441764219e-08 -3.361254127744e-08
11 1 5.522970822873e-03 5.478523271174e-03 2.872467121334e-03 1.987811868426e-06 6.724775956360e-06 1.218989012186e-06 -1.598640997515e-03 -9.630917817095e-03 -8.388254676778e-03 7.500000000000e-04 4.417864669111e-06 -8.468254928389e-09 -2.823027439084e-08 -5.101085948772e-09
12 1 3.555396193875e-03 4.967063503624e-03 2.453447612967e-03 1.984752509595e-06 -7.074416063224e-07 1.795715301071e-06 2.426908135224e-02 -8.213810688354e-03 2.352325430766e-02 7.500000000000e-04 4.417864669111e-06 -8.329138233853e-09 2.770476112070e-09 -7.426575702532e-09
13 1 2.284658849830e-03 7.789026546201e-04 7.290980258069e-04 7.043805066704e-06 1.520594354495e-05 -5.457546413661e-07 1.852985660887e-02 -9.014188923201e-03 9.855877846332e-03 7.500000000000e-04 4.417864669111e-06 -2.952456569152e-08 -6.359286693593e-08 2.277738188868e-09
14 1 2.750222256214e-03 3.693038592816e-03 3.450463448074e-03 -1.078650781726e-05 6.860608455693e-06 1.197476742733e-05 -1.740766802942e-02 4.743388925267e-02 -3.496048342473e-03 7.500000000000e-04 4.417864669111e-06 4.468325107455e-08 -2.877135537383e-08 -4.980117382508e-08
15 1 6.227609117647e-03 8.938449628454e-03 4.219570869306e-03 1.037182710505e-06 5.823310794268e-06 4.466665222849e-07 6.144612544527e-04 -2.006742314203e-04 -4.679014874648e-03 7.500000000000e-04 4.417864669111e-06 -4.418771536589e-09 -2.446145220893e-08 -1.868948554532e-09
16 1 4.969165545586e-03 5.416910893579e-03 7.750627774937e-03 -4.005906074452e-07 2.491071564970e-06 -1.660929096262e-06 1.065214353631e-03 1.657109485043e-03 -1.068490996379e-03 7.500000000000e-04 4.417864669111e-06 1.554590500724e-09 -1.054787559171e-08 6.963602962695e-09
17 1 4.164869140065e-03 7.339879563124e-03 7.816375744446e-04 -2.124019598360e-06 3.594178690174e-06 -4.208905217774e-07 9.330671077703e-03 4.744701838188e-03 -9.463942586347e-03 7.500000000000e-04 4.417864669111e-06 8.830967588277e-09 -1.518823280013e-08 1.782180046470e-09
18 1 3.837076472432e-03 2.787548686071e-03 2.959362660100e-03 -9.691423392620e-06 7.942319368153e-06 -1.600799022467e-05 5.613541522349e-03 -1.347428258338e-03 -1.830024462202e-02 7.500000000000e-04 4.417864669111e-06 4.036568322512e-08 -3.327077287747e-08 6.684902700368e-08
19 1 8.240975214280e-04 1.865064100771e-03 3.456229086517e-03 1.221341206112e-06 -2.943305350481e-06 -2.053174712227e-06 1.028616343651e-02 1.621111951780e-02 -3.169922553338e-04 7.500000000000e-04 4.417864669111e-06 -5.214600845561e-09 1.220876497700e-08 8.616611576045e-09
20 1 4.623016625208e-03 5.476433315049e-03 6.302455609057e-03 -3.685178155043e-07 9.350753544820e-07 -4.491814873916e-06 -1.675645142524e-03 -4.123948559622e-03 4.604236432565e-03 7.500000000000e-04 4.417864669111e-06 1.391827831327e-09 -4.096521006884e-09 1.877722989141e-08
21 1 2.436756158726e-03 6.661034714579e-03 5.893036592722e-03 2.815231496271e-06 4.911889758477e-07 1.068780975868e-06 -4.053653344685e-04 -3.005674481568e-04 4.121082420258e-03 7.500000000000e-04 4.417864669111e-06 -1.191027254527e-08 -2.190833455014e-09 -4.478917617889e-09
22 1 5.657650508861e-03 3.053060163734e-03 4.371981681302e-03 -1.681026458985e-05 5.752812283190e-06 9.894100078783e-06 -9.080132753487e-04 4.898144572252e-02 -4.973340233543e-03 7.500000000000e-04 4.417864669111e-06 6.984876661261e-08 -2.413531526890e-08 -4.114529698305e-08
23 1 3.093794187512e-03 2.001057732103e-03 6.996119144798e-04 1.621832875710e-05 6.605590363872e-06 -1.102388457795e-06 -9.546396558139e-03 2.390655682193e-02 -2.518442315727e-02 7.500000000000e-04 4.417864669111e-06 -6.780460946918e-08 -2.768229345508e-08 4.616117715861e-09
24 1 1.678406759055e-03 4.949246911052e-03 1.986532158185e-03 5.768048601514e-06 9.575958032975e-07 8.731650937578e-06 -2.225136174616e-02 -5.542980411387e-03 5.820388014811e-03 7.500000000000e-04 4.417864669111e-06 -2.414786929848e-08 -4.135712816629e-09 -3.642135793924e-08
25 1 4.730021057859e-03 5.998586141186e-03 7.089623964737e-04 -8.392380828933e-07 5.654369427351e-06 -1.802460392851e-06 -7.742038277183e-03 -1.347004899674e-03 1.221206440696e-02 7.500000000000e-04 4.417864669111e-06 3.532762960378e-09 -2.375399809215e-08 7.527167008196e-09
26 1 2.407086411638e-03 3.294714455492e-03 7.141534452358e-04 -5.296359421015e-06 -1.440712218033e-06 -6.973130838408e-07 1.303379276079e-04 -5.486272033121e-03 5.518005613458e-02 7.500000000000e-04 4.417864669111e-06 2.206766527163e-08 5.990750315942e-09 2.912774180012e-09
27 1 6.202478365722e-03 3.749936321806e-03 2.746709248048e-03 -6.177657988815e-06 1.185422023090e-05 1.381396395712e-05 -1.389530656480e-02 2.180922148720e-02 -2.608778894238e-02 7.500000000000e-04 4.417864669111e-06 2.564210886960e-08 -4.957547031086e-08 -5.756147038078e-08
28 1 4.584512968347e-03 1.110274745412e-03 5.666011223086e-03 5.853161105337e-07 2.101126439387e-06 -1.143681922451e-06 -5.450723790285e-04 -1.765527146300e-03 1.711382183664e-03 7.500000000000e-04 4.417864669111e-06 -2.549261149127e-09 -8.930986839368e-09 4.812551962112e-09
29 1 2.698300437139e-03 3.945467047589e-03 1.983239678820e-03 4.803655896264e-06 -9.622397335934e-07 -2.646363116905e-06 1.144650662726e-02 4.087685352687e-02 -6.784128817132e-03 7.500000000000e-04 4.417864669111e-06 -2.012206714330e-08 3.874605924318e-09 1.109298644408e-08
30 1 5.976422985902e-03 4.339706549375e-03 4.904763275303e-03 1.404302214863e-06 4.268502247782e-06 -9.086533462237e-08 -7.414984607117e-04 8.541395716553e-04 -9.004974334228e-04 7.500000000000e-04 4.417864669111e-06 -5.961226464205e-09 -1.796834775317e-08 4.430599323054e-10
31 1 4.453101396323e-03 6.047759027746e-03 4.742124178853e-03 4.104198112262e-06 3.572135272781e-07 -5.184797526081e-06 3.393351590234e-03 -3.519374785736e-03 7.280962951849e-03 7.500000000000e-04 4.417864669111e-06 -1.729611851454e-08 -1.681237046269e-09 2.167160353003e-08
32 1 3.253124729580e-03 2.931185845397e-03 5.938198359046e-03 -4.073540478639e-05 -7.744292850728e-06 1.324140495543e-05 -1.463800432910e+03 -2.769113578334e+02 4.920886500571e+02 7.500000000000e-04 4.417864669111e-06 1.428259546518e-07 2.718411950442e-08 -4.610035108488e-08
33 1 4.042944036586e-03 4.224724854503e-03 6.886855130946e-03 -5.535454880903e-07 2.736471886213e-06 -1.743429060110e-06 1.893862293718e-04 1.097605780962e-02 -8.204304174375e-03 7.500000000000e-04 4.417864669111e-06 2.294071669852e-09 -1.164561375802e-08 7.319244071000e-09
34 1 5.630955379004e-03 6.497153917416e-03 3.898485085707e-03 2.052319298458e-06 5.321758222935e-06 8.499670214133e-07 2.297248644581e-03 2.757680317732e-04 -2.017066778432e-03 7.500000000000e-04 4.417864669111e-06 -8.698541039908e-09 -2.236867461466e-08 -3.537407914916e-09
35 1 2.189294941348e-03 1.454846853864e-03 3.784743712715e-03 1.005025691236e-06 1.727494263857e-06 -3.556269766983e-06 -1.088769324241e-02 -1.410884167378e-02 8.406612027006e-03 7.500000000000e-04 4.417864669111e-06 -4.331861453750e-09 -7.364214949961e-09 1.487189134505e-08
36 1 4.648241211415e-03 1.365749473335e-03 6.987933296962e-04 7.463479639179e-06 1.241589745079e-05 2.102728424461e-06 -1.443815279904e-02 1.080918535623e-02 -5.801241554805e-03 7.500000000000e-04 4.417864669111e-06 -3.129648241493e-08 -5.199566779832e-08 -8.761592089408e-09
37 1 4.549738851690e-03 4.634050770298e-03 5.143730842926e-03 -1.592258128174e-06 -8.048028419946e-07 -5.294250820788e-06 -1.620386561847e-03 -1.880727724697e-02 -3.826504792278e-02 7.500000000000e-04 4.417864669111e-06 6.490400791226e-09 3.150284535306e-09 2.210228281493e-08
38 1 4.805842638777e-03 3.667181063027e-03 2.332133102142e-03 -1.784812258707e-06 1.304032709872e-05 4.409172715939e-06 3.709579093326e-03 -3.386244944538e-02 2.261948515024e-02 7.500000000000e-04 4.417864669111e-06 7.336288359318e-09 -5.457674280195e-08 -1.838457248815e-08
39 1 4.070408100075e-03 4.184471151889e-03 7.183937311611e-04 3.254260865893e-06 1.896657647583e-05 -9.559953054030e-07 1.435676608301e-02 -7.491621809280e-03 1.605046990413e-02 7.500000000000e-04 4.417864669111e-06 -1.366360172501e-08 -7.944338966919e-08 3.984299879362e-09
40 1 2.581102876025e-03 3.470239537556e-03 7.191036871413e-03 1.226404271609e-06 3.027237941380e-06 -2.451979426176e-06 -1.589679727791e-03 -1.352829879804e-03 -8.914339703596e-04 7.500000000000e-04 4.417864669111e-06 -5.240653855239e-09 -1.278563879205e-08 1.025396519571e-08
41 1 4.044437627977e-03 3.540334560651e-03 4.157297068437e-03 5.253789485129e-06 -2.870089084586e-06 -1.057328714514e-05 6.322151395913e-03 -2.747896576957e-03 -2.178674366265e-02 7.500000000000e-04 4.417864669111e-06 -2.209308771629e-08 1.184431489405e-08 4.413184352247e-08
42 1 3.151731492160e-03 4.286727456476e-03 5.009713634675e-03 -1.058084238858e-06 -1.133621751536e-06 -1.397653359333e-05 -2.073445429426e-02 3.754071123053e-03 3.547137244343e-02 7.500000000000e-04 4.417864669111e-06 4.190682447376e-09 4.717795625210e-09 5.824590340486e-08
43 1 9.913561417816e-04 3.743075790372e-03 7.326408271227e-04 -3.764305009881e-06 2.937935920413e-05 8.406923753585e-06 -1.926582232588e-02 2.513575952495e-02 -9.545861300233e-02 7.500000000000e-04 4.417864669111e-06 1.566515249921e-08 -1.227665753816e-07 -3.509209466691e-08
44 1 2.548957359568e-03 5.279528982173e-03 5.941211995347e-03 1.097695345885e-05 -1.182287502195e-06 -3.013598830749e-06 6.424452530491e-03 -1.000481332339e-02 6.660808768979e-03 7.500000000000e-04 4.417864669111e-06 -4.600899306243e-08 4.805309442849e-09 1.258460210772e-08
45 1 1.091181462105e-03 4.392393841343e-03 6.858988686140e-03 9.516958344585e-06 2.024236607416e-06 -1.282409672525e-06 3.493733313437e-03 9.044709947924e-03 1.375847147045e-02 7.500000000000e-04 4.417864669111e-06 -3.982678337973e-08 -8.576535446298e-09 5.398324498268e-09
46 1 2.350101474002e-03 5.126644553444e-03 3.318742673485e-03 1.274126912707e-06 5.228293757876e-07 -2.168218058398e-06 -2.201833021372e-02 6.658165595761e-03 -1.641759620573e-02 7.500000000000e-04 4.417864669111e-06 -5.365101844756e-09 -2.275340095705e-09 9.037448547475e-09
47 1 4.983698345794e-03 2.361568684041e-03 1.680843160706e-03 2.081172886651e-05 1.860484224709e-05 -1.354296501856e-06 6.300834525959e-03 5.158809069346e-03 -3.188370729331e-03 7.500000000000e-04 4.417864669111e-06 -8.699719713069e-08 -7.784190753836e-08 5.695355164341e-09
48 1 5.056606930142e-03 4.488708596253e-03 3.792427452323e-03 5.629391210830e-06 4.348123188765e-07 -3.543399868671e-06 9.026870404219e-03 4.829035837245e-03 2.086751940961e-02 7.500000000000e-04 4.417864669111e-06 -2.356227769880e-08 -2.021114436315e-09 1.484073641484e-08
49 1 4.590244775705e-03 2.072435818164e-03 4.536368724204e-03 -1.165332820942e-05 1.291299663267e-06 1.347010867953e-06 2.208745951517e-02 -4.470045272686e-02 1.072207923527e-02 7.500000000000e-04 4.417864669111e-06 4.836252692549e-08 -5.595926589618e-09 -5.594164313597e-09
50 1 3.732463749389e-03 5.102326904418e-03 3.872274632812e-03 1.043682096626e-06 -6.287825450884e-06 3.239379879826e-06 -1.669128153768e-02 8.616418530797e-03 -8.364235357502e-03 7.500000000000e-04 4.417864669111e-06 -4.443596007628e-09 2.601758821672e-08 -1.345383429013e-08
51 1 4.652589373925e-03 3.195890962146e-03 5.467743810165e-03 -2.494178950129e-05 -1.464985443984e-06 6.693426652588e-06 -1.333123617053e-02 3.626036336656e-02 2.418323565218e-03 7.500000000000e-04 4.417864669111e-06 1.035781534705e-07 5.900183501486e-09 -2.781447973299e-08
52 1 1.454155337981e-03 4.165300580480e-03 4.009849275045e-03 -8.113885390749e-06 1.701638122234e-05 1.267058441412e-05 -2.854703406240e-02 -2.982779140906e-02 1.308477047574e-02 7.500000000000e-04 4.417864669111e-06 3.360340037118e-08 -7.079925476567e-08 -5.280076186334e-08
53 1 6.761953130095e-03 3.276241633084e-03 5.416744284870e-03 1.133366481087e-06 3.356334370588e-06 -8.155622645389e-07 7.112357213934e-04 -3.707852957680e-04 -2.716858779438e-04 7.500000000000e-04 4.417864669111e-06 -4.843875070700e-09 -1.414545252548e-08 3.427996338434e-09
54 1 5.667886122394e-03 7.844106367388e-03 3.486402815169e-03 1.391539290210e-06 5.017439954390e-06 1.211824499746e-06 -2.332488704287e-03 -1.835632465774e-03 3.098619061503e-03 7.500000000000e-04 4.417864669111e-06 -5.884784717233e-09 -2.107181011612e-08 -5.079212020546e-09
55 1 3.190558076824e-03 2.364702388733e-03 4.258507264002e-03 -5.496366181774e-06 7.537716276501e-06 -1.022270390759e-05 1.950993429117e-03 1.561904160710e-02 9.987954506351e-04 7.500000000000e-04 4.417864669111e-06 2.274563791361e-08 -3.156228105609e-08 4.259967603175e-08
56 1 3.708666154618e-03 3.031553952161e-03 1.536898048030e-03 1.263182738185e-05 8.601540883165e-06 -1.360312043024e-05 -5.248783165858e-03 -2.707462717258e-02 2.343364849045e-02 7.500000000000e-04 4.417864669111e-06 -5.284742831030e-08 -3.607555955530e-08 5.684935793951e-08
57 1 2.959117627760e-03 5.979859437957e-03 4.720503602905e-03 6.381218807190e-06 2.816472258816e-06 2.804373115421e-07 -2.590825096841e-03 5.356861376982e-03 9.529414772468e-03 7.500000000000e-04 4.417864669111e-06 -2.680523057614e-08 -1.192022379996e-08 -1.191535554374e-09
58 1 2.074749739701e-03 3.951698286273e-03 5.900290271715e-03 5.074648047409e-06 9.153213050720e-07 -5.186022784240e-06 -7.041113919132e-03 1.137906078280e-03 -1.479289706753e-02 7.500000000000e-04 4.417864669111e-06 -2.127865314329e-08 -3.968874185541e-09 2.167931853029e-08
59 1 1.070844201839e-03 3.406098940809e-03 7.879224761488e-03 -4.214788846492e-08 1.144925749714e-06 -3.166469082579e-08 -4.022287656230e-03 -2.462714821026e-02 -1.582873958860e-02 7.500000000000e-04 4.417864669111e-06 7.616191076019e-11 -4.916153164317e-09 1.460415649477e-10
60 1 2.608806077253e-03 5.815588617169e-03 1.136145777931e-02 4.350386699455e-07 2.143365832520e-06 -1.012068587251e-06 2.031229241439e-04 -4.623063648758e-05 -2.871412606056e-04 7.500000000000e-04 4.417864669111e-06 -1.937452910393e-09 -9.067891022313e-09 4.251719486096e-09
61 1 3.859552602471e-03 2.575911205712e-03 1.369506273284e-02 3.858834597751e-07 4.589290606672e-06 2.256908064631e-07 -3.199987764122e-03 -8.941772531925e-05 3.384184219464e-03 7.500000000000e-04 4.417864669111e-06 -1.784031332700e-09 -1.936936300598e-08 -9.303667630420e-10
62 1 2.497110207134e-03 4.571528294507e-03 9.726320240902e-03 -7.577094103487e-08 2.527624971030e-06 -1.349323869965e-06 -2.105861781054e-04 -5.107727863823e-04 8.252188968565e-04 7.500000000000e-04 4.417864669111e-06 2.004109785698e-10 -1.067986688319e-08 5.649469052440e-09
63 1 6.545317540875e-03 1.185592634964e-03 1.038442292340e-02 2.614424721846e-08 2.538066477596e-06 -8.015888866291e-07 6.283423664334e-04 1.193692261917e-03 4.473396606826e-04 7.500000000000e-04 4.417864669111e-06 -2.447247555658e-10 -1.068072076129e-08 3.380242145817e-09
64 1 2.812553640212e-03 4.361016352842e-03 1.139744133403e-02 1.519502818913e-07 2.299589204528e-06 -9.581440270693e-07 -3.195550531262e-04 -4.018812279398e-04 1.752585938835e-04 7.500000000000e-04 4.417864669111e-06 -7.554511256033e-10 -9.710134865685e-09 4.071109347505e-09
65 1 1.259300923916e-03 5.948232409117e-03 1.219839697775e-02 3.567587445434e-07 1.845201182823e-06 -5.619163802905e-07 2.464302217293e-04 9.906695453098e-04 1.021532339067e-04 7.500000000000e-04 4.417864669111e-06 -1.625204295735e-09 -7.781566678075e-09 2.342886273247e-09
66 1 5.193924225848e-03 2.412087492614e-03 8.486006269037e-03 8.408658959576e-07 3.394475318008e-06 -1.450531133369e-06 4.867090253186e-04 -5.429391725552e-04 -4.607548127479e-04 7.500000000000e-04 4.417864669111e-06 -3.609573121646e-09 -1.427624478331e-08 6.082186197997e-09
67 1 4.714551054616e-03 2.199072391146e-03 1.472842798383e-02 -2.593193105357e-07 2.489065393061e-06 7.465896564813e-08 3.305369169139e-03 3.197295481161e-04 -7.556096736116e-03 7.500000000000e-04 4.417864669111e-06 9.855134163030e-10 -1.049531178435e-08 -2.705722797998e-10
68 1 2.952148559333e-03 2.207010625612e-03 9.591015917673e-03 1.586644037370e-07 2.545737036218e-06 -1.343701368397e-06 1.648731757110e-04 -3.983474015535e-04 -7.681611105285e-06 7.500000000000e-04 4.417864669111e-06 -7.583375308109e-10 -1.075146864462e-08 5.639876279851e-09
69 1 3.627910697259e-03 5.627545899668e-03 1.462067273627e-02 -1.601146897404e-05 1.852992798855e-06 -8.634133888774e-06 -3.232664300800e-03 -2.575078850833e-02 3.399725435230e-03 7.500000000000e-04 4.417864669111e-06 2.357660627441e-08 -2.501176661751e-09 1.327262014373e-08
70 1 1.738109172294e-03 3.209700420550e-03 1.469560377454e-02 6.177311285946e-08 1.866057629938e-06 3.185680609737e-08 2.376510028158e-03 4.765979054001e-06 3.451256421780e-04 7.500000000000e-04 4.417864669111e-06 -2.597367495866e-10 -7.898194281196e-09 -1.188985724588e-10
71 1 5.425959835113e-03 2.023064536655e-03 1.194053071758e-02 -4.366527091797e-07 2.374834211048e-06 -6.021331908955e-07 2.301579576319e-04 -6.568002625825e-04 8.516587880721e-04 7.500000000000e-04 4.417864669111e-06 1.718200644647e-09 -9.991090479925e-09 2.596584650666e-09
72 1 5.381231933630e-03 5.726769004884e-03 1.054219021085e-02 2.723662278428e-07 2.366087918183e-06 -5.834998171198e-07 3.651119426978e-04 -7.112415847923e-04 1.439522682865e-04 7.500000000000e-04 4.417864669111e-06 -1.285815210973e-09 -1.005585647247e-08 2.443402112477e-09
73 1 6.228561486933e-03 4.928056432932e-03 1.133768068712e-02 1.884418231980e-09 2.197339232215e-06 -3.888686335397e-07 -4.827640298694e-05 1.499714370725e-04 -2.666745072703e-05 7.500000000000e-04 4.417864669111e-06 -1.841417412944e-10 -9.286406302480e-09 1.642246110859e-09
74 1 3.872529793896e-03 3.088153506775e-03 7.848075706207e-03 2.231874583969e-07 3.216973763224e-06 -1.279744166537e-06 4.508624479180e-04 -4.441928796350e-04 4.692254651643e-04 7.500000000000e-04 4.417864669111e-06 -1.039698440083e-09 -1.357443636562e-08 5.387513604935e-09
75 1 1.950775499835e-03 6.154761751256e-03 8.837123487921e-03 8.979011807038e-08 2.249228527474e-06 -7.070205525891e-07 -5.350629965095e-05 1.291748578438e-03 -1.225896784982e-03 7.500000000000e-04 4.417864669111e-06 -4.857777019387e-10 -9.524417358710e-09 2.962844780279e-09
76 1 3.959760753022e-03 1.934648326235e-03 6.818946221036e-03 -1.275508792100e-06 1.029309579044e-05 4.315650071767e-06 2.705272974314e+03 -1.490074470434e+03 1.812084335962e+03 7.500000000000e-04 4.417864669111e-06 4.330378978146e-09 -3.252224401913e-08 -1.287108329392e-08
77 1 5.204608440130e-03 4.767698115742e-03 1.276168787140e-02 -9.140702353067e-07 1.331247344525e-06 -2.491232548069e-07 1.637358263316e-03 -2.024595581167e-03 2.425948202706e-04 7.500000000000e-04 4.417864669111e-06 3.179721115438e-09 -5.648968219685e-09 1.378726261127e-09
78 1 1.272521327575e-03 6.042886345776e-03 1.364572711938e-02 3.967597461473e-07 8.450274806075e-07 -4.100921724377e-07 -1.002409247592e-03 7.468129390170e-04 1.248793799053e-03 7.500000000000e-04 4.417864669111e-06 -1.758929698067e-09 -3.544928552384e-09 1.711572940557e-09
79 1 5.639267817007e-03 4.301886096451e-03 1.023566019309e-02 3.577736776387e-07 2.568888024191e-06 -1.006361871914e-06 7.162479517684e-04 -7.854781623453e-04 6.684131574109e-05 7.500000000000e-04 4.417864669111e-06 -1.645594477464e-09 -1.085933890558e-08 4.269198131766e-09
80 1 2.640217391158e-03 3.351452122780e-03 1.247151548955e-02 -1.536403956382e-07 2.837723949147e-06 -6.632195013257e-07 -6.448710748340e-04 -4.307873329642e-04 2.929219889324e-04 7.500000000000e-04 4.417864669111e-06 4.952656199769e-10 -1.197170436545e-08 2.811785454491e-09
81 1 3.506830860157e-03 7.294530479055e-03 1.151674800258e-02 3.620612776037e-07 2.274355655380e-06 -5.115803089566e-07 4.361033255903e-04 3.310060368087e-04 -2.260986135177e-04 7.500000000000e-04 4.417864669111e-06 -1.640806520310e-09 -9.586467513927e-09 2.113159160751e-09
82 1 4.564915509409e-03 6.918278731996e-03 8.162021547161e-03 2.076532493362e-07 2.648163537448e-06 -4.248926856057e-07 -7.549944251778e-06 -5.149791771590e-04 -5.665939325488e-05 7.500000000000e-04 4.417864669111e-06 -9.847939126848e-10 -1.118333104620e-08 1.792956827169e-09
83 1 6.439928146212e-03 6.735196500155e-03 1.044164756751e-02 2.407669160773e-07 2.490281065160e-06 -3.109497779508e-07 1.487612469325e-04 4.491440443380e-04 -6.872861276284e-06 7.500000000000e-04 4.417864669111e-06 -1.126691850954e-09 -1.051526293285e-08 1.322565580276e-09
84 1 9.349308917966e-04 2.871760859243e-03 1.302334621228e-02 5.683789106186e-07 2.375596868896e-06 -7.201154294795e-07 1.320450208297e-03 5.032321936345e-04 1.598748283057e-03 7.500000000000e-04 4.417864669111e-06 -2.471192751404e-09 -1.000361334463e-08 3.033455314746e-09
85 1 4.814824653357e-03 5.919633649379e-03 9.197235681416e-03 3.275144847971e-07 2.577126114801e-06 -6.552133695964e-07 2.843493791945e-04 5.302094327725e-04 2.735311137809e-04 7.500000000000e-04 4.417864669111e-06 -1.479941975318e-09 -1.088523837869e-08 2.723647029928e-09
86 1 4.978507848136e-03 5.464679434288e-03 1.398883748146e-02 2.399151677449e-07 8.445018820618e-07 4.061179437908e-07 -8.909387211818e-04 3.198531658370e-03 -1.395474194761e-03 7.500000000000e-04 4.417864669111e-06 -1.634479168136e-09 -3.953274223123e-09 -7.588751971197e-10
87 1 1.588262619930e-04 4.019229087492e-03 1.310612901531e-02 -2.138325170943e-07 1.794877521765e-06 -3.425389465808e-07 -3.365909307989e-04 -8.622406958612e-04 -3.545024783722e-04 7.500000000000e-04 4.417864669111e-06 8.507963994308e-10 -7.596574767242e-09 1.399687415205e-09
88 1 2.637141084089e-03 3.433432539789e-03 8.827586240980e-03 5.418386131826e-09 2.735605057500e-06 -1.232677129114e-06 2.817874386298e-04 7.234856364634e-05 3.675805747635e-04 7.500000000000e-04 4.417864669111e-06 -1.230889800407e-10 -1.154223422850e-08 5.178847684717e-09
89 1 2.082099113079e-03 3.251747060905e-03 1.017654111573e-02 3.653348943325e-07 2.510334429681e-06 -1.066176156439e-06 -4.859947401230e-05 5.413787085208e-04 -2.244452671040e-04 7.500000000000e-04 4.417864669111e-06 -1.629852148386e-09 -1.059379877131e-08 4.473292762588e-09
90 1 3.942213521187e-03 1.697226740935e-03 8.351741763422e-03 4.756575869937e-07 3.276421821512e-06 -1.834780218612e-06 3.305540792897e-04 -2.251869538589e-04 2.132175923574e-04 7.500000000000e-04 4.417864669111e-06 -2.088243487547e-09 -1.380961657596e-08 7.679946902220e-09
91 1 1.490270366696e-03 3.776523273146e-03 1.171249248685e-02 1.782170743888e-07 2.302862760621e-06 -9.707121302738e-07 -1.229308376441e-04 5.558635114586e-05 6.900935381527e-05 7.500000000000e-04 4.417864669111e-06 -8.538621602149e-10 -9.716454023232e-09 4.072949486508e-09
92 1 1.638262362459e-03 4.853129705454e-03 1.085088434969e-02 9.885305430202e-08 2.218265035871e-06 -1.026926671813e-06 3.365327565774e-05 4.434097720012e-04 -2.658144821517e-04 7.500000000000e-04 4.417864669111e-06 -5.108059621273e-10 -9.390331020252e-09 4.300502732309e-09
93 1 1.823441910899e-03 4.291896406322e-03 1.324726074549e-02 -1.264044429619e-08 1.909283142138e-06 1.654330297389e-08 4.127704810929e-03 -1.464008572953e-03 -1.723301832453e-03 7.500000000000e-04 4.417864669111e-06 -1.259435147702e-13 -8.076914169056e-09 -3.650634436692e-11
94 1 5.783353438201e-03 3.705903301396e-03 1.203088905965e-02 -6.982768997545e-08 1.987812450636e-06 -6.469170713716e-07 8.708284556092e-04 -4.870183607287e-04 -3.369733466576e-04 7.500000000000e-04 4.417864669111e-06 1.792680059797e-10 -8.272241719556e-09 2.892689903972e-09
95 1 2.965576702342e-03 3.893887815430e-03 1.435854267271e-02 -2.829608983901e-07 2.633574236212e-06 -1.035676381314e-07 -1.712045012800e-03 4.124056864696e-04 4.981570957372e-04 7.500000000000e-04 4.417864669111e-06 1.051579634561e-09 -1.096670064741e-08 4.787581616870e-10
96 1 5.094185429911e-03 1.313538364989e-03 7.578745263602e-03 6.075426155746e-07 3.090556262182e-06 -1.202594860411e-06 -9.304083249016e-04 -2.293329534274e-04 -4.352112634668e-04 7.500000000000e-04 4.417864669111e-06 -2.642651224005e-09 -1.304303167160e-08 5.053319292809e-09
97 1 3.171037634929e-03 5.872197038672e-03 9.989653273299e-03 5.340326980508e-07 2.073182726961e-06 -7.543043523083e-07 6.624023180803e-04 -1.149392398905e-04 -1.916440266433e-03 7.500000000000e-04 4.417864669111e-06 -2.315177702837e-09 -8.808033085042e-09 3.175919581758e-09
98 1 3.449049562950e-03 6.122018694398e-03 8.555441378639e-03 3.274945949292e-07 2.395377576918e-06 -4.506472357950e-07 1.611571521191e-04 5.509937691156e-04 4.170800733649e-04 7.500000000000e-04 4.417864669111e-06 -1.490912705252e-09 -1.015728062847e-08 1.887653073166e-09
99 1 3.735810029347e-03 6.467517307411e-03 6.715897346415e-03 -1.097459940549e-06 7.495190836176e-07 -3.288005777618e-06 3.707533345250e-03 3.822123728905e-03 -4.449491878403e-03 7.500000000000e-04 4.417864669111e-06 4.423461259379e-09 -3.304542258684e-09 1.374397466899e-08
100 1 4.364097710303e-03 4.277499163621e-03 1.464998762389e-02 -7.567244042461e-08 1.650462617026e-06 5.100582754235e-08 2.314283773139e-03 -1.068256491980e-04 -1.508373854913e-03 7.500000000000e-04 4.417864669111e-06 2.846294511491e-10 -6.968370276270e-09 7.268379830545e-11
101 2 1.834506966655e-03 2.180468759286e-03 1.147434414851e-02 3.793546027683e-07 2.436493428922e-06 -8.125589565287e-07 3.608416542175e-05 -2.701042403006e-04 6.138057620447e-05 1.000000000000e-03 1.047197551197e-05 -3.924324376146e-09 -2.440489961865e-08 8.088609321415e-09
102 2 5.625620264713e-03 3.985882697917e-03 8.659390356968e-03 2.267566455328e-07 3.160397949589e-06 -1.424815579745e-06 1.112401079137e-05 8.137988856493e-04 8.241400856557e-04 1.000000000000e-03 1.047197551197e-05 -2.499802839560e-09 -3.158258533282e-08 1.415347647685e-08
103 2 4.409428178764e-03 4.671878999791e-03 1.125465784325e-02 1.678368417778e-07 2.287035132478e-06 -9.912236959359e-07 3.091664094596e-05 3.104494567716e-04 -2.026366145703e-04 1.000000000000e-03 1.047197551197e-05 -2.026083125421e-09 -2.283513151717e-08 9.875059686008e-09
104 2 3.508817151819e-03 4.790135248425e-03 1.301787010505e-02 -7.481432995826e-07 1.786946607255e-06 -1.221661505576e-06 2.897711648047e-04 6.384454671383e-04 -9.260372096253e-04 1.000000000000e-03 1.047197551197e-05 6.213661071206e-09 -1.780245430241e-08 1.190770573110e-08
105 2 2.525363825663e-03 5.084350042258e-03 7.597505233092e-03 5.911118378462e-08 3.370187186248e-06 -1.674908267511e-06 1.571044734588e-03 -9.842149515661e-04 1.427602708443e-03 1.000000000000e-03 1.047197551197e-05 -8.224146186383e-10 -3.365960572885e-08 1.659565697589e-08
106 2 4.254121981995e-03 3.101141311766e-03 1.219449309602e-02 -3.497163621950e-07 2.563997516096e-06 -7.561437112406e-07 -2.046257207748e-04 3.256616225788e-04 -6.498917183370e-04 1.000000000000e-03 1.047197551197e-05 3.182744651096e-09 -2.546797782077e-08 7.723157666970e-09
107 2 6.047916853500e-03 2.772993142498e-03 1.064561810222e-02 -3.140360756240e-08 2.414344424241e-06 -6.757366677037e-07 -4.081673245556e-04 -2.515630483277e-04 -2.349353811810e-04 1.000000000000e-03 1.047197551197e-05 1.833855818268e-11 -2.405323417413e-08 6.832367304341e-09
108 2 2.275241120683e-03 2.121948560885e-03 1.355122110611e-02 7.893267487189e-07 2.449652722896e-06 -3.120212022449e-07 -5.408552815916e-04 -1.290766808115e-03 -7.463202105227e-04 1.000000000000e-03 1.047197551197e-05 -8.109997432391e-09 -2.462437356163e-08 3.102794012123e-09
109 2 4.567024062406e-03 6.267441115891e-03 1.224962880016e-02 1.697736330922e-07 1.912400928737e-06 -7.598459809689e-07 3.566649610642e-04 -5.793033243212e-04 1.011595233429e-04 1.000000000000e-03 1.047197551197e-05 -2.132620200223e-09 -1.916113285194e-08 7.454720196741e-09
110 2 3.881127083749e-03 4.552550112362e-03 8.773227835902e-03 1.677022650715e-08 2.726673016055e-06 -9.211383032604e-07 1.667052196141e-04 -7.138961652575e-05 -3.907074054142e-04 1.000000000000e-03 1.047197551197e-05 -4.296578660485e-10 -2.731000901004e-08 9.217361609431e-09
111 2 5.455495103145e-03 3.111690505148e-03 6.969438394535e-03 -6.825602853244e-07 4.371157072324e-06 -2.762604696450e-06 1.435802886614e-03 -1.397289977476e-03 -2.537405588971e-03 1.000000000000e-03 1.047197551197e-05 6.374089718853e-09 -4.356230463362e-08 2.735524177703e-08
112 2 4.263603513124e-03 3.175507799008e-03 1.003358266352e-02 -4.080912772095e-08 2.502356247950e-06 -1.046688665092e-06 1.372574279322e-04 6.792854246399e-05 1.876907895265e-04 1.000000000000e-03 1.047197551197e-05 1.205569998685e-10 -2.502450065969e-08 1.050535117018e-08
113 2 2.393337395618e-03 2.023513122864e-03 7.973186264776e-03 3.714989387540e-07 3.077127289194e-06 -1.802494131402e-06 4.713107461979e-04 6.138291450659e-05 2.641646389246e-04 1.000000000000e-03 1.047197551197e-05 -3.949824114459e-09 -3.078118696330e-08 1.790152649007e-08
114 2 4.769832406281e-03 7.188387595432e-03 1.037262958278e-02 3.823910866544e-07 2.395579679344e-06 -4.804527419149e-07 1.259713497420e-04 -2.891882877350e-04 -1.132636877571e-04 1.000000000000e-03 1.047197551197e-05 -4.085346408410e-09 -2.395367610973e-08 4.691422244915e-09
115 2 2.591320650661e-03 1.439063135216e-02 5.807117889379e-03 8.856044608505e-07 2.465135196240e-06 -1.909179107275e-06 -6.690588098394e-04 -2.939503769523e-04 6.195314723899e-04 1.000000000000e-03 1.047197551197e-05 -9.000044769146e-09 -2.471291638435e-08 1.892672734684e-08
116 2 3.289026261223e-03 1.309532536529e-02 3.972429995767e-03 1.073000729068e-06 1.676344332792e-06 -9.612080731303e-07 -1.847705649373e-03 7.551276581753e-04 -1.853642690202e-03 1.000000000000e-03 1.047197551197e-05 -1.082671357010e-08 -1.687637538443e-08 9.532663962850e-09
117 2 5.010162933305e-03 1.135934122766e-02 7.140111224584e-03 4.292764155438e-07 3.264154316792e-06 -1.042753858199e-06 -5.471349357099e-04 -6.950755494409e-04 -1.212637429740e-03 1.000000000000e-03 1.047197551197e-05 -4.463751904265e-09 -3.259455381632e-08 1.031764118257e-08
118 2 2.283037570476e-03 8.033885404645e-03 8.572050917409e-04 9.803683425045e-07 8.955502741944e-08 4.381417824938e-07 -5.211922025684e-05 1.040780822793e-03 3.778719458609e-03 1.000000000000e-03 1.047197551197e-05 -9.760567537371e-09 -9.822543034220e-10 -4.366929783728e-09
119 2 3.350472733294e-03 1.054675773102e-02 2.249640931913e-03 1.202479600345e-06 1.832973299107e-06 -1.103854441431e-06 -2.497605605684e-03 -1.182105166772e-03 1.430770226900e-03 1.000000000000e-03 1.047197551197e-05 -1.209185090265e-08 -1.832393886564e-08 1.092512531703e-08
120 2 5.425347924109e-03 5.871822405759e-04 4.296819538541e-03 -8.450392694962e-07 5.637487308519e-06 -2.094192246198e-06 4.087735280790e-03 2.990917555465e-03 -3.683047434675e-04 1.000000000000e-03 1.047197551197e-05 8.107928766395e-09 -5.610721537567e-08 2.078292508351e-08
121 2 2.946475210331e-03 1.278276702667e-02 6.872389019002e-03 8.952344438310e-07 2.598892368703e-06 -9.289188695662e-07 1.266168361624e-04 -2.778238081356e-04 -2.913379499027e-05 1.000000000000e-03 1.047197551197e-05 -9.110073727378e-09 -2.601450307887e-08 9.241791787645e-09
122 2 4.329091657028e-03 1.161580953506e-02 9.394394628709e-04 9.221280781691e-08 6.898555251873e-07 -6.885820246541e-07 -3.658756840350e-04 -3.288942344069e-04 1.204434716612e-03 1.000000000000e-03 1.047197551197e-05 -1.001692707748e-09 -6.928158546959e-09 6.809669332988e-09
123 2 6.201054222247e-03 1.422287995832e-02 4.889084069399e-03 1.480917949886e-06 3.393802488180e-06 -3.317449709606e-06 -3.079918253975e-03 -1.063223411675e-03 1.734648737798e-04 1.000000000000e-03 1.047197551197e-05 -1.485928638669e-08 -3.395187025631e-08 3.284444963227e-08
124 2 4.303009780639e-03 1.447718332501e-02 4.814475115739e-03 1.371657037847e-06 2.649748753035e-06 -2.646166810697e-06 5.461465171782e-04 1.300880836145e-03 1.551832342521e-03 1.000000000000e-03 1.047197551197e-05 -1.379165231913e-08 -2.657908693245e-08 2.619382465819e-08
125 2 6.040070548884e-03 1.448727715897e-02 2.961671262022e-03 -3.958631830817e-06 5.308933865038e-06 -5.351287811180e-06 5.089620663983e-03 6.427355470685e-03 1.674014342202e-03 1.000000000000e-03 1.047197551197e-05 3.894170819027e-08 -5.283103314631e-08 5.295035251144e-08
126 2 1.763097451020e-03 9.387568000574e-03 1.998617017813e-03 4.265107983935e-07 1.044352848335e-06 -3.905126989324e-07 -2.133985634267e-03 -2.706403390753e-04 -2.147609374654e-03 1.000000000000e-03 1.047197551197e-05 -4.349141664763e-09 -1.052144451657e-08 3.887950881724e-09
127 2 3.569857388700e-03 9.420636998620e-03 5.006384262547e-03 9.063326736312e-07 1.946099042104e-06 -5.914568591945e-07 -6.445199592930e-05 -2.526383115675e-04 -6.697754121070e-05 1.000000000000e-03 1.047197551197e-05 -9.170095580810e-09 -1.959495633804e-08 5.852278772599e-09
128 2 7.519305985664e-03 1.194722727488e-02 2.568735842275e-03 6.388635231900e-07 2.298661580438e-06 -4.817309132856e-07 -9.244610629029e-04 -5.484266145889e-06 1.222992094663e-03 1.000000000000e-03 1.047197551197e-05 -6.518323209033e-09 -2.301433303110e-08 4.785823941779e-09
129 2 2.161576407018e-03 9.301341276300e-03 7.205740191840e-03 1.003649516924e-06 2.100479486467e-06 -3.525724395817e-07 -2.180826580622e-04 -4.079776397595e-04 -3.036911779076e-05 1.000000000000e-03 1.047197551197e-05 -1.017499848485e-08 -2.111174432227e-08 3.486466803924e-09
130 2 5.902571206821e-03 2.136735012371e-04 8.360766553263e-04 2.049121352969e-06 4.691519236150e-06 1.305855773855e-06 -4.457890326107e-03 3.566808981099e-03 -5.568456588049e-03 1.000000000000e-03 1.047197551197e-05 -2.033568674459e-08 -4.653756672858e-08 -1.291780198851e-08
131 2 1.728118892352e-03 6.363712714980e-04 2.356530694142e-03 5.471868086029e-06 -7.996769303406e-07 -3.608956418705e-06 3.746753221795e-03 5.898352218719e-03 -6.643879069070e-03 1.000000000000e-03 1.047197551197e-05 -5.448506701457e-08 7.632385567203e-09 3.571061450677e-08
132 2 1.676368292299e-03 9.291458582240e-03 5.350614338390e-03 1.125201099948e-06 2.218621823371e-06 -5.903236269392e-07 7.758325129037e-04 3.005383793934e-04 1.828591485045e-04 1.000000000000e-03 1.047197551197e-05 -1.136807202388e-08 -2.225167513453e-08 5.851768861844e-09
133 2 2.591256259926e-03 7.799168746521e-03 2.744085862463e-03 1.391482907554e-06 -9.036628225888e-08 5.717383220839e-08 3.509809129798e-04 -2.787023969694e-04 -6.301588815388e-03 1.000000000000e-03 1.047197551197e-05 -1.395395868365e-08 6.743507864001e-10 -5.335335436534e-10
134 2 5.768029779562e-03 9.661733641449e-03 7.162837364140e-03 1.240116413956e-07 2.854591761727e-06 2.276952824825e-07 -1.972022907706e-04 -7.383900366260e-04 6.967919837745e-04 1.000000000000e-03 1.047197551197e-05 -1.502276771466e-09 -2.854372092291e-08 -2.253461875574e-09
135 2 7.207943739296e-03 1.034831303006e-02 8.610141724792e-04 3.929417405897e-07 1.622655054830e-06 -6.226799342522e-07 -1.419733535706e-03 3.609141359050e-04 -1.025143921929e-03 1.000000000000e-03 1.047197551197e-05 -4.000527220735e-09 -1.624777291366e-08 6.204268253015e-09
136 2 1.416374137569e-03 1.297336021310e-02 4.390201885454e-03 1.663478099983e-06 3.519026155905e-06 -1.277592723966e-06 1.576628586358e-03 -9.679335456200e-04 3.181403311727e-04 1.000000000000e-03 1.047197551197e-05 -1.669789635171e-08 -3.508537351381e-08 1.270656042211e-08
137 2 3.052709683387e-03 6.322050885941e-03 1.568152391090e-03 1.756755553908e-06 -1.282431274350e-06 -5.730587646417e-07 -1.130787655525e-03 1.481929000927e-03 9.281696235782e-03 1.000000000000e-03 1.047197551197e-05 -1.750709834070e-08 1.227047065535e-08 5.920960710013e-09
138 2 2.126889237442e-03 1.166532676842e-02 3.234232732065e-03 1.352522558325e-06 3.914926642544e-06 -2.748679634631e-06 -2.223600509482e-03 4.124816766698e-03 9.960955138644e-04 1.000000000000e-03 1.047197551197e-05 -1.357381458305e-08 -3.900446007814e-08 2.720284040946e-08
139 2 6.142516122382e-03 1.266450455839e-02 3.770028107381e-03 4.188213374018e-07 2.685616294361e-06 -1.371438595123e-06 1.683929172627e-03 -5.482646378357e-04 -3.031316526569e-03 1.000000000000e-03 1.047197551197e-05 -4.337175608350e-09 -2.687229334254e-08 1.358730459134e-08
140 2 3.197122440373e-03 7.051891460701e-04 5.015353427252e-03 9.683038851304e-07 1.807101658510e-06 -2.709810815835e-06 -9.028716089171e-04 7.819790640835e-05 -1.276158043131e-03 1.000000000000e-03 1.047197551197e-05 -9.774531460188e-09 -1.824093935959e-08 2.698122429584e-08
141 2 1.527853361577e-02 7.610556364540e-03 9.555127365102e-04 1.111896461647e-06 -6.648291981183e-07 -9.112314256290e-07 1.148330297239e-03 1.394068967532e-03 -1.847465943476e-03 1.000000000000e-03 1.047197551197e-05 -1.110813247516e-08 6.481150637730e-09 8.989694301834e-09
142 2 3.801792970345e-03 1.146146057044e-03 3.237686997307e-03 2.615535268886e-06 7.355504077955e-06 -3.357546591700e-06 -1.802265102428e-02 4.488425823682e-03 2.453406893210e-02 1.000000000000e-03 1.047197551197e-05 -2.610597995384e-08 -7.304824745674e-08 3.330252517311e-08
143 2 9.340319055833e-04 6.032455188791e-03 7.133756771160e-03 -7.417499832914e-07 2.041900308838e-06 -9.006251537590e-07 4.328199521671e-04 6.328424713583e-04 -4.824073588782e-04 1.000000000000e-03 1.047197551197e-05 7.130373797139e-09 -2.051258548660e-08 8.902737155042e-09
144 2 2.588864183679e-03 7.667113763480e-03 4.602229878338e-03 7.995794756475e-07 7.542990588198e-07 2.371738579699e-07 -6.743296783600e-04 7.439683127542e-05 -9.404429240391e-04 1.000000000000e-03 1.047197551197e-05 -8.122301508521e-09 -7.784348511169e-09 -2.378889649709e-09
145 2 5.850068823883e-04 1.245606519339e-02 2.515833654069e-03 -8.466427993409e-07 2.250741830368e-06 3.406752045841e-07 1.451500419576e-03 -2.089290691838e-04 6.368253617525e-04 1.000000000000e-03 1.047197551197e-05 8.184625095915e-09 -2.250176248762e-08 -3.368516833394e-09
146 2 2.517209985397e-03 7.156173175227e-03 7.610964245427e-03 7.520938950315e-07 2.079483091174e-06 -4.773628353813e-07 1.556436242492e-04 -1.123384981934e-03 6.217227920160e-05 1.000000000000e-03 1.047197551197e-05 -7.752345752228e-09 -2.089905781820e-08 4.699431450042e-09
147 2 2.643530123746e-04 9.499749346848e-03 7.625312951960e-04 5.036730741464e-07 4.793638314006e-09 -1.471353976085e-07 -1.462573763930e-04 5.566278055590e-04 1.802133346915e-03 1.000000000000e-03 1.047197551197e-05 -5.024795834081e-09 -1.333637174039e-10 1.517255060043e-09
148 2 5.535562011696e-03 8.332980342003e-03 9.117938688989e-04 3.742537685800e-07 7.890359819266e-07 2.374733657451e-07 -3.959924741045e-04 7.795652430705e-05 4.601455898539e-03 1.000000000000e-03 1.047197551197e-05 -3.834032617502e-09 -7.940434941516e-09 -2.345837347711e-09
149 2 4.620369817847e-03 1.415944440644e-02 8.653872634365e-04 2.054151579032e-06 2.955009609991e-06 -8.097393229155e-07 -3.108088543312e-03 3.113199317813e-03 -2.680230860712e-04 1.000000000000e-03 1.047197551197e-05 -2.038700644395e-08 -2.934189540458e-08 8.084036255933e-09
150 2 2.721201108888e-03 1.450161219263e-02 8.436807373087e-04 2.275735157575e-06 1.521450436406e-05 1.471133935211e-06 -1.527246533282e-02 2.654415599515e-03 -1.286539520775e-02 1.000000000000e-03 1.047197551197e-05 -2.254005971112e-08 -1.507553485229e-07 -1.452378473807e-08
151 2 4.359696801300e-03 1.425823166397e-02 6.677049197203e-03 9.311521064747e-07 3.191858325627e-06 -1.849127200333e-06 -7.433029327046e-04 -1.198464318613e-03 -8.161682334887e-05 1.000000000000e-03 1.047197551197e-05 -9.487039350500e-09 -3.186423693640e-08 1.836562960547e-08
152 2 2.691725539940e-03 1.311909866866e-02 2.128561048180e-03 -3.672629745050e-06 1.409403103527e-05 2.421398979990e-06 1.494372417469e-02 4.292470998994e-03 -2.451964241578e-04 1.000000000000e-03 1.047197551197e-05 3.628374526730e-08 -1.397490608975e-07 -2.400734242015e-08
153 2 4.636232990012e-03 1.143549500842e-02 3.379966593518e-03 1.243663224611e-06 1.055845459172e-06 -1.689902873553e-08 1.861911797552e-03 -5.746839019935e-04 -3.411865856875e-03 1.000000000000e-03 1.047197551197e-05 -1.253109404629e-08 -1.070807384755e-08 1.961882173976e-10
154 2 4.650949950987e-03 1.316619845910e-02 2.579211093728e-03 -3.353627716330e-07 -2.131490559591e-07 -1.952901240524e-06 -3.949410744042e-03 -9.607801062115e-05 6.216847372546e-03 1.000000000000e-03 1.047197551197e-05 3.144531195979e-09 1.811295412327e-09 1.932993473771e-08
155 2 2.192928522674e-03 1.308995806342e-03 6.317809713854e-03 8.744722318352e-07 2.907844087565e-06 -2.722022767194e-06 -3.959056230398e-04 -1.520553587059e-04 9.975592111818e-04 1.000000000000e-03 1.047197551197e-05 -8.898649392032e-09 -2.913144119363e-08 2.701194204406e-08
156 2 5.949728602471e-03 1.315522606750e-02 6.432330833088e-03 4.274494608381e-07 3.829853621902e-06 -1.821245529366e-06 1.503493993833e-03 -8.542271116582e-04 1.795733175178e-04 1.000000000000e-03 1.047197551197e-05 -4.535058844830e-09 -3.817577609302e-08 1.799783413438e-08
157 2 4.416774445158e-03 7.972025576772e-03 2.373093247158e-03 1.805442376230e-06 -2.389668566478e-06 4.346081741985e-07 -2.078790004944e-03 -2.321735777702e-04 4.219729286753e-03 1.000000000000e-03 1.047197551197e-05 -1.805083549742e-08 2.345695027159e-08 -4.326794862169e-09
158 2 1.799926090969e-03 1.132532439454e-02 1.025009770335e-03 1.191785779032e-40 -1.604048823658e-40 5.887520499472e-41 7.135844669915e+02 5.662723153513e+02 -6.677749503634e+02 1.000000000000e-03 1.047197551197e-05 -1.192924938436e-41 1.605582041569e-41 -5.893148041319e-42
159 2 4.819935000183e-03 9.526489682607e-03 3.470246965219e-03 -1.253234611144e-06 1.366863123250e-07 -1.757281149802e-06 -3.192361271863e-04 1.457628554060e-03 4.052187999402e-04 1.000000000000e-03 1.047197551197e-05 1.223679736180e-08 -1.602690500213e-09 1.742443411010e-08
160 2 5.728763089406e-03 1.076242591804e-02 1.985859693150e-03 5.965181628519e-07 2.076183909295e-06 -4.328049569046e-07 5.028803466764e-04 -6.809165782084e-05 1.153774899753e-03 1.000000000000e-03 1.047197551197e-05 -6.077894385875e-09 -2.083522223733e-08 4.265014354930e-09
161 2 3.413201879553e-03 1.061356654994e-02 6.479510782018e-03 5.286658043265e-07 2.532297678360e-06 -8.233237161933e-07 -7.617653679005e-04 3.929058907725e-04 1.138713385081e-03 1.000000000000e-03 1.047197551197e-05 -5.462423346666e-09 -2.536988798701e-08 8.156903684817e-09
162 2 4.557581585480e-03 7.778358452498e-03 4.734024101634e-03 1.038808109287e-06 1.690592880944e-06 2.822379528177e-07 2.008542583901e-03 4.429325095079e-04 2.356639179785e-03 1.000000000000e-03 1.047197551197e-05 -1.049415857806e-08 -1.711502923928e-08 -2.805609590943e-09
163 2 4.397047371470e-03 1.244317434742e-02 5.680792585433e-03 8.689012130548e-08 2.755832467492e-06 -1.725434978182e-06 -8.568614227386e-04 1.669110833425e-03 6.446698593618e-04 1.000000000000e-03 1.047197551197e-05 -1.073567190435e-09 -2.756756051103e-08 1.707989363857e-08
164 2 1.062383254177e-03 1.339230585135e-02 9.095999256708e-04 1.337988513087e-06 1.136601448513e-06 -2.404902175335e-08 -1.245584600824e-03 1.013830526676e-03 -5.700253119523e-03 1.000000000000e-03 1.047197551197e-05 -1.335848946904e-08 -1.133693413696e-08 2.666908865059e-10
165 2 3.274876023817e-03 1.131822336314e-02 4.683616866093e-03 -1.614978364395e-08 1.575338499384e-06 -6.629615588687e-07 3.081043703201e-04 -4.472855349284e-04 8.533375133427e-04 1.000000000000e-03 1.047197551197e-05 -5.434686371027e-11 -1.592652747732e-08 6.575032570153e-09
166 2 3.846534773225e-03 9.249033481243e-03 9.259131523782e-04 2.318240199606e-07 -1.903536943447e-07 2.272557800656e-07 4.116998030568e-04 1.803914041004e-04 -3.653403689248e-03 1.000000000000e-03 1.047197551197e-05 -2.345170153332e-09 1.841859335735e-09 -2.262163867612e-09
167 2 2.749568030353e-03 1.494246297811e-02 3.711309755629e-03 2.441298939311e-06 2.893869484869e-06 -2.773339703123e-06 9.363642933025e-04 -2.989507894313e-03 9.869872036706e-04 1.000000000000e-03 1.047197551197e-05 -2.435184684981e-08 -2.893177096762e-08 2.749722994105e-08
168 2 2.273440244123e-03 9.848199043908e-03 3.681159993091e-03 1.292356537333e-06 3.127287347973e-06 -6.917452503218e-07 3.221122303166e-05 2.491484304967e-04 -1.528716606697e-03 1.000000000000e-03 1.047197551197e-05 -1.294425779703e-08 -3.119475618268e-08 6.832268174202e-09
169 2 5.104524279380e-03 7.814954191645e-03 6.873428484142e-03 9.445975971638e-07 2.645661864755e-06 -1.172322097656e-07 -3.971880349081e-05 -6.686883063810e-04 3.336243941882e-04 1.000000000000e-03 1.047197551197e-05 -9.560984035604e-09 -2.650592546231e-08 1.182394681410e-09
170 2 4.984113799241e-03 1.060817709424e-02 5.356705031179e-03 9.397733028503e-07 2.083809664844e-06 -3.277546153739e-07 -9.711622214058e-04 -9.943521186194e-04 -5.919031571104e-04 1.000000000000e-03 1.047197551197e-05 -9.514787309850e-09 -2.091223677263e-08 3.256329965614e-09
171 2 5.562883305394e-03 9.632130225546e-04 2.477854004598e-03 6.663693476922e-06 1.118754215771e-05 -2.916482562843e-07 1.551161683174e-03 -7.641218336355e-03 -1.384747961922e-02 1.000000000000e-03 1.047197551197e-05 -6.610365616723e-08 -1.109696856763e-07 2.988837997443e-09
172 2 3.797967900779e-03 1.483978462244e-02 2.314281021386e-03 8.281836638515e-06 3.571416420845e-06 1.811523259136e-06 1.065108278145e-02 -3.787134452321e-03 -1.535028733176e-02 1.000000000000e-03 1.047197551197e-05 -8.204891164854e-08 -3.561895663709e-08 -1.784877774635e-08
173 2 3.336419256164e-03 8.068736570842e-03 6.261561349466e-03 1.026848663143e-06 1.962853698927e-06 -2.037876525842e-07 -5.192457559525e-04 5.344573129076e-04 6.437772146590e-05 1.000000000000e-03 1.047197551197e-05 -1.040159513778e-08 -1.980133451411e-08 2.018435896556e-09
174 2 1.482617164291e-03 1.536307144689e-02 1.075949717107e-02 3.975611629547e-07 2.392328475629e-06 -1.000494837280e-06 1.624814567276e-04 -1.424986020980e-04 -2.187907752730e-04 1.000000000000e-03 1.047197551197e-05 -4.184040448679e-09 -2.394017356547e-08 9.915837683006e-09
175 2 1.341724899084e-03 1.014389810650e-02 1.252379204355e-02 5.702628256606e-07 2.115561843554e-06 -1.488987927641e-07 4.984127835106e-05 -2.571623079402e-04 7.820503967372e-05 1.000000000000e-03 1.047197551197e-05 -5.897889420144e-09 -2.124948889651e-08 1.428593418442e-09
176 2 9.510745919963e-04 9.100141097519e-03 1.035431122114e-02 6.118589390652e-07 2.501551816246e-06 -1.825054755000e-07 3.544714258018e-04 8.410424506303e-05 -1.110109134965e-04 1.000000000000e-03 1.047197551197e-05 -6.307142482167e-09 -2.501947474737e-08 1.776594339229e-09
177 2 4.007534572539e-03 9.128032844784e-03 7.895806673005e-03 4.500691137756e-07 2.286819396557e-06 -1.736480817320e-07 -7.091431137594e-05 1.966181076986e-04 7.577907253018e-05 1.000000000000e-03 1.047197551197e-05 -4.714952659982e-09 -2.294005287506e-08 1.707047832802e-09
178 2 2.314886058503e-03 1.374231367049e-02 1.138907186774e-02 -7.754637117328e-08 2.065838363918e-06 -1.077911420154e-06 2.128766351008e-04 -4.302884517312e-04 -1.191937088607e-04 1.000000000000e-03 1.047197551197e-05 6.347579540407e-10 -2.071613993862e-08 1.068626555927e-08
179 2 4.165172244066e-03 1.389614252091e-02 9.627877069369e-03 4.674674938094e-07 2.738852567361e-06 -1.223694948475e-06 -3.120284538075e-04 -1.151272245448e-04 3.965121999443e-04 1.000000000000e-03 1.047197551197e-05 -4.869299264407e-09 -2.738126261457e-08 1.216803057934e-08
180 2 4.955483090689e-03 1.522377716456e-02 1.444402898724e-02 -4.013584356451e-07 1.087119464829e-06 -1.739989911383e-07 6.367272013829e-04 4.434692539543e-04 1.099687289316e-03 1.000000000000e-03 1.047197551197e-05 3.956140299974e-09 -1.084242269749e-08 1.764320876174e-09
181 2 5.054886805661e-03 1.200948195227e-02 9.930035452778e-03 2.719460116025e-07 2.512425565434e-06 -5.661741527409e-07 -2.626031462426e-04 -1.617091791054e-04 2.566505322841e-04 1.000000000000e-03 1.047197551197e-05 -2.946150974321e-09 -2.520311861119e-08 5.637664843869e-09
182 2 3.113274117755e-03 1.073928722613e-02 1.255236169045e-02 4.827903702158e-07 2.489147536813e-06 8.557354953308e-08 -3.034166522482e-04 -1.818734960316e-04 2.810763484630e-04 1.000000000000e-03 1.047197551197e-05 -4.975208981502e-09 -2.485445846993e-08 -8.841408568837e-10
183 2 1.659225073186e-03 1.410523672716e-02 1.313909886172e-02 6.688689110599e-07 2.245073217557e-06 -4.850955687712e-07 -4.294875407605e-04 1.235566492544e-03 -6.074051832239e-04 1.000000000000e-03 1.047197551197e-05 -6.880368767689e-09 -2.253368979349e-08 4.762547842376e-09
184 2 2.789627079678e-03 8.733150077507e-03 1.116867388953e-02 5.652524863850e-07 2.506509776738e-06 2.963658479326e-08 4.662115578006e-06 4.048873614612e-04 -2.119174856992e-04 1.000000000000e-03 1.047197551197e-05 -5.801567236939e-09 -2.504448206566e-08 -2.894769210181e-10
185 2 5.506506942177e-03 9.802334908115e-03 9.256612065876e-03 4.857505530601e-07 2.434258720803e-06 -2.395813228719e-07 -2.643838672795e-04 9.544908607699e-05 1.022248680704e-04 1.000000000000e-03 1.047197551197e-05 -5.063310294034e-09 -2.439984445560e-08 2.386721492735e-09
186 2 6.989175034425e-03 2.992075892780e-04 1.329808830963e-02 -7.131671197212e-07 2.745454365049e-06 2.682386071200e-07 -2.010942626759e-04 4.808231349838e-04 -2.200932221613e-04 1.000000000000e-03 1.047197551197e-05 6.941425857159e-09 -2.734517624006e-08 -2.635001883631e-09
187 2 5.442486668702e-03 1.400150972291e-03 1.345531846804e-02 -1.633653301639e-06 2.201722769613e-06 -3.980571168108e-07 -2.377091022020e-04 -1.262762910869e-03 9.932334602598e-04 1.000000000000e-03 1.047197551197e-05 1.602325638882e-08 -2.189034554889e-08 3.975264873093e-09
188 2 2.231036068517e-03 9.817939578613e-03 9.101542525913e-03 6.060402253757e-07 2.498976214886e-06 -3.988977023354e-07 -2.139723195728e-04 -8.433088447610e-05 -8.937504479753e-05 1.000000000000e-03 1.047197551197e-05 -6.220919920375e-09 -2.503168145832e-08 3.947556793610e-09
189 2 1.444976365903e-03 1.182930198234e-02 9.428270655979e-03 8.263969323810e-07 2.643288023847e-06 -6.704870818230e-07 -2.531854743864e-04 1.978302966485e-04 -8.763626723247e-06 1.000000000000e-03 1.047197551197e-05 -8.397611298651e-09 -2.647582028902e-08 6.625768845838e-09
190 2 6.650228033004e-03 1.515277277526e-02 1.147099023206e-02 -2.015935365712e-08 2.755181486830e-06 -1.176827734491e-07 2.579903692419e-04 -6.033814167927e-04 9.771094503807e-04 1.000000000000e-03 1.047197551197e-05 -1.979435864237e-11 -2.745623355742e-08 1.195468829154e-09
191 2 4.425219652941e-03 1.069114067945e-02 1.109595086277e-02 4.748118980713e-07 2.397050575117e-06 -2.561088251904e-08 -6.179077551014e-05 2.727552433795e-04 -1.911513079554e-05 1.000000000000e-03 1.047197551197e-05 -4.944694801964e-09 -2.407645776816e-08 2.796764912964e-10
192 2 2.837078168606e-03 1.455777088127e-02 7.757660744669e-03 3.201643954110e-07 3.090190159253e-06 -1.707227633254e-06 4.930626959585e-04 7.671583430761e-04 4.645907396365e-04 1.000000000000e-03 1.047197551197e-05 -3.439637897393e-09 -3.082049081881e-08 1.689907254125e-08
193 2 1.112779228159e-03 8.334428419166e-03 1.211733736679e-02 7.729922969553e-07 2.039131488766e-06 -8.353610789067e-08 -1.323556539060e-04 9.967098184662e-05 1.371688044994e-04 1.000000000000e-03 1.047197551197e-05 -7.875301908476e-09 -2.039240371972e-08 7.371128662573e-10
194 2 3.320286048436e-03 8.342919032524e-04 1.445770232416e-02 -5.406370748295e-07 1.062707852989e-06 5.656630751904e-09 1.007981055943e-03 4.763227556936e-04 -8.359138806427e-04 1.000000000000e-03 1.047197551197e-05 5.278423558889e-09 -1.067433858235e-08 -7.240194843082e-11
195 2 5.473896789489e-03 1.444760362898e-02 1.279860242565e-02 -6.920920786942e-08 1.990389828715e-06 -5.073270422575e-07 -1.994647165834e-05 -2.208748371953e-04 1.469779729708e-04 1.000000000000e-03 1.047197551197e-05 5.294792363616e-10 -1.989480238203e-08 5.075662856265e-09
196 2 3.853926475271e-03 1.343074989732e-02 1.262546913403e-02 -2.939039140060e-07 2.434809357205e-06 -4.800218737960e-07 -2.857446781385e-04 -5.693599923819e-05 -6.470981607644e-04 1.000000000000e-03 1.047197551197e-05 2.765508080704e-09 -2.435140636749e-08 4.743069984861e-09
197 2 3.440614288937e-03 1.519857471010e-02 1.078979660667e-02 9.975971360003e-08 2.350722763272e-06 -1.113669109212e-06 2.371656958706e-04 2.758328384275e-04 1.048782703878e-04 1.000000000000e-03 1.047197551197e-05 -1.206519035901e-09 -2.353070826570e-08 1.104442968870e-08
198 2 3.986090974216e-03 1.092798130190e-02 8.756830257606e-03 6.444925104113e-07 2.259767263784e-06 -6.639164820361e-07 -4.099087113542e-04 -2.414720210714e-04 -2.477189036032e-04 1.000000000000e-03 1.047197551197e-05 -6.620862964982e-09 -2.266231996686e-08 6.569033213280e-09
199 2 3.115567653985e-03 1.261453094126e-02 8.821086344175e-03 7.914493791447e-07 2.477231502560e-06 -1.089428656079e-06 -2.058603241991e-05 9.554752228528e-05 2.030941498558e-06 1.000000000000e-03 1.047197551197e-05 -8.091965458876e-09 -2.483278906830e-08 1.083610063716e-08
200 2 5.950463523294e-03 1.520738191206e-02 9.671594306735e-03 2.060447379316e-07 2.597953808755e-06 -8.766610353149e-07 -2.025187302621e-04 -2.900250369239e-04 1.052053243825e-04 1.000000000000e-03 1.047197551197e-05 -2.303505997722e-09 -2.595874031359e-08 8.737047402390e-09
201 2 3.849428119575e-03 9.382336113286e-03 9.849304651529e-03 3.910351189062e-07 2.418797403171e-06 -1.910695910949e-07 6.161141026332e-05 -1.095486559107e-04 -3.350682653698e-05 1.000000000000e-03 1.047197551197e-05 -4.091063878025e-09 -2.421918585604e-08 1.849180764299e-09
202 2 2.315719288483e-03 1.122032260205e-02 7.850050159758e-03 6.216105013705e-07 2.463491298944e-06 -8.349997679144e-07 -1.766093243025e-05 1.733548617465e-04 -2.879868659517e-05 1.000000000000e-03 1.047197551197e-05 -6.380132147833e-09 -2.464255872074e-08 8.257533436778e-09
203 2 2.685067341962e-03 8.906980760394e-03 1.300070281458e-02 6.186459716819e-07 2.115676948958e-06 3.293190820584e-07 3.813444934899e-04 -3.977686685459e-04 1.035954859398e-04 1.000000000000e-03 1.047197551197e-05 -6.399477499139e-09 -2.110599645834e-08 -3.345221445082e-09
204 2 4.691474402874e-03 1.169563515777e-02 1.277794859744e-02 6.709787442869e-07 2.783829153428e-06 -2.347550331106e-07 -3.481176729195e-04 1.172101107131e-04 -2.052532302671e-04 1.000000000000e-03 1.047197551197e-05 -6.905755925404e-09 -2.786484569543e-08 2.340790742907e-09
205 2 6.056490487485e-03 1.044822758713e-02 1.346678984795e-02 2.472102921202e-07 1.904794394139e-06 -4.984523693261e-07 -1.443433015575e-04 -4.808806498112e-04 2.937656270312e-04 1.000000000000e-03 1.047197551197e-05 -2.748466217639e-09 -1.918002854247e-08 4.995342761920e-09
206 2 3.663206724168e-03 1.042020956803e-02 1.440582429870e-02 -1.893032655993e-07 2.016228161520e-07 8.998947758550e-08 -1.533261510770e-04 4.838739809176e-05 -6.803575408872e-04 1.000000000000e-03 1.047197551197e-05 1.714407331598e-09 -2.155349877585e-09 -9.366506351385e-10
207 2 6.160285072245e-03 1.118421775811e-02 1.166826073209e-02 5.828521978757e-07 2.304791388499e-06 -4.161953578135e-07 2.069404766361e-04 1.176384196554e-04 -9.333043052239e-05 1.000000000000e-03 1.047197551197e-05 -6.011919429523e-09 -2.315123590698e-08 4.166599576749e-09
208 2 5.540868702451e-03 1.201298071381e-02 1.444749295037e-02 4.874811689963e-07 1.378273217953e-06 1.208197025458e-07 1.349344757375e-03 -5.175711753974e-04 -1.086622472477e-03 1.000000000000e-03 1.047197551197e-05 -4.940520326340e-09 -1.382497228758e-08 -1.204778839675e-09
209 2 3.256100511467e-03 1.426112028106e-02 1.441211331253e-02 -2.623709925558e-07 5.660095420855e-07 -1.090619819166e-06 3.635746278670e-04 2.658493518306e-04 1.210345003193e-03 1.000000000000e-03 1.047197551197e-05 2.596279229013e-09 -5.724991116984e-09 1.092923648744e-08
210 2 3.422054396289e-03 7.667170242993e-03 9.188616716142e-03 1.899063847704e-07 2.326763200645e-06 -2.170573662440e-07 -3.012947926179e-05 5.974582477012e-04 2.263839687224e-04 1.000000000000e-03 1.047197551197e-05 -2.133214719629e-09 -2.329183328088e-08 2.151112730994e-09
211 2 2.699550428137e-03 6.589285110430e-03 1.286419279882e-02 1.459564527267e-07 1.820634769122e-06 -7.391006497404e-07 2.503779689502e-04 -4.449148167492e-04 1.610161359532e-04 1.000000000000e-03 1.047197551197e-05 -1.845495398106e-09 -1.808160510930e-08 7.303227575764e-09
212 2 4.802488425550e-03 1.326536076844e-03 9.722203696155e-03 1.247097117844e-07 2.715135997601e-06 -1.485947326831e-06 2.824320306113e-04 -2.860972553337e-04 -3.263854985818e-05 1.000000000000e-03 1.047197551197e-05 -1.482685751163e-09 -2.716547283888e-08 1.478681606579e-08
213 2 2.177710006775e-03 1.059674547319e-02 1.084310368298e-02 6.466299170804e-07 2.383003244020e-06 -1.595743926799e-07 2.283780104452e-04 8.113195252620e-05 -1.279997667032e-04 1.000000000000e-03 1.047197551197e-05 -6.638652631409e-09 -2.380718537878e-08 1.526882198044e-09
214 2 2.228987559323e-03 1.416506458105e-02 9.517263451616e-03 6.221409309958e-07 2.447334220183e-06 -1.182592475946e-06 1.022978446443e-04 -2.274597900497e-04 -1.458546094079e-05 1.000000000000e-03 1.047197551197e-05 -6.395344798995e-09 -2.453200230127e-08 1.176177985140e-08
215 2 6.393540395299e-04 1.351486970036e-02 1.040422789821e-02 4.342627318844e-07 2.308804188840e-06 -1.359343110365e-06 2.292188734007e-05 -6.252120099120e-06 4.284159436687e-05 1.000000000000e-03 1.047197551197e-05 -4.510159923279e-09 -2.312731478889e-08 1.353626685904e-08
216 2 4.551095146875e-03 1.529504519527e-02 8.308313542938e-03 2.722770442192e-07 3.076553897973e-06 -1.378353165586e-06 8.334195013805e-04 -2.246279938344e-05 -6.841687715429e-05 1.000000000000e-03 1.047197551197e-05 -2.962274783114e-09 -3.070468935331e-08 1.367092536589e-08
217 2 3.449709341569e-03 1.235241434111e-02 1.422671610932e-02 8.622009705407e-07 5.361048677452e-07 -9.712486868049e-07 -7.933118007485e-04 2.066105418613e-04 -2.563555779728e-04 1.000000000000e-03 1.047197551197e-05 -8.661539560518e-09 -5.444284037452e-09 9.634585225616e-09
218 2 5.425068836228e-03 6.998408008708e-03 1.449550953577e-02 7.330374053761e-07 8.100745165542e-07 -3.422893094473e-07 5.976879106994e-04 -6.206820126357e-04 9.993536371709e-04 1.000000000000e-03 1.047197551197e-05 -7.764133428223e-09 -8.474132061324e-09 3.604720563018e-09
219 2 4.153995217689e-03 7.751103041478e-03 1.335583909872e-02 4.307633634573e-07 1.387382368372e-06 -1.853678202627e-07 6.216385818070e-04 4.731302795567e-04 -5.506171911421e-04 1.000000000000e-03 1.047197551197e-05 -4.673437747673e-09 -1.403399415784e-08 1.966315555675e-09
220 2 3.555818061284e-03 1.721172079452e-03 1.112136380708e-02 3.183617557558e-07 2.324745502758e-06 -1.003196223696e-06 1.618296770305e-04 4.426061940512e-04 -1.582059621443e-04 1.000000000000e-03 1.047197551197e-05 -3.412282661837e-09 -2.321500556954e-08 1.000831951407e-08
221 2 1.916491714217e-03 1.115125169017e-02 1.411112233007e-02 3.286676410076e-07 1.585735703982e-06 -2.222121053873e-07 -5.028726959307e-04 -2.372691293499e-04 -9.500019359990e-04 1.000000000000e-03 1.047197551197e-05 -3.391892389227e-09 -1.591687709624e-08 2.190919099320e-09
222 2 4.972912187889e-03 9.053114557286e-03 1.447164487223e-02 1.582136094927e-07 6.599038003668e-07 1.272504969163e-07 5.182439829866e-04 -1.542271473218e-04 1.181660300008e-03 1.000000000000e-03 1.047197551197e-05 -1.813669598462e-09 -6.859441275975e-09 -1.266802904461e-09
223 2 1.479940058737e-03 1.323445163046e-02 8.023185921545e-03 8.001708083663e-07 2.400598213490e-06 -1.229421982794e-06 -2.294446164695e-04 -5.536671228421e-05 1.200537315090e-04 1.000000000000e-03 1.047197551197e-05 -8.176086404983e-09 -2.407322986694e-08 1.221354616122e-08
224 2 5.383514688088e-03 1.379635372331e-02 1.103591948237e-02 2.249783727958e-07 2.516347197053e-06 -8.669044966648e-07 3.984806131612e-04 -1.915643372191e-04 -6.527060758032e-04 1.000000000000e-03 1.047197551197e-05 -2.460016621020e-09 -2.512714363610e-08 8.616915325781e-09
225 2 6.148583309668e-03 1.339873884620e-02 9.321920187900e-03 3.751105064468e-07 2.637367346998e-06 -6.331480592860e-07 8.514219430186e-05 -2.319443295058e-04 -1.258204464675e-04 1.000000000000e-03 1.047197551197e-05 -3.885329315822e-09 -2.627699180400e-08 6.221438794473e-09
226 2 3.155059248891e-03 1.527445993288e-02 1.271562352794e-02 2.843148379804e-07 2.781660938490e-06 -6.464354356113e-07 5.688864459579e-04 -9.537475272805e-04 1.417884654276e-03 1.000000000000e-03 1.047197551197e-05 -2.987426728562e-09 -2.784857345674e-08 6.434007253553e-09
227 2 3.311652173123e-03 1.218094231241e-02 1.123243712185e-02 1.958332845390e-07 2.208047325885e-06 -3.555394901086e-07 -3.271972874285e-04 -4.774372316048e-04 4.280961810237e-04 1.000000000000e-03 1.047197551197e-05 -2.084120037025e-09 -2.212041117002e-08 3.483660894404e-09
228 2 4.782491130037e-03 1.299272331670e-02 8.015218099877e-03 7.177609854338e-07 3.246888009398e-06 -1.190789346674e-06 6.238450922621e-04 -1.711849088307e-05 4.344016489793e-04 1.000000000000e-03 1.047197551197e-05 -7.369071627838e-09 -3.235816973111e-08 1.182922138951e-08
229 2 2.879074940223e-03 5.772245447546e-04 9.137942293016e-03 3.163758628712e-07 2.682897022420e-06 -1.536515503719e-06 -5.256949824217e-05 -5.836718065922e-04 -5.184630569113e-05 1.000000000000e-03 1.047197551197e-05 -3.364460617454e-09 -2.685097197799e-08 1.529935661088e-08
230 2 4.826875130102e-03 5.121944826458e-04 1.183531982353e-02 1.596819205086e-07 2.036420503767e-06 -9.352285155469e-07 -5.040265310766e-05 -3.738991804435e-04 -1.805319460840e-04 1.000000000000e-03 1.047197551197e-05 -1.729017233296e-09 -2.031242896086e-08 9.367106376194e-09
231 2 4.366636951429e-03 9.200530350440e-03 1.217985794567e-02 5.805363618486e-07 2.201689675079e-06 2.943070507906e-07 1.247867485738e-04 4.049038672361e-04 -2.639754665234e-04 1.000000000000e-03 1.047197551197e-05 -5.963002070051e-09 -2.207650355828e-08 -2.817822072719e-09
232 2 1.833052163290e-03 7.405910317248e-03 1.026478860675e-02 3.416111776477e-07 2.367513021576e-06 1.957789150509e-07 -5.179495243772e-04 -4.817389519002e-04 -6.746988864538e-05 1.000000000000e-03 1.047197551197e-05 -3.665622625231e-09 -2.361050177430e-08 -1.916218365249e-09
233 2 1.057618396003e-02 6.003452577771e-03 8.327797420512e-04 1.810617618736e-06 1.044689299863e-06 -1.962655237664e-07 -1.050018171453e-03 1.830191075008e-03 8.211435452689e-04 1.000000000000e-03 1.047197551197e-05 -1.810160220227e-08 -1.039188986465e-08 2.020048002333e-09
234 2 8.572697969882e-03 9.542348098896e-04 3.719914703270e-03 2.207940443298e-07 3.380596015284e-06 -8.916872421849e-07 -1.036082597520e-03 1.751113624512e-05 7.929563176751e-04 1.000000000000e-03 1.047197551197e-05 -2.431882291242e-09 -3.373777812439e-08 8.826803196116e-09
235 2 1.255061652991e-02 5.925070522138e-03 6.872239162176e-03 5.660106795266e-07 2.705807189181e-06 9.730616029363e-08 1.963255779483e-04 -3.686040835346e-04 2.349700900047e-04 1.000000000000e-03 1.047197551197e-05 -5.853665204784e-09 -2.705914070547e-08 -9.623307358884e-10
236 2 1.386440058966e-02 1.861080573629e-03 3.738844113790e-03 6.848439129623e-07 2.622038179736e-06 -4.617852229933e-07 1.329494802835e-03 -8.955107290306e-04 -8.270507817614e-04 1.000000000000e-03 1.047197551197e-05 -6.976327551680e-09 -2.620349321370e-08 4.578788504600e-09
237 2 1.481984710804e-02 6.907216081015e-03 6.227709888419e-03 1.517969969112e-07 2.890068188258e-06 -7.492635639468e-07 -7.248719699397e-04 -5.626609687451e-04 -7.017955440827e-04 1.000000000000e-03 1.047197551197e-05 -1.767203982446e-09 -2.892167703690e-08 7.383858755817e-09
238 2 1.279671956267e-02 1.151034492074e-03 5.182545032073e-03 5.335697049505e-07 2.493272577381e-06 -5.712586189895e-07 -5.008840772923e-04 5.035188822342e-04 -1.150281760473e-04 1.000000000000e-03 1.047197551197e-05 -5.479873843328e-09 -2.497715183072e-08 5.679061521432e-09
239 2 1.269779327110e-02 3.394100227036e-03 3.665365285731e-03 8.023571737918e-07 2.359443665084e-06 -2.290459292006e-07 -3.186676023826e-04 -1.208518020116e-04 2.002110711795e-04 1.000000000000e-03 1.047197551197e-05 -8.160801235372e-09 -2.361188169171e-08 2.366793165876e-09
240 2 1.422432140549e-02 7.105187554216e-03 4.446112086624e-03 8.088818170921e-07 3.051912017549e-06 -4.870140713083e-07 6.604454534615e-04 5.932769949028e-04 -3.224747344409e-04 1.000000000000e-03 1.047197551197e-05 -8.212776023725e-09 -3.046090942199e-08 4.752742421845e-09
241 2 1.191516072205e-03 6.672933203421e-03 2.086040549660e-03 1.283800992474e-06 1.873851833740e-06 1.794582801504e-06 -6.657321701173e-03 -2.777534233337e-03 1.930099507740e-03 1.000000000000e-03 1.047197551197e-05 -1.287881218101e-08 -1.873499611176e-08 -1.783716307752e-08
242 2 3.135700853945e-04 5.139543536059e-03 2.924546801880e-03 1.434848883893e-06 3.737149596441e-06 1.921878263821e-06 1.989657381424e-03 -2.591278219575e-03 1.287770763372e-03 1.000000000000e-03 1.047197551197e-05 -1.438401649674e-08 -3.722265861655e-08 -1.903901952958e-08
243 2 6.009255251201e-03 1.885231541210e-03 5.590961916683e-03 7.858712570848e-07 3.299900287923e-06 -8.396952100232e-07 -4.449996128000e-04 4.339329936758e-04 -2.377681369546e-04 1.000000000000e-03 1.047197551197e-05 -8.012419991339e-09 -3.300426266181e-08 8.404354198682e-09
244 2 1.451431467742e-02 3.006377044238e-03 6.705877727460e-03 5.467748096459e-07 2.522936163835e-06 -1.296047719745e-07 8.423919012668e-04 -3.613868722028e-04 -1.724025960072e-04 1.000000000000e-03 1.047197551197e-05 -5.698862457778e-09 -2.525060583178e-08 1.303864617243e-09
245 2 1.129233933428e-02 7.883711881142e-03 1.015274032931e-03 -3.332572634827e-41 8.061123118131e-40 -1.042575087223e-39 2.235618384403e+03 2.108827890374e+03 2.418188823478e+03 1.000000000000e-03 1.047197551197e-05 3.335758049121e-42 -8.068828281567e-41 1.043571624718e-40
246 2 1.447333134502e-02 3.907209891561e-03 9.308216558485e-04 -6.747565126647e-08 1.273979913428e-06 -9.529622104904e-07 -8.217547974968e-04 3.243576344948e-05 5.962433237073e-04 1.000000000000e-03 1.047197551197e-05 4.709310632513e-10 -1.267312519277e-08 9.467693643959e-09
247 2 1.042710808198e-02 1.941795291097e-03 5.286529153124e-03 4.543984429231e-07 2.570794140297e-06 -4.040015218440e-07 2.387030641630e-04 -5.203384224687e-05 -2.445643796786e-04 1.000000000000e-03 1.047197551197e-05 -4.727602648756e-09 -2.570513849745e-08 4.011920089607e-09
248 2 7.519654041385e-04 1.544039918101e-03 9.461226858791e-04 7.425367956598e-07 2.133635324389e-06 -3.264869364004e-07 -2.040004186027e-03 3.312678849765e-05 5.363321727998e-03 1.000000000000e-03 1.047197551197e-05 -7.540143509741e-09 -2.128039196935e-08 3.218266110002e-09
249 2 5.724414072650e-03 2.247510356233e-04 6.454324938712e-03 7.530734732741e-07 3.199620631988e-06 -5.942208684018e-07 5.281241397931e-04 -3.917146871954e-04 2.305931953081e-04 1.000000000000e-03 1.047197551197e-05 -7.689929545000e-09 -3.192374554054e-08 5.929438977574e-09
250 2 7.338115586983e-03 3.371563034634e-03 9.598946284551e-04 -8.245687965782e-07 1.748339019487e-06 -5.645490414998e-07 -1.425990953858e-03 -6.836333576671e-04 4.805332121111e-03 1.000000000000e-03 1.047197551197e-05 7.997277317129e-09 -1.752409874693e-08 5.591584101575e-09
251 2 6.824693307662e-03 1.823930032451e-03 3.792578608773e-03 -3.943558609024e-07 4.505715085765e-06 -2.312611859646e-06 3.551997692912e-05 -4.989217399214e-04 -9.659374318587e-04 1.000000000000e-03 1.047197551197e-05 3.589620266592e-09 -4.489969913760e-08 2.287412359375e-08
252 2 1.488821055000e-02 2.404238090776e-03 2.165961299925e-03 9.177337940487e-07 1.915878242337e-06 -1.786007264966e-06 -1.696797848918e-03 3.643437860130e-03 -4.147533025690e-04 1.000000000000e-03 1.047197551197e-05 -9.283370610579e-09 -1.912035212668e-08 1.772525779744e-08
253 2 6.714062517461e-03 5.035041403183e-03 1.786444167702e-03 -8.095854045676e-07 8.030040246013e-07 1.060768462762e-06 1.470701905569e-03 5.437372646762e-03 -2.380542812862e-03 1.000000000000e-03 1.047197551197e-05 7.749802821070e-09 -8.230657829917e-09 -1.047560659865e-08
254 2 1.006008538233e-02 2.131747389800e-03 7.196462088367e-03 3.673590646173e-07 2.727189325012e-06 -6.495264527636e-07 -2.450902165683e-04 -6.766710675718e-06 1.394814949227e-04 1.000000000000e-03 1.047197551197e-05 -3.921764729708e-09 -2.728762066303e-08 6.473823538104e-09
255 2 5.876209346893e-03 6.445276618004e-03 5.612431009982e-03 6.803461591765e-07 3.329220222463e-06 -1.015333889232e-06 4.290074905805e-04 -1.440338438055e-03 -2.056342692286e-04 1.000000000000e-03 1.047197551197e-05 -7.083577249778e-09 -3.328306235649e-08 1.003380064424e-08
256 2 1.094371475110e-02 3.540871054978e-03 4.426311341414e-03 7.656274069625e-07 2.719049052077e-06 -3.675433980252e-07 -3.279782128336e-04 -7.038648567585e-05 -8.052270972978e-05 1.000000000000e-03 1.047197551197e-05 -7.829559208908e-09 -2.721171945401e-08 3.669068382086e-09
257 2 6.992382743868e-03 4.403075438897e-03 7.410883573595e-03 4.286012735415e-07 3.272716175460e-06 -9.854427609753e-07 1.732966279672e-04 -9.737831555803e-04 -9.250628905979e-04 1.000000000000e-03 1.047197551197e-05 -4.554972741649e-09 -3.270010416979e-08 9.830914670987e-09
258 2 9.502573527518e-03 6.770933757865e-03 4.049191837044e-03 7.858835271189e-07 3.597197332190e-06 -1.244407201670e-06 4.138042220361e-06 9.824505130475e-04 3.477258757483e-04 1.000000000000e-03 1.047197551197e-05 -8.006108743112e-09 -3.594638514771e-08 1.233930116523e-08
259 2 1.194711529551e-02 4.614401263324e-03 8.323778465020e-04 1.025226470458e-06 1.418047710740e-06 -1.228670848786e-07 -1.425671254711e-03 9.280995839231e-04 -1.007904698881e-03 1.000000000000e-03 1.047197551197e-05 -1.025359041279e-08 -1.413591541169e-08 1.250333387354e-09
260 2 1.021250136211e-02 4.287803059934e-03 6.099147705600e-03 5.987640962933e-07 2.910346832918e-06 -5.970039945530e-07 3.475231973370e-04 -4.142105188428e-04 -7.236992105150e-05 1.000000000000e-03 1.047197551197e-05 -6.185722221317e-09 -2.911528761981e-08 5.935172585130e-09
261 2 1.673099975847e-03 2.627246137785e-03 4.969414049660e-03 -4.566022598391e-07 2.133300997762e-06 -2.150249115123e-06 1.994863485515e-03 -2.244826992227e-03 2.988417915502e-03 1.000000000000e-03 1.047197551197e-05 4.230343148836e-09 -2.142919657471e-08 2.137681887453e-08
262 2 1.112965789504e-02 3.011221763546e-03 2.552279631968e-03 7.043125303225e-07 2.513237847175e-06 -2.610002563829e-07 7.502704165605e-05 4.899002667484e-06 -3.657443799550e-04 1.000000000000e-03 1.047197551197e-05 -7.222914472724e-09 -2.514962465020e-08 2.625019913514e-09
263 2 7.323000966481e-03 2.609898627637e-03 6.855074519183e-03 -8.422627221068e-09 2.834045598565e-06 -8.466054928335e-07 1.404356831987e-04 -8.991067751821e-04 1.997355345875e-04 1.000000000000e-03 1.047197551197e-05 -2.281098493532e-10 -2.833638328553e-08 8.429511219535e-09
264 2 7.335752812064e-04 2.178444271497e-03 6.995964651379e-03 5.755646097225e-07 2.142147674751e-06 -1.867856230809e-06 7.350991815831e-04 1.191529169639e-03 1.727378752363e-04 1.000000000000e-03 1.047197551197e-05 -5.932648763445e-09 -2.160591012894e-08 1.848596200978e-08
265 2 8.230852962910e-03 5.019929253769e-03 2.887629792108e-03 1.703898461094e-06 1.850957994004e-06 -1.431928914540e-06 -2.540470279954e-03 -1.064217960125e-03 1.662964243798e-03 1.000000000000e-03 1.047197551197e-05 -1.709321617868e-08 -1.860659837486e-08 1.420729890405e-08
266 2 1.187798761681e-02 4.791431448072e-03 2.657044762091e-03 1.467860164533e-06 2.444803459012e-06 9.148725301537e-08 4.545086600459e-04 -4.584823427165e-04 -4.451851082693e-04 1.000000000000e-03 1.047197551197e-05 -1.478764256520e-08 -2.443733730315e-08 -9.246903468499e-10
267 2 7.191579782793e-03 4.066456001009e-04 5.077609211384e-03 -3.049639133109e-08 3.706407995658e-06 -3.381609753272e-06 1.426963744466e-03 -1.384022723287e-03 6.790177661782e-04 1.000000000000e-03 1.047197551197e-05 1.015397149251e-10 -3.695329529604e-08 3.349653209313e-08
268 2 8.929824283127e-03 5.550894846784e-03 7.482140453270e-03 3.347684974018e-07 2.717165136335e-06 -6.870892215483e-07 1.088717475915e-04 -4.755353177628e-04 -1.191863245194e-04 1.000000000000e-03 1.047197551197e-05 -3.553772374823e-09 -2.720478287238e-08 6.833159491956e-09
269 2 1.406912542878e-02 4.938028937761e-03 3.975596388157e-03 1.286764561712e-06 2.015122891574e-06 1.085387150246e-07 1.095033627144e-03 1.721281716728e-03 -9.679682350449e-04 1.000000000000e-03 1.047197551197e-05 -1.295418018071e-08 -2.020523070862e-08 -1.090937587583e-09
270 2 1.083775764000e-02 5.400613122265e-03 7.507732627689e-03 3.701111490039e-07 2.498651431349e-06 -2.765596152183e-07 5.453190672214e-05 4.307835617955e-05 5.211171905542e-06 1.000000000000e-03 1.047197551197e-05 -3.938629231083e-09 -2.504116126807e-08 2.733940273022e-09
271 2 1.266042671201e-02 6.256727837114e-03 5.044825804235e-03 9.692835891303e-07 2.956528143977e-06 3.131452912908e-07 1.253554164410e-04 6.536338117928e-05 1.573183910309e-05 1.000000000000e-03 1.047197551197e-05 -9.859019375715e-09 -2.960464787065e-08 -3.131059570967e-09
272 2 1.520257309304e-02 2.050370881851e-03 5.125946048228e-03 1.816516701192e-07 1.570702020042e-06 -5.540208869122e-07 6.878353791219e-04 6.188166099693e-04 9.740432543412e-04 1.000000000000e-03 1.047197551197e-05 -2.019515497932e-09 -1.583182459820e-08 5.530048912740e-09
273 2 7.735432453552e-03 4.530391227494e-03 5.709352997410e-03 1.215202214336e-06 3.261814759568e-06 -7.911983030815e-07 -8.109430959281e-05 2.458609163801e-04 1.389693007879e-05 1.000000000000e-03 1.047197551197e-05 -1.230762756286e-08 -3.257836595478e-08 7.869623299569e-09
274 2 3.088016149699e-04 3.939795950797e-03 5.475613723944e-03 1.349775603859e-06 1.566093261217e-06 2.779015669795e-07 1.237734235473e-03 2.555137487725e-03 -3.665853150321e-03 1.000000000000e-03 1.047197551197e-05 -1.363723546292e-08 -1.574401327005e-08 -2.694360281323e-09
275 2 1.372375135845e-03 2.944031460741e-03 2.220713349244e-03 1.959592280189e-06 3.205990024829e-06 2.997377829898e-06 5.849199947692e-04 -1.324691492618e-02 -2.241465966467e-04 1.000000000000e-03 1.047197551197e-05 -1.957904034788e-08 -3.197571230738e-08 -2.959936624879e-08
276 2 7.916759442825e-03 1.929859542715e-03 2.143960134449e-03 8.695385424411e-07 3.468439712632e-06 -7.028230295774e-07 1.101892279994e-03 -6.239483793432e-04 -1.211082228554e-03 1.000000000000e-03 1.047197551197e-05 -8.851005848372e-09 -3.467326135285e-08 6.922690517428e-09
277 2 1.417494594128e-02 5.110373831534e-03 5.904224766051e-03 1.648899869669e-06 2.409553213026e-06 3.094120399848e-07 -1.414718817381e-03 -1.859406109494e-03 1.971550786266e-03 1.000000000000e-03 1.047197551197e-05 -1.661789362974e-08 -2.415992559590e-08 -3.068796112005e-09
278 2 1.428952329344e-02 5.861207211406e-03 7.717060744242e-03 9.235287665649e-08 3.053306661440e-06 -3.170453001301e-07 4.373315496724e-04 5.964962820085e-04 9.072780420776e-05 1.000000000000e-03 1.047197551197e-05 -1.148813200054e-09 -3.051517710247e-08 3.109544405095e-09
279 2 1.361472629586e-02 1.528559767832e-02 9.209237377778e-04 1.924984015073e-07 1.990441421981e-07 -9.170641447851e-08 2.047497438175e-04 2.895736307057e-04 1.899171358811e-03 1.000000000000e-03 1.047197551197e-05 -1.998158527969e-09 -2.029565150065e-09 8.984928322024e-10
280 2 1.335750029343e-02 6.001930525731e-03 1.124862341731e-03 5.168923088528e-06 1.663755733139e-06 1.217645391489e-06 1.338761834576e+03 8.283513430062e+02 -1.508064820804e+03 1.000000000000e-03 1.047197551197e-05 -3.669673651382e-08 -1.181191630085e-08 -8.644650438238e-09
281 2 9.128989124425e-03 2.828325740158e-03 3.449075773006e-03 9.988368603220e-07 2.849767188166e-06 -5.797300195523e-07 6.091882561139e-04 -2.155084858232e-04 -2.792043179174e-04 1.000000000000e-03 1.047197551197e-05 -1.014442861075e-08 -2.849585579576e-08 5.727880046607e-09
282 2 6.944413398876e-03 5.513915041924e-03 4.252497968594e-03 1.088679258475e-06 3.257021354611e-06 -9.657539758984e-07 -4.055462165571e-04 6.291383140532e-04 -1.891131397941e-04 1.000000000000e-03 1.047197551197e-05 -1.104896934113e-08 -3.259663420544e-08 9.606426975888e-09
283 2 1.104434009720e-02 5.549006418767e-03 4.196721645760e-03 1.153165940943e-06 3.129781245413e-06 -2.040246813140e-07 -3.049562323257e-04 -4.998803450666e-04 -5.317943551815e-04 1.000000000000e-03 1.047197551197e-05 -1.165237340127e-08 -3.128215603259e-08 2.012355477132e-09
284 2 1.205819120571e-02 4.592993667333e-03 5.564056453036e-03 8.057525838496e-07 2.906241480106e-06 -1.573847359327e-07 2.509911734334e-04 -1.726447957697e-05 -1.164262231879e-04 1.000000000000e-03 1.047197551197e-05 -8.232244086058e-09 -2.904360568087e-08 1.535442254459e-09
285 2 1.289514340894e-02 6.240320420866e-03 3.151013679024e-03 1.186655149333e-06 2.405635588839e-06 8.239725492158e-07 -4.761862044233e-04 -2.585142667710e-04 3.900882618681e-04 1.000000000000e-03 1.047197551197e-05 -1.199171907269e-08 -2.405837156340e-08 -8.211087259413e-09
286 2 9.261432041708e-03 4.903496313991e-03 4.533881536671e-03 1.108613371520e-06 3.483107837921e-06 -7.469303354950e-07 2.385822940693e-04 -1.887037736208e-04 -1.851053423496e-04 1.000000000000e-03 1.047197551197e-05 -1.123340606542e-08 -3.478817352853e-08 7.411221784193e-09
287 2 7.256945824562e-03 7.300884837500e-03 3.757393623861e-03 1.887657641244e-06 3.362454962753e-06 -1.431016932395e-06 1.076014859646e-03 5.373193234473e-03 -2.631033443965e-03 1.000000000000e-03 1.047197551197e-05 -1.890122266218e-08 -3.363430203489e-08 1.421849609394e-08
288 2 1.320587071553e-02 3.050059305474e-03 5.399091632102e-03 6.088652010823e-07 2.875915039485e-06 -2.286074454105e-07 -2.636036040493e-04 9.311193186431e-05 -1.360874480720e-04 1.000000000000e-03 1.047197551197e-05 -6.273521104163e-09 -2.875699971933e-08 2.248525177332e-09
289 2 1.479934439216e-04 5.501390913855e-03 9.843900737631e-04 3.391849555010e-06 -3.031210377650e-07 1.211180059744e-06 1.968106102573e-03 -3.150335579235e-03 -4.707081260912e-03 1.000000000000e-03 1.047197551197e-05 -3.374035081281e-08 2.904580973467e-09 -1.197611406987e-08
290 2 1.209459871725e-02 1.536273828559e-03 1.884974581280e-03 -9.095214130909e-07 2.098351494288e-06 -6.416442779095e-07 2.372964208878e-04 8.684979549007e-04 -7.362799302898e-04 1.000000000000e-03 1.047197551197e-05 8.875365477498e-09 -2.097168715712e-08 6.372557130171e-09
291 2 7.417886960936e-03 3.640764954069e-03 3.920590820674e-03 2.050460329697e-06 3.457487649251e-06 -2.902188522911e-07 5.197740420445e-04 1.278992391459e-04 -1.270154206462e-03 1.000000000000e-03 1.047197551197e-05 -2.057126349261e-08 -3.452597116358e-08 2.894246946200e-09
292 2 1.070760009508e-02 1.904733263829e-04 4.540624462662e-03 1.900115652935e-07 2.395902670589e-06 -5.670406753996e-07 2.434330294540e-05 3.826689274202e-05 -9.564801383044e-05 1.000000000000e-03 1.047197551197e-05 -2.102947303902e-09 -2.401082764039e-08 5.638301287400e-09
293 2 8.359002362819e-03 7.036248340492e-03 1.511962020387e-03 1.384639304077e-06 5.685219143729e-07 -1.240436987845e-06 2.012700189566e-03 4.101456999208e-04 3.591033337700e-03 1.000000000000e-03 1.047197551197e-05 -1.394115412143e-08 -5.765388260392e-09 1.238129118398e-08
294 2 1.168190956318e-02 1.711991941372e-03 3.824322558586e-03 3.303234830184e-07 2.273568853676e-06 -4.091875189527e-07 2.400575068638e-05 -3.862788636178e-06 -2.674790392566e-04 1.000000000000e-03 1.047197551197e-05 -3.493405412839e-09 -2.276738761381e-08 4.070694515181e-09
295 2 1.291908384862e-02 7.867725165226e-03 2.230338018044e-03 -2.424091466644e-07 1.789871301506e-06 3.133501890888e-07 -3.382005543550e-04 1.458862170120e-03 4.005772585415e-04 1.000000000000e-03 1.047197551197e-05 2.223287670902e-09 -1.796372180050e-08 -3.133040688393e-09
296 2 1.305466204338e-02 2.095563828309e-03 7.581812215509e-03 4.505425971304e-07 2.691668725583e-06 -4.827520138665e-07 1.314892857587e-04 2.218973030517e-04 -1.460024898823e-04 1.000000000000e-03 1.047197551197e-05 -4.691330327131e-09 -2.692628502321e-08 4.811856290232e-09
297 2 6.517989001381e-03 6.685162249799e-03 9.051336128907e-04 1.430670285383e-06 1.568196142887e-06 7.314717098724e-07 -1.871518905352e-03 1.646704946082e-03 -3.902477199590e-03 1.000000000000e-03 1.047197551197e-05 -1.441501045665e-08 -1.571400394766e-08 -7.187223821865e-09
298 2 9.998196074389e-03 4.373561388592e-03 2.795799566840e-03 1.368361723132e-06 2.873910914215e-06 2.966028654648e-09 -4.294148166270e-05 3.142739926266e-04 -2.077109046126e-04 1.000000000000e-03 1.047197551197e-05 -1.372304332598e-08 -2.871081323276e-08 -6.247574432751e-11
299 2 1.529848446054e-02 3.409316629614e-03 3.703097749084e-03 1.126416370280e-06 2.929400214325e-06 -9.858862784492e-07 3.995023474630e-04 -3.240469266343e-03 1.077068091556e-03 1.000000000000e-03 1.047197551197e-05 -1.129854630624e-08 -2.924744427956e-08 9.813820233195e-09
300 2 8.658038214237e-03 1.386104743516e-03 5.639915243555e-03 1.158575676150e-07 3.085247652346e-06 -7.684373429474e-07 6.643893196786e-04 -1.587260614186e-04 -5.833017595424e-04 1.000000000000e-03 1.047197551197e-05 -1.448725140176e-09 -3.087230489546e-08 7.639902479418e-09
301 2 9.033103415653e-04 5.820589945994e-03 5.145246495029e-03 -7.303037347900e-07 5.512897094967e-06 -2.082188326103e-06 -3.827973943513e+02 -3.437058726765e+02 5.857802431833e+02 1.000000000000e-03 1.047197551197e-05 5.261675333532e-09 -3.972179916931e-08 1.500200132412e-08
302 2 1.162639518546e-02 3.037973503849e-03 6.568798087494e-03 4.914111905965e-07 2.863779190197e-06 -4.597343279329e-07 4.914680602320e-05 -2.680215403472e-04 4.098169253183e-05 1.000000000000e-03 1.047197551197e-05 -5.121821150443e-09 -2.864746014689e-08 4.563382380835e-09
303 2 9.739236631385e-03 6.092721177581e-03 2.404525575334e-03 1.992137909215e-06 2.337065134645e-06 -7.123726288190e-07 -7.877251733268e-04 -2.000538358128e-03 -4.520401480237e-04 1.000000000000e-03 1.047197551197e-05 -1.995632618123e-08 -2.346942685956e-08 7.010888145938e-09
304 2 8.916097632015e-03 3.155155783764e-03 5.327310278814e-03 8.618568532299e-07 3.056902298518e-06 -6.239855486517e-07 -5.104428814966e-04 7.893199160072e-05 -1.572203979427e-04 1.000000000000e-03 1.047197551197e-05 -8.793614015872e-09 -3.054131166935e-08 6.175828478836e-09
305 2 1.365625958985e-02 1.813708063017e-03 8.803455339494e-04 -8.844018405675e-07 6.380655157311e-07 -4.265153061120e-09 -4.895563940798e-04 -1.185800976604e-03 -6.602399216260e-04 1.000000000000e-03 1.047197551197e-05 8.639442770700e-09 -6.371304431965e-09 6.779415487438e-11
306 2 1.291251064785e-02 3.309089645411e-03 1.830703959305e-03 3.624856033033e-07 1.609586114276e-06 -3.707055380921e-07 1.365219923400e-04 5.790067808515e-04 -8.237557809584e-04 1.000000000000e-03 1.047197551197e-05 -3.803217508446e-09 -1.614296706237e-08 3.620401349855e-09
307 2 1.307052853718e-02 4.135561258727e-03 7.146990406002e-03 6.081687799228e-07 2.613005215982e-06 -1.366846221205e-07 2.413593066877e-05 -2.593631319503e-04 -3.541874170118e-04 1.000000000000e-03 1.047197551197e-05 -6.291716003508e-09 -2.615036387468e-08 1.379430954896e-09
308 2 8.775870121738e-03 5.092938831815e-03 9.816842138084e-04 1.702631328836e-06 3.948967233356e-07 -5.151412331619e-07 -2.363724259573e-04 1.423980879877e-03 1.190974994121e-03 1.000000000000e-03 1.047197551197e-05 -1.699647344791e-08 -4.058410620322e-09 5.090070747786e-09
309 2 1.166091862814e-02 1.157322117871e-03 6.711299842540e-03 5.205275171504e-07 2.899471876812e-06 -4.428041969667e-07 -3.092048073470e-05 -2.693566045371e-04 4.406115373731e-05 1.000000000000e-03 1.047197551197e-05 -5.446824648008e-09 -2.900513995833e-08 4.391465952164e-09
310 2 1.017854594759e-02 1.446069199145e-03 2.708683798477e-03 2.544908782190e-07 2.699911853273e-06 -7.753269217112e-07 4.300165605804e-06 -3.360670894623e-04 -4.475890264564e-04 1.000000000000e-03 1.047197551197e-05 -2.674809379013e-09 -2.700358243744e-08 7.682562277110e-09
311 2 9.641413218142e-03 2.720232888728e-03 1.248110021425e-03 4.285771914627e-29 1.291278299314e-28 6.089193644111e-28 -1.152664526382e+03 4.090879621960e+02 -1.137567531874e+03 1.000000000000e-03 1.047197551197e-05 -4.289868437229e-30 -1.292512557890e-29 -6.095013953705e-29
312 2 1.319140597296e-02 2.351285809650e-04 2.844175603832e-03 -3.107803944516e-07 2.590591699537e-06 -9.325756482663e-07 -9.428306565620e-04 8.432994739439e-05 3.717865920615e-04 1.000000000000e-03 1.047197551197e-05 2.903467428087e-09 -2.589574154531e-08 9.268661035816e-09
313 2 7.780118532273e-03 8.417343512427e-04 7.159263955427e-03 2.689917040886e-07 2.795339217573e-06 -8.076155920442e-07 -3.618145265775e-05 2.711470122338e-04 1.879348946425e-04 1.000000000000e-03 1.047197551197e-05 -2.943156491877e-09 -2.801311080486e-08 8.028844662597e-09
314 2 6.546133376203e-03 4.876699090790e-03 1.439778099897e-02 1.017676951840e-06 1.482116392809e-06 -3.590109922713e-07 1.278387116224e-03 -1.040952655972e-03 -2.760085052874e-03 1.000000000000e-03 1.047197551197e-05 -1.005429844737e-08 -1.461123607083e-08 3.297764291725e-09
315 2 1.421467505086e-02 4.379746998128e-03 1.443935284581e-02 3.080428576757e-07 6.790780875254e-07 -1.070991188462e-07 5.483007160540e-04 -1.208395652231e-04 1.661251852848e-03 1.000000000000e-03 1.047197551197e-05 -3.148326357895e-09 -6.821670281086e-09 1.064050570063e-09
316 2 7.027526280635e-03 1.668856356019e-03 1.194987043505e-02 -5.047442168655e-07 2.526329799801e-06 -3.413573846626e-07 -3.913355984716e-04 3.143002776470e-04 -5.908665402785e-04 1.000000000000e-03 1.047197551197e-05 4.812667311646e-09 -2.517720595713e-08 3.425957969085e-09
317 2 1.255849926329e-02 1.358090572452e-03 1.034506911224e-02 8.900976945198e-10 2.375955983493e-06 -5.278604877796e-07 7.920775671813e-04 7.388285845103e-04 6.624344526018e-04 1.000000000000e-03 1.047197551197e-05 -2.507992607075e-10 -2.379880566631e-08 5.225190318036e-09
318 2 1.053871494796e-02 3.664873849952e-03 8.265329456094e-03 1.753008160656e-07 2.485273508702e-06 -6.344726429054e-07 3.045658916831e-04 -3.682874141909e-04 -1.680944597244e-04 1.000000000000e-03 1.047197551197e-05 -2.003639784337e-09 -2.489109100290e-08 6.305984393449e-09
319 2 9.894550924361e-03 3.796147433106e-03 1.326051885739e-02 2.649928351258e-07 1.613475384571e-06 -9.474775409176e-07 6.472762731866e-04 -1.014178023609e-04 -5.625100214393e-05 1.000000000000e-03 1.047197551197e-05 -2.819722546657e-09 -1.620220360265e-08 9.313817988349e-09
320 2 9.480294691867e-03 4.974335662718e-03 1.458847097019e-02 1.297072364357e-07 8.056807697295e-07 -2.444488687098e-07 5.671479149782e-04 -2.519106829093e-04 -2.623100116213e-04 1.000000000000e-03 1.047197551197e-05 -1.401743784699e-09 -8.045126544915e-09 2.441635772003e-09
321 2 8.124474693005e-03 3.702299859255e-03 1.441780479974e-02 3.279264810994e-07 1.249300896799e-07 -4.145335116138e-07 -1.183111830473e-05 -2.367965917990e-05 1.064078405941e-03 1.000000000000e-03 1.047197551197e-05 -3.283420881128e-09 -1.391265775275e-09 4.149764178062e-09
322 2 6.457692059532e-03 6.244683466195e-03 7.472785782874e-03 5.884966058361e-08 3.003056702514e-06 -1.061870380379e-06 3.021176944717e-04 2.470553144122e-04 1.026472438800e-03 1.000000000000e-03 1.047197551197e-05 -9.208382386950e-10 -3.005278887787e-08 1.052985828911e-08
323 2 8.695821431600e-06 2.469118045096e-03 1.177499623991e-02 3.225817729203e-07 2.320788680738e-06 -6.554860653161e-07 -1.020017900161e-04 2.720253800277e-04 7.007671297326e-05 1.000000000000e-03 1.047197551197e-05 -3.521588853976e-09 -2.323327550608e-08 6.490864612043e-09
324 2 5.474413050025e-03 3.371554981270e-03 1.370707631360e-02 -1.607437677200e-07 1.997043044352e-06 -3.611807577192e-07 -1.402483826856e-03 5.258071228083e-04 1.384542098824e-03 1.000000000000e-03 1.047197551197e-05 1.307452918130e-09 -2.005810915667e-08 3.871968388860e-09
325 2 7.675526110786e-03 4.281734010593e-03 1.075318506270e-02 -1.721578714407e-08 2.523960234276e-06 -3.820853349087e-07 2.458461141488e-04 -1.726033545540e-04 2.868407469892e-04 1.000000000000e-03 1.047197551197e-05 -1.944869060807e-10 -2.516323476603e-08 3.825975469606e-09
326 2 1.173238603348e-02 3.272334093747e-03 1.275934888447e-02 2.579758793882e-07 1.709260881447e-06 -1.083829606387e-06 6.576159659284e-04 -2.007729881996e-05 6.972617710389e-06 1.000000000000e-03 1.047197551197e-05 -2.750385901319e-09 -1.716971321854e-08 1.074885117120e-08
327 2 1.374375174022e-02 4.490530444485e-03 1.215457271935e-02 2.559408422002e-07 1.765353434266e-06 -5.318348705970e-08 1.071281954062e-04 -8.141736180387e-05 -8.817966125300e-05 1.000000000000e-03 1.047197551197e-05 -2.774258003989e-09 -1.770463082327e-08 5.104012307491e-10
328 2 1.456432878849e-02 6.717855078937e-03 9.418518623052e-03 6.229309786037e-07 2.596106822270e-06 -6.042729166806e-08 1.458154736068e-04 -5.378202536382e-06 -2.521264599916e-04 1.000000000000e-03 1.047197551197e-05 -6.360876721075e-09 -2.591932044753e-08 5.722661619508e-10
329 2 1.105450822146e-02 6.125324953208e-03 1.061929204363e-02 3.035365546539e-08 2.222496098094e-06 -2.932291019303e-07 4.235294439831e-04 -3.267701670201e-05 -3.510774928250e-04 1.000000000000e-03 1.047197551197e-05 -5.274737555536e-10 -2.229150319318e-08 2.895065742442e-09
330 2 1.144129541815e-02 4.588710701175e-03 9.674779410593e-03 -8.534636426553e-08 2.313702232067e-06 -4.108997351810e-07 -1.835587755819e-04 -2.234519842427e-05 1.715882546969e-04 1.000000000000e-03 1.047197551197e-05 5.866936761247e-10 -2.317045433250e-08 4.123800748828e-09
331 2 8.158333334206e-03 1.603326490937e-03 1.028126170463e-02 -2.320185159821e-07 2.553427243570e-06 -1.199383652297e-06 3.810001536253e-04 -2.259476359528e-04 -2.546297622476e-04 1.000000000000e-03 1.047197551197e-05 2.021963854550e-09 -2.557741052538e-08 1.190766707569e-08
332 2 9.402724222918e-03 6.217217949891e-03 1.165180436834e-02 1.537757323439e-07 1.988987276972e-06 -3.058365064531e-07 5.298274655250e-04 -2.250769493767e-05 8.423851319785e-05 1.000000000000e-03 1.047197551197e-05 -1.756479470870e-09 -1.986938249982e-08 3.030467247250e-09
333 2 1.475356505532e-02 1.419811204120e-03 8.177873154985e-03 4.799976768464e-07 2.779488809054e-06 -7.886531491923e-07 9.859845349405e-04 -1.316278555996e-04 6.646325424350e-04 1.000000000000e-03 1.047197551197e-05 -5.001418182218e-09 -2.781772086437e-08 7.846313910583e-09
334 2 1.413428155115e-02 2.432445154149e-03 9.722309643234e-03 5.406276521345e-07 2.805913489380e-06 -3.225704408460e-07 4.251515123271e-04 -3.897712679417e-04 2.765444573833e-04 1.000000000000e-03 1.047197551197e-05 -5.619695600536e-09 -2.805336226272e-08 3.204462561519e-09
335 2 1.442111035652e-02 4.930465943954e-03 1.003114642135e-02 2.872852346413e-07 2.660746803450e-06 -4.025276044213e-07 3.293213913360e-04 4.423939594625e-04 -3.044828981940e-04 1.000000000000e-03 1.047197551197e-05 -3.075850048624e-09 -2.664781895464e-08 3.980696165531e-09
336 2 9.777799523125e-03 5.493100044462e-03 9.330070493187e-03 6.403463424483e-08 2.746402404433e-06 -6.043380622130e-07 4.783869758562e-05 -1.930728946901e-04 3.992879202887e-05 1.000000000000e-03 1.047197551197e-05 -9.295930013374e-10 -2.749924119393e-08 5.996817104675e-09
337 2 7.213836877890e-03 2.987980790107e-03 9.196400450873e-03 -2.717302902443e-09 2.574270234777e-06 -6.035008982540e-07 3.829196337971e-04 1.818510322645e-04 3.988900301461e-04 1.000000000000e-03 1.047197551197e-05 -2.676126186354e-10 -2.575409689807e-08 6.040240202199e-09
338 2 1.527815604086e-02 5.152226845031e-04 1.449245379372e-02 5.045695577864e-07 7.342041065444e-07 -2.524678403276e-07 7.139841444329e-04 -4.131000634389e-04 1.824132007885e-03 1.000000000000e-03 1.047197551197e-05 -5.087296701060e-09 -7.449578454595e-09 2.525088496181e-09
339 2 8.833129628129e-03 3.649769992038e-03 7.330243331603e-03 1.678032611341e-07 2.775177444651e-06 -6.280101803154e-07 -5.844485352389e-05 4.851463430523e-04 -1.001478215677e-04 1.000000000000e-03 1.047197551197e-05 -1.924262926895e-09 -2.777333524748e-08 6.276731856320e-09
340 2 1.204412776676e-02 1.666685287100e-03 1.380578621366e-02 3.951290813662e-07 2.116310530563e-06 -2.541516010425e-07 -1.676482719547e-03 5.402248433713e-04 -2.688624922008e-04 1.000000000000e-03 1.047197551197e-05 -3.994438596850e-09 -2.114211205108e-08 2.555094609381e-09
341 2 6.538853527287e-03 5.509903472404e-03 9.285255595233e-03 1.866268177662e-08 3.124136232982e-06 -8.879950571497e-07 7.363138011680e-04 -5.061454017332e-04 -3.708496399067e-04 1.000000000000e-03 1.047197551197e-05 -4.327803990512e-10 -3.119319337705e-08 8.854038549321e-09
342 2 1.625030430275e-04 4.802896968216e-03 1.162427261784e-02 1.516500355523e-07 2.030829185715e-06 -2.986857377504e-07 4.851503039121e-04 3.778941487634e-04 1.336490951586e-04 1.000000000000e-03 1.047197551197e-05 -1.777702837448e-09 -2.032922934694e-08 2.987389080808e-09
343 2 1.280723830327e-02 3.517385932163e-03 8.845243633057e-03 3.252681400459e-07 2.578672838948e-06 -2.327744613010e-07 3.906306057806e-05 -3.467336359219e-05 3.698286846663e-04 1.000000000000e-03 1.047197551197e-05 -3.487622530566e-09 -2.580220785318e-08 2.284127305781e-09
344 2 1.096388490344e-02 5.224119900123e-03 1.356249796434e-02 3.916143111234e-07 1.542650302434e-06 -9.015088529853e-08 4.356009943801e-04 1.378375695167e-04 1.106166790276e-04 1.000000000000e-03 1.047197551197e-05 -4.006986763653e-09 -1.557092685307e-08 9.752508862832e-10
345 2 1.300187138952e-02 6.027052306058e-03 1.343666957588e-02 -1.545467946719e-07 1.828961871217e-06 -1.482065918757e-07 5.766405702373e-06 -1.374823611693e-04 -4.132410603995e-04 1.000000000000e-03 1.047197551197e-05 1.330717409747e-09 -1.831977273659e-08 1.461845076805e-09
346 2 1.098252928087e-02 2.857168661852e-03 1.040885677511e-02 1.368156473592e-07 2.068023356998e-06 -7.216194576797e-07 6.268416147887e-04 9.318525085001e-05 1.653890071445e-04 1.000000000000e-03 1.047197551197e-05 -1.650011470848e-09 -2.073339642449e-08 7.158805465990e-09
347 2 7.100540595457e-04 4.725047746901e-03 1.448304717613e-02 8.015814155374e-08 8.201105215989e-07 4.482849838008e-08 6.819126954769e-04 -2.770629616726e-06 -1.446013780504e-03 1.000000000000e-03 1.047197551197e-05 -8.580978142644e-10 -8.186203288377e-09 -4.546841312502e-10
348 2 7.527101299351e-04 5.918975244662e-03 9.996966090377e-03 5.157216320736e-07 2.347534486723e-06 -3.751079424279e-07 7.250064960072e-04 -2.022988200193e-04 1.433025692992e-04 1.000000000000e-03 1.047197551197e-05 -5.380161324754e-09 -2.355202806287e-08 3.655305959967e-09
349 2 7.328436923234e-03 3.658303211280e-03 1.253694335165e-02 7.612607549712e-08 1.551562449435e-06 -4.047692743157e-07 6.624529446851e-04 2.880138050742e-04 3.847271982082e-04 1.000000000000e-03 1.047197551197e-05 -8.580796738798e-10 -1.555687870721e-08 4.113658543496e-09
350 2 1.145105436869e-02 1.819407172645e-03 8.744841077549e-03 -1.920039139962e-06 -8.575636867319e-07 -3.183232531288e-06 -2.611823346262e+01 -5.157207646910e+00 2.048520524668e+01 1.000000000000e-03 1.047197551197e-05 1.295137547720e-08 5.784463369463e-09 2.147181492667e-08
351 2 6.496599937664e-03 1.325459801239e-03 8.495119225439e-03 3.381565502851e-07 2.797646264724e-06 -9.279540764551e-07 4.062950593153e-05 -2.933200601237e-04 -2.499832639209e-04 1.000000000000e-03 1.047197551197e-05 -3.616208766553e-09 -2.798376404865e-08 9.230226777293e-09
352 2 1.465409966660e-02 4.037146017079e-03 8.330471648724e-03 6.804313761986e-08 2.712934651160e-06 -2.018796075331e-07 -7.327888475497e-04 -1.270436576140e-04 1.467100024127e-04 1.000000000000e-03 1.047197551197e-05 -9.442006503321e-10 -2.714747638519e-08 2.010626310985e-09
353 2 1.233797274438e-02 4.464446894071e-03 1.449226514494e-02 1.182445531908e-07 2.214311189764e-07 -2.518907942324e-07 2.268032652680e-04 -1.038451422354e-04 -1.257793549878e-03 1.000000000000e-03 1.047197551197e-05 -1.262126708106e-09 -2.308230454569e-09 2.495261525862e-09
354 2 9.152164284922e-03 3.255863134707e-03 9.919089491402e-03 -7.003219522683e-09 2.434754694302e-06 -5.465890328075e-07 3.197748052138e-04 -6.624219012722e-05 -1.024601002961e-04 1.000000000000e-03 1.047197551197e-05 -2.301989716009e-10 -2.439589516962e-08 5.471166030427e-09
355 2 8.630802689254e-03 2.055071704564e-03 8.436079543283e-03 1.990145483963e-07 2.891385290604e-06 -7.901920129178e-07 4.422701440140e-05 -2.543428636502e-04 -7.660824228515e-05 1.000000000000e-03 1.047197551197e-05 -2.234955397573e-09 -2.892052196278e-08 7.864745695171e-09
356 2 8.527214379184e-03 5.072220670983e-03 1.291567177528e-02 2.411250802431e-07 1.719897619637e-06 -4.541692206593e-07 -1.328970190144e-04 2.260588624948e-04 -2.271562604227e-04 1.000000000000e-03 1.047197551197e-05 -2.523673718243e-09 -1.718431182933e-08 4.523366795682e-09
357 2 7.071108834575e-03 2.254189761476e-03 1.385576546171e-02 -9.780979431138e-07 9.799147887388e-07 -1.557266099663e-08 -3.662787713830e-04 3.455890704244e-04 -2.708758906494e-03 1.000000000000e-03 1.047197551197e-05 9.696905595898e-09 -9.837982578569e-09 1.754878426653e-10
358 2 1.270050056832e-02 3.722338927328e-03 1.066947183818e-02 -7.844202640143e-08 2.316089681772e-06 -1.038998018851e-07 2.546803550680e-04 -3.392686829161e-04 9.912456862521e-05 1.000000000000e-03 1.047197551197e-05 4.944763804189e-10 -2.323062962185e-08 1.062948894580e-09
359 2 1.355025980957e-02 2.443963037104e-03 1.154797414316e-02 2.812289296055e-08 2.032569606436e-06 -2.881428156047e-07 3.457879743000e-04 9.878298510360e-06 1.512023698063e-04 1.000000000000e-03 1.047197551197e-05 -5.313075486448e-10 -2.033623495185e-08 2.794989548473e-09
360 2 1.010811470103e-02 4.469880174452e-03 1.113488074041e-02 8.152104044121e-08 2.102237437008e-06 -4.402998070522e-07 -2.449156852610e-04 -8.634463327480e-05 -1.956435215793e-04 1.000000000000e-03 1.047197551197e-05 -1.083834388051e-09 -2.105705658994e-08 4.409266764321e-09
361 2 1.379069944751e-02 2.918568122272e-03 1.324901877976e-02 1.140025887096e-06 1.246714244607e-06 -1.868021826580e-07 3.396294494241e-04 1.227745993536e-03 1.490536821313e-04 1.000000000000e-03 1.047197551197e-05 -1.139410705040e-08 -1.249367594011e-08 1.858822454110e-09
362 2 8.572173831099e-05 2.863824352269e-03 1.444372109271e-02 3.871048140376e-07 1.748476808963e-07 -2.263437421431e-07 -2.094506288866e-04 -9.829762174345e-05 1.886048261295e-03 1.000000000000e-03 1.047197551197e-05 -3.873162999964e-09 -1.750094996290e-09 2.242991911119e-09
363 2 1.384408763313e-02 1.784420735070e-03 1.458920868065e-02 4.905817832530e-07 4.955766888955e-07 -3.262572407188e-07 3.728164377424e-04 -5.114798830773e-04 -1.903606857714e-03 1.000000000000e-03 1.047197551197e-05 -4.899697006884e-09 -5.045156948101e-09 3.278036145505e-09
364 2 1.312799504790e-02 5.917510917092e-03 1.095997184277e-02 4.610384478071e-07 2.348924161209e-06 1.682614573409e-07 3.704084854243e-04 -1.886098324114e-04 1.341486153035e-04 1.000000000000e-03 1.047197551197e-05 -4.796839050598e-09 -2.349258174689e-08 -1.696974050201e-09
365 2 3.382503822683e-04 3.562625952371e-03 1.020261816908e-02 1.846427156955e-07 2.523677278683e-06 -8.804343966107e-07 5.205547880841e-05 -3.109451427043e-05 2.709180055424e-04 1.000000000000e-03 1.047197551197e-05 -2.097734846387e-09 -2.523891777888e-08 8.751671064307e-09
366 2 8.116276995378e-03 6.137024678459e-03 1.016190331544e-02 9.164918816708e-08 2.407781452271e-06 -3.258003340206e-07 4.672894861173e-04 2.760070070330e-04 1.010539419282e-04 1.000000000000e-03 1.047197551197e-05 -1.166910881051e-09 -2.410227870311e-08 3.247044376928e-09
367 2 1.492228354959e-02 5.649908265579e-03 1.323274598647e-02 -2.092793383532e-07 1.647806709796e-06 3.222601261599e-07 4.282770078876e-05 -5.755042060739e-04 1.141720535833e-04 1.000000000000e-03 1.047197551197e-05 1.853729619393e-09 -1.646724152233e-08 -3.240040493063e-09
368 2 1.302767194164e-02 1.532639689312e-02 1.439651581826e-02 1.037417063809e-07 6.388902381487e-07 -4.556258462268e-07 5.952849940715e-04 -7.228500517416e-05 -6.667377706418e-04 1.000000000000e-03 1.047197551197e-05 -1.135359335297e-09 -6.398908583649e-09 4.573384453649e-09
369 2 1.192123078505e-02 5.056477148306e-03 1.202586137673e-02 2.988459688319e-07 2.042098635173e-06 -2.390507806545e-07 2.080309513668e-04 -8.486748059349e-05 -9.815548028483e-05 1.000000000000e-03 1.047197551197e-05 -3.185372541700e-09 -2.052297438075e-08 2.329686725120e-09
370 2 1.099594666101e-03 4.640284067477e-03 8.801797225556e-03 -2.124864258869e-07 2.550533941887e-06 -1.509939286531e-06 8.798157905258e-05 9.285061161111e-04 -8.266484755361e-04 1.000000000000e-03 1.047197551197e-05 1.839367273116e-09 -2.547501752198e-08 1.502756156444e-08
371 2 8.166625826812e-03 4.609551022749e-03 8.922142443186e-03 -8.044126883263e-08 2.727220488666e-06 -5.993472779999e-07 -1.977614970765e-04 1.432980909071e-04 -1.150778850421e-04 1.000000000000e-03 1.047197551197e-05 5.210542768642e-10 -2.725718975309e-08 5.987095030821e-09
372 2 1.365955073543e-02 9.909348126975e-04 1.284718675262e-02 3.435285525476e-07 1.536091163915e-06 -4.675409612151e-07 3.509061081845e-04 1.573805664432e-04 3.514407639123e-04 1.000000000000e-03 1.047197551197e-05 -3.590769134494e-09 -1.541352402702e-08 4.651899904979e-09
373 2 1.022951150849e-02 7.854499946039e-03 2.754439286516e-03 4.274297637736e-06 1.409578643336e-06 -2.818151261617e-06 -3.228413652991e-03 -4.141202026705e-03 -2.531188471378e-03 1.000000000000e-03 1.047197551197e-05 -4.274953577860e-08 -1.411512858910e-08 2.805948804167e-08
374 2 8.410501335214e-03 8.827593471139e-03 8.702427202023e-04 -7.440458708544e-07 7.374822265361e-07 5.735447321621e-08 -6.828686120315e-04 -8.151285115668e-04 -1.590730800435e-03 1.000000000000e-03 1.047197551197e-05 7.329548548122e-09 -7.416391659282e-09 -5.629240058922e-10
375 2 9.329662895296e-03 1.251744855065e-02 2.668054137824e-03 2.069588055573e-07 3.549249731089e-06 -1.686820806049e-07 1.521427413939e-03 9.003409516872e-05 5.218474279991e-04 1.000000000000e-03 1.047197551197e-05 -2.223201424134e-09 -3.543144257736e-08 1.694280603403e-09
376 2 1.482409186913e-02 1.289840864503e-02 4.420985835474e-03 8.427472738987e-07 2.712394043436e-06 -1.078987260057e-06 -9.755104634375e-04 2.842770941024e-04 1.379830123894e-04 1.000000000000e-03 1.047197551197e-05 -8.585058792233e-09 -2.710252739447e-08 1.070042631385e-08
377 2 1.101782080657e-02 9.823602536157e-03 4.666868808149e-03 6.978831931467e-07 2.905797114310e-06 -6.281601738360e-08 3.643490411179e-04 -3.066013166679e-04 -1.433503796093e-05 1.000000000000e-03 1.047197551197e-05 -7.119715468781e-09 -2.907206487785e-08 6.011171949789e-10
378 2 1.513223532250e-02 6.070987859770e-04 2.971998446423e-03 -1.151076486356e-06 1.267812222326e-06 4.293848682812e-07 -9.066873654279e-04 -1.481908370453e-03 -1.964398778061e-03 1.000000000000e-03 1.047197551197e-05 1.123395845770e-08 -1.274918106599e-08 -4.237747126296e-09
379 2 9.551852199103e-03 9.420528120009e-03 2.254528557303e-03 1.687710979665e-07 2.675516995024e-07 -9.022601154743e-07 5.154400914199e-03 5.263438564756e-03 7.017627539473e-03 1.000000000000e-03 1.047197551197e-05 -1.837723249619e-09 -2.770931627370e-09 8.992379907518e-09
380 2 9.152904707633e-03 5.448843652404e-04 1.456820383246e-03 -6.766490239718e-07 2.029452740136e-06 -2.873124863966e-07 -1.575498302943e-03 5.781173634899e-04 -5.731256978565e-04 1.000000000000e-03 1.047197551197e-05 6.618740870270e-09 -2.036877884570e-08 2.921789960713e-09
381 2 1.531405365077e-02 9.721221997889e-03 2.450865436831e-03 4.766093303920e-07 2.175564882954e-06 -5.307023080560e-07 -2.447846344824e-03 -3.432275664654e-04 1.697681712521e-03 1.000000000000e-03 1.047197551197e-05 -4.821012949804e-09 -2.178856494695e-08 5.191024123254e-09
382 2 1.026751401667e-02 1.116045427070e-02 3.591396303975e-03 8.755354637736e-07 3.031209750928e-06 -4.226125741992e-07 -7.145729662059e-04 -1.537953063206e-05 -1.499467405892e-04 1.000000000000e-03 1.047197551197e-05 -8.880662472567e-09 -3.030048514865e-08 4.205280954020e-09
383 2 5.654018199550e-04 3.543526137120e-04 6.909791419125e-03 1.201243238713e-06 2.190797930912e-06 -2.057164597940e-06 -5.833900542850e-04 -2.057941616662e-04 4.320286820055e-04 1.000000000000e-03 1.047197551197e-05 -1.214473199509e-08 -2.195572941183e-08 2.036560551755e-08
384 2 1.465282172711e-02 6.766619011080e-03 2.579725217086e-03 8.902413985337e-07 1.926110223308e-06 -1.517027436472e-07 -2.827634605282e-03 -2.132517091083e-05 2.935977960121e-04 1.000000000000e-03 1.047197551197e-05 -8.996815659398e-09 -1.927765349294e-08 1.420666488392e-09
385 2 1.115462801278e-02 2.494793601994e-04 8.307352463361e-04 -7.948160550826e-07 1.235964686287e-06 -3.812418630620e-07 -1.086812940675e-03 -9.167571569514e-04 1.087689884859e-03 1.000000000000e-03 1.047197551197e-05 7.814274462288e-09 -1.233554043196e-08 3.756329423301e-09
386 2 6.905922690605e-03 1.185847737819e-02 5.449972387743e-03 -5.177262086503e-08 3.557332790970e-06 -1.469212376724e-06 -2.073386538740e-04 -1.044658061109e-03 -2.125815948692e-03 1.000000000000e-03 1.047197551197e-05 2.835624314428e-10 -3.551099560523e-08 1.454253643498e-08
387 2 1.416872272193e-02 9.461484523546e-04 6.432627866764e-03 7.605564104525e-07 2.857093114392e-06 -7.634623378520e-07 -3.703418423681e-04 -2.293267864624e-05 1.852981177613e-04 1.000000000000e-03 1.047197551197e-05 -7.796384196744e-09 -2.856656872501e-08 7.595915047361e-09
388 2 6.299389313890e-03 1.075881385018e-02 4.056669047719e-03 8.538715873151e-07 1.409414673103e-06 -2.155336784357e-07 -2.377548916916e-03 7.321799926195e-04 3.038746239586e-03 1.000000000000e-03 1.047197551197e-05 -8.635335513193e-09 -1.426312578174e-08 2.133002024309e-09
389 2 8.208091181788e-03 1.267534019400e-02 4.264181331911e-03 1.013941853626e-06 1.826678861513e-06 -2.294356160227e-07 1.307355817509e-03 4.182208388940e-04 -1.044506569235e-03 1.000000000000e-03 1.047197551197e-05 -1.025197353095e-08 -1.834958117256e-08 2.298900384689e-09
390 2 1.156859646362e-03 7.735461331812e-03 6.248961577517e-03 6.240306746626e-07 1.431872903986e-06 -7.518311831067e-07 -4.827154337662e-04 -4.152888763236e-04 -1.071334882274e-03 1.000000000000e-03 1.047197551197e-05 -6.414111544600e-09 -1.444422640795e-08 7.413670509600e-09
391 2 1.163469961689e-02 1.232312782695e-02 2.902545317217e-03 5.080285933666e-07 2.832697935845e-06 -2.041670759175e-07 3.060700261660e-04 -3.308071565247e-04 3.862085869782e-04 1.000000000000e-03 1.047197551197e-05 -5.251404267356e-09 -2.828525666406e-08 2.016920927943e-09
392 2 1.201192900881e-03 1.422262328004e-02 2.928808882173e-03 1.403671236487e-06 2.440075466904e-06 -1.680800792396e-06 -2.828772217540e-03 3.420368196598e-03 -2.097358548957e-03 1.000000000000e-03 1.047197551197e-05 -1.405372485084e-08 -2.441629967057e-08 1.664363951436e-08
393 2 1.231344862870e-02 1.145240587446e-02 1.149126161533e-03 3.106278952618e-07 1.328276505047e-06 -1.394719661068e-07 4.328274760572e-04 4.769335722102e-04 -2.100386785925e-03 1.000000000000e-03 1.047197551197e-05 -3.197371781276e-09 -1.331414744675e-08 1.403193866887e-09
394 2 8.750272117721e-03 1.470752937483e-02 4.774415594490e-03 1.006741623232e-06 3.953180281380e-06 1.490431769846e-07 -4.298916822209e-04 9.150517479411e-04 -1.607974329758e-03 1.000000000000e-03 1.047197551197e-05 -1.019854773109e-08 -3.939464907942e-08 -1.461915650300e-09
395 2 8.513490503477e-03 1.306730010774e-02 9.569080429168e-04 -2.078471563243e-07 1.578390277413e-06 6.627778101379e-07 -1.196905547614e-03 3.885089500222e-06 2.931674059188e-03 1.000000000000e-03 1.047197551197e-05 1.954819943291e-09 -1.579578315525e-08 -6.584257032871e-09
396 2 1.007287139806e-02 2.595100045733e-04 6.251083989346e-03 4.181814853362e-07 2.746329410957e-06 -4.280200483846e-07 -4.406116334189e-04 1.625232056065e-04 1.819252818495e-04 1.000000000000e-03 1.047197551197e-05 -4.375079567908e-09 -2.748106707916e-08 4.240524360250e-09
397 2 7.664690658481e-03 1.502934657752e-02 8.641751224712e-04 -6.082722197300e-07 6.488782793136e-07 3.985776182588e-07 -8.758307795356e-04 -1.074393147005e-03 7.905587955301e-04 1.000000000000e-03 1.047197551197e-05 5.909304910179e-09 -6.584583876214e-09 -3.927581670223e-09
398 2 1.510347272784e-02 1.447215235676e-02 1.752130808775e-03 1.303147158383e-06 2.403150401159e-06 -2.012989387952e-07 2.447259727762e-03 -2.075665152393e-03 2.397693267358e-03 1.000000000000e-03 1.047197551197e-05 -1.310842238527e-08 -2.400612350079e-08 2.036278303922e-09
399 2 1.217313439109e-02 1.441798613116e-02 3.995454053021e-03 3.299188673663e-07 2.606690639938e-06 -9.221771305967e-07 2.905770221180e-04 -1.343483108946e-05 5.539011217505e-04 1.000000000000e-03 1.047197551197e-05 -3.517869181495e-09 -2.605982310797e-08 9.159949594437e-09
400 2 7.632950792392e-03 1.251701399629e-02 7.119353507697e-03 1.340578961980e-07 2.936280591733e-06 -8.710037207717e-07 9.106961862913e-05 -2.258021364264e-04 -1.113736360207e-04 1.000000000000e-03 1.047197551197e-05 -1.590395776310e-09 -2.937561260921e-08 8.656030344767e-09
401 3 9.798110604197e-03 1.106841545976e-02 1.103726769282e-03 -2.776208552350e-06 2.276361463517e-06 7.774136708449e-07 -1.674129691736e-03 -2.116863608226e-03 -4.235857212233e-03 1.250000000000e-03 2.045307717181e-05 5.386876090181e-08 -4.435698891964e-08 -1.520748137598e-08
402 3 8.282933068266e-03 1.032590278334e-02 3.669288540206e-03 1.408381776928e-06 3.493225381933e-06 -5.865138757557e-07 4.658347261559e-04 -4.083638153393e-06 -7.063915535042e-05 1.250000000000e-03 2.045307717181e-05 -2.769592993618e-08 -6.806215371583e-08 1.142306291258e-08
403 3 1.197535544687e-04 1.090671189781e-02 4.108375496240e-03 3.927264231072e-07 3.049249380017e-06 -1.265992713922e-06 8.480009722431e-04 8.760007601295e-04 -1.099048825670e-04 1.250000000000e-03 2.045307717181e-05 -8.008016088067e-09 -5.951700192927e-08 2.453910826059e-08
404 3 1.450281345240e-02 1.167702586173e-02 1.195039877431e-03 1.916275241637e-07 7.278411050076e-07 -3.428297932302e-07 -4.279809389453e-04 -6.875631635554e-05 1.498983361470e-03 1.250000000000e-03 2.045307717181e-05 -3.928129696130e-09 -1.426383340625e-08 6.696100711284e-09
405 3 9.163540042159e-03 8.686252830234e-03 5.002541437745e-03 9.810371072945e-07 3.139369905363e-06 -6.875319805550e-07 6.461094427987e-05 -1.530142793573e-04 -4.555041554357e-05 1.250000000000e-03 2.045307717181e-05 -1.944734385504e-08 -6.134488955839e-08 1.334662809655e-08
406 3 8.224391901318e-03 1.432319317923e-02 2.750897267204e-03 -1.097746859854e-06 2.773204119733e-06 1.145392345175e-06 -5.895939753441e-04 8.539076111145e-04 4.340046707124e-04 1.250000000000e-03 2.045307717181e-05 2.081225409192e-08 -5.416446774094e-08 -2.219605230758e-08
407 3 6.600326114267e-04 8.094099347742e-03 3.715078997775e-03 1.054669087964e-06 2.998107963264e-06 -4.574660946789e-08 1.850201523042e-03 -1.669787975524e-04 -1.969092849306e-04 1.250000000000e-03 2.045307717181e-05 -2.080430295197e-08 -5.848895634393e-08 8.491889812897e-10
408 3 1.423402590465e-03 1.142009726428e-02 5.974745705427e-03 8.172217237206e-07 2.331693683700e-06 -1.243193065179e-06 -3.388541399431e-04 -3.810655186823e-04 -7.207514409606e-05 1.250000000000e-03 2.045307717181e-05 -1.622979033571e-08 -4.562301300821e-08 2.408734830973e-08
409 3 6.930641963652e-03 8.921676138825e-03 2.406570919091e-03 1.678940744534e-07 3.868251752030e-06 1.093834618608e-07 -5.995347661114e-04 8.471354822983e-04 -7.444335799971e-04 1.250000000000e-03 2.045307717181e-05 -3.575013007775e-09 -7.544530353554e-08 -2.149924630582e-09
410 3 1.088015067241e-02 1.312115529183e-02 1.088609496022e-03 9.169325362650e-09 1.178085248428e-06 -1.965474401679e-07 -7.535202658233e-04 -3.683472222677e-05 1.807155526342e-03 1.250000000000e-03 2.045307717181e-05 -3.512585713794e-10 -2.296018026028e-08 3.882106616182e-09
411 3 1.060428649064e-02 1.479179420991e-02 2.618892180631e-03 -6.803644628885e-07 2.249994813594e-06 -5.079367370588e-07 -1.547992413165e-04 6.254482791484e-04 -4.142337084630e-04 1.250000000000e-03 2.045307717181e-05 1.283727952591e-08 -4.396767974787e-08 9.949769352781e-09
412 3 1.036316011196e-02 1.327596532285e-02 4.427842550282e-03 2.716067131015e-07 2.630395754459e-06 -2.593542801584e-07 -2.585695074755e-04 3.432975340449e-04 1.286197627716e-05 1.250000000000e-03 2.045307717181e-05 -5.654390054858e-09 -5.137795155802e-08 5.048376174340e-09
413 3 6.914091903065e-03 8.382790006416e-03 5.928097297732e-03 7.244714906494e-07 3.286801584510e-06 -1.780378715992e-07 4.350830818736e-04 6.782080680870e-04 4.859321508542e-05 1.250000000000e-03 2.045307717181e-05 -1.451554750320e-08 -6.418861118732e-08 3.512468818486e-09
414 3 1.353183296440e-02 1.332780793294e-02 2.684948616665e-03 5.747923660823e-07 1.530718159217e-06 -1.123715697527e-06 -1.218458803364e-03 5.388726708694e-04 -1.106769787663e-03 1.250000000000e-03 2.045307717181e-05 -1.153716554768e-08 -2.996789199752e-08 2.178703449338e-08
415 3 1.245679395246e-02 1.309770151444e-02 5.640534351397e-03 4.966916285009e-07 2.779764252622e-06 -6.392010923439e-07 -4.242438773867e-04 6.996132663183e-05 -1.991517195266e-04 1.250000000000e-03 2.045307717181e-05 -1.007841169150e-08 -5.435574182046e-08 1.238645010458e-08
416 3 6.235241540687e-03 1.277504986814e-02 1.139157847419e-03 5.788493884851e-07 1.060190342926e-06 -6.818416150682e-07 -6.428744149176e-04 2.357952032542e-04 -1.315141381168e-03 1.250000000000e-03 2.045307717181e-05 -1.140105709173e-08 -2.081819169172e-08 1.324569349403e-08
417 3 1.412870352795e-02 1.489064118381e-02 4.731300067677e-03 4.899530980781e-07 2.680202426809e-06 -1.180494548292e-06 5.145718511195e-04 4.706459403568e-04 2.556554873139e-05 1.250000000000e-03 2.045307717181e-05 -9.924149064663e-09 -5.238888817924e-08 2.292354407221e-08
418 3 1.352656328112e-02 9.506700348673e-03 1.113026190055e-03 4.844723094287e-08 5.186406664347e-07 -1.309767071987e-07 -2.178587946858e-04 -3.091233019947e-04 -1.544151503536e-03 1.250000000000e-03 2.045307717181e-05 -1.014886051395e-09 -1.018281738087e-08 2.496968208275e-09
419 3 9.958283058899e-03 1.139670496635e-02 5.813138034777e-03 5.957512844476e-07 2.872467911030e-06 4.368409204787e-08 -1.279608096302e-04 2.775690961893e-05 -6.739131150286e-08 1.250000000000e-03 2.045307717181e-05 -1.198544630870e-08 -5.610790360011e-08 -8.780150237657e-10
420 3 1.166828802159e-02 9.866826710952e-03 2.564794602709e-03 1.794020867456e-07 2.253964335110e-06 -4.062630331172e-08 -3.287039035133e-04 6.924889370180e-04 6.610529398363e-05 1.250000000000e-03 2.045307717181e-05 -3.752954812195e-09 -4.399444247689e-08 7.672758232016e-10
421 3 1.384348031936e-02 9.112411124086e-03 3.808483951571e-03 7.076285934849e-07 2.844281189845e-06 -2.796298383168e-07 -5.079136245675e-04 -1.328538321491e-04 2.402829332867e-04 1.250000000000e-03 2.045307717181e-05 -1.408659597769e-08 -5.550460208072e-08 5.382498643353e-09
422 3 9.294089854366e-03 1.366821842917e-02 6.557894154080e-03 5.261361725143e-07 2.960688180822e-06 -2.334814892958e-07 2.740264815042e-04 -1.494225044065e-04 -1.627251463976e-04 1.250000000000e-03 2.045307717181e-05 -1.065253192987e-08 -5.781814415493e-08 4.517818549154e-09
423 3 1.183660049485e-02 7.931226607744e-03 4.086732852996e-03 1.015539747676e-06 2.616896557363e-06 3.207391792359e-07 -5.298756584215e-04 -8.947020136214e-05 1.470772400995e-04 1.250000000000e-03 2.045307717181e-05 -2.012099297076e-08 -5.110617566086e-08 -6.311386627556e-09
424 3 5.255510595321e-04 1.366272903991e-02 6.171541452591e-03 1.034930805234e-06 2.483025259219e-06 -1.412462443775e-06 1.539490604653e-04 -8.456837432706e-06 -4.797347443837e-04 1.250000000000e-03 2.045307717181e-05 -2.046646149182e-08 -4.860560087942e-08 2.738614748171e-08
425 3 1.038168543561e-03 2.408928537806e-04 4.792573411080e-03 5.338214929442e-07 2.195630770826e-06 -2.667965547872e-06 1.749020460819e-04 9.428185399435e-04 -1.343841938375e-04 1.250000000000e-03 2.045307717181e-05 -1.081334800032e-08 -4.307998393468e-08 5.166146341098e-08
426 3 1.303696849106e-02 1.130548582052e-02 4.187938387720e-03 3.637893052569e-07 2.741104769995e-06 -4.351966511126e-07 3.797257910615e-04 -1.313689746718e-04 7.201494257680e-05 1.250000000000e-03 2.045307717181e-05 -7.451561922951e-09 -5.354689951759e-08 8.398783698590e-09
427 3 7.977893946272e-03 1.034993371372e-02 6.819985620327e-03 5.726538834174e-07 3.012530807516e-06 -2.461249360804e-07 -2.928236049832e-04 -5.046479298765e-04 2.386507039106e-04 1.250000000000e-03 2.045307717181e-05 -1.156500287951e-08 -5.880377783193e-08 4.794106449717e-09
428 3 1.455233877743e-02 1.435839382837e-02 1.305976055902e-02 7.899998412977e-07 1.850804009385e-06 -6.916688573102e-07 -1.647175450680e-04 -4.539280407466e-04 1.234208296782e-04 1.250000000000e-03 2.045307717181e-05 -1.578040841458e-08 -3.626393575066e-08 1.349529210982e-08
429 3 9.498549594176e-03 1.095279347583e-02 1.082330288123e-02 4.715606113408e-07 2.494242113492e-06 -3.982642031146e-07 -2.582684609281e-04 9.310768297751e-05 -8.620539501374e-05 1.250000000000e-03 2.045307717181e-05 -9.666424999495e-09 -4.875946421630e-08 7.716285233132e-09
430 3 1.445032684075e-02 7.645491906606e-03 1.401440649272e-02 1.057217125380e-08 1.668258975932e-06 -5.029055515308e-07 -5.679980773608e-04 2.285815974985e-05 -4.306818933807e-04 1.250000000000e-03 2.045307717181e-05 -6.274187325654e-10 -3.253868235808e-08 9.742697608159e-09
431 3 1.279437543880e-02 1.131848946409e-02 1.226587815885e-02 6.495601307495e-07 2.465976300143e-06 -2.185267709885e-07 3.524717309236e-04 2.436692008635e-04 -3.222700821225e-05 1.250000000000e-03 2.045307717181e-05 -1.308371201141e-08 -4.816996422817e-08 4.163761046905e-09
432 3 8.243187327895e-03 6.687027364044e-03 1.434941731085e-02 3.739990433642e-07 1.255968742713e-06 -1.041593693115e-07 7.038150887439e-04 -3.565654192315e-04 -6.707602767904e-05 1.250000000000e-03 2.045307717181e-05 -7.527153241035e-09 -2.459495879109e-08 1.936368711309e-09
433 3 6.959651117692e-03 1.445015370584e-02 7.757014656145e-03 4.144908776394e-07 2.805382274892e-06 -6.680907451393e-07 6.614857502688e-05 2.558639173860e-04 -1.951931402944e-04 1.250000000000e-03 2.045307717181e-05 -8.501446090365e-09 -5.484186069034e-08 1.305754348520e-08
434 3 1.503407778827e-02 1.099661931496e-02 1.025938367071e-02 6.842508065477e-07 2.498066448639e-06 -4.492459115109e-07 2.162217317993e-04 -8.377853214891e-05 -1.709637609515e-05 1.250000000000e-03 2.045307717181e-05 -1.374001804132e-08 -4.884706971352e-08 8.711262867335e-09
435 3 6.999416258366e-04 7.797992013207e-03 8.385166642108e-03 6.476027621525e-07 2.252906393971e-06 -5.933152017734e-07 -1.145563340437e-04 5.865327128213e-04 -1.789613859118e-04 1.250000000000e-03 2.045307717181e-05 -1.300982351447e-08 -4.415579577429e-08 1.139726193906e-08
436 3 9.632147158962e-03 1.259411530181e-02 1.417503123813e-02 1.820112629674e-07 1.558457305786e-06 -1.003892044659e-07 3.970255253501e-04 -7.082245467910e-04 5.436513844650e-05 1.250000000000e-03 2.045307717181e-05 -3.844619432586e-09 -3.041227414147e-08 1.920085702323e-09
437 3 7.514220522473e-03 1.237788709479e-02 1.056070134922e-02 4.881868628363e-07 2.411245178116e-06 -5.688961098540e-07 2.748374512123e-05 1.586816537297e-04 5.779833145425e-05 1.250000000000e-03 2.045307717181e-05 -9.954525571281e-09 -4.716822956724e-08 1.107998138665e-08
438 3 9.374829195465e-03 9.289068651037e-03 9.129584410856e-03 2.914239116442e-07 2.239595762418e-06 -1.491392445149e-07 -5.741551257050e-05 1.462370678848e-04 3.365440592605e-05 1.250000000000e-03 2.045307717181e-05 -6.158897031096e-09 -4.380503325504e-08 2.865845579511e-09
439 3 8.299091267703e-03 6.524975085355e-03 5.666426880762e-03 1.035445606306e-06 3.234017911263e-06 -9.148288495252e-07 9.370244830776e-05 -3.529740508760e-04 7.601236051580e-05 1.250000000000e-03 2.045307717181e-05 -2.060139167480e-08 -6.311871386265e-08 1.782727771725e-08
440 3 1.252339701537e-02 1.279795395208e-02 8.609291612128e-03 5.589817068025e-07 2.570931030742e-06 -7.327862952613e-07 1.955188854553e-05 -1.932540527365e-04 4.890761796139e-05 1.250000000000e-03 2.045307717181e-05 -1.125660426303e-08 -5.033926389722e-08 1.424791059738e-08
441 3 9.129747645455e-04 6.826734577723e-04 1.267264069395e-02 6.073683366792e-07 2.355337870547e-06 -5.968719395680e-07 -8.742505680931e-05 2.635680832157e-04 1.714603485707e-04 1.250000000000e-03 2.045307717181e-05 -1.224223297539e-08 -4.616002862281e-08 1.151653059966e-08
442 3 1.147417977304e-02 1.449796020202e-02 7.379404660641e-03 6.480144057280e-07 2.848712043274e-06 -5.064605794318e-07 2.085749760073e-04 1.824234335831e-04 -3.683605920525e-05 1.250000000000e-03 2.045307717181e-05 -1.300739145827e-08 -5.566399679125e-08 9.841271209442e-09
443 3 8.845933012816e-03 7.620022988069e-05 1.200692309378e-02 -1.158150842796e-07 2.219984749272e-06 -5.470937293039e-07 -5.093247416739e-04 -8.886051559769e-05 8.295310157517e-05 1.250000000000e-03 2.045307717181e-05 1.837757031138e-09 -4.344583651126e-08 1.068644648506e-08
444 3 1.494176811786e-02 9.277078116380e-03 6.002087887944e-03 8.337220592022e-07 2.638244633439e-06 -6.892448291954e-07 3.226146655972e-04 2.645795295928e-04 -1.258364429199e-04 1.250000000000e-03 2.045307717181e-05 -1.659642071735e-08 -5.157260281453e-08 1.327270599022e-08
445 3 6.592725538864e-03 1.143390493570e-02 8.528279717761e-03 2.344395224053e-07 2.628344483259e-06 -6.197181441316e-07 1.125158446249e-04 2.323526477521e-04 9.715240686764e-05 1.250000000000e-03 2.045307717181e-05 -5.067979113784e-09 -5.136193477259e-08 1.201953210766e-08
446 3 8.066003461573e-03 1.462040548801e-02 9.942762564620e-03 1.860248569030e-08 2.397934729990e-06 -6.678893475792e-07 5.453413707501e-04 -9.661950204825e-05 -3.842283962658e-05 1.250000000000e-03 2.045307717181e-05 -8.385824816901e-10 -4.686260340857e-08 1.303120396684e-08
447 3 6.152823508502e-03 7.875638645791e-03 8.847302652195e-03 3.036824074547e-07 2.450466478213e-06 -4.576878749289e-07 2.851578652610e-04 4.130658722818e-04 -2.052096020671e-04 1.250000000000e-03 2.045307717181e-05 -6.362688059047e-09 -4.792427902150e-08 8.854153836287e-09
448 3 1.219834061632e-02 1.320643334208e-02 1.374520918285e-02 9.880918652036e-07 1.871936830113e-06 8.415988312263e-07 2.536395031829e-04 2.249658273680e-04 -1.689415821603e-04 1.250000000000e-03 2.045307717181e-05 -1.950376966442e-08 -3.663274169440e-08 -1.633680843797e-08
449 3 6.162761866598e-03 8.384386811742e-03 1.143800434823e-02 3.297032748083e-07 2.225359941385e-06 -1.193527786574e-07 1.349398203342e-04 2.916962436718e-05 6.002269726935e-05 1.250000000000e-03 2.045307717181e-05 -6.823717162818e-09 -4.360109191522e-08 2.297317714654e-09
450 3 1.386533611803e-02 1.152933102775e-02 1.426252048938e-02 5.947957414424e-07 1.083401633054e-06 1.901926775919e-07 7.876412035389e-04 -5.255901334569e-04 -2.855188734806e-04 1.250000000000e-03 2.045307717181e-05 -1.174298146912e-08 -2.120429031188e-08 -3.706509459931e-09
451 3 8.344784127397e-04 1.214814585796e-02 1.205155956957e-02 8.618826199267e-07 2.438658370258e-06 -7.741775813477e-07 -4.308639697507e-04 3.611231243567e-04 -2.475602324422e-04 1.250000000000e-03 2.045307717181e-05 -1.723830959887e-08 -4.766988596788e-08 1.501744747972e-08
452 3 1.399709165280e-02 1.301739995526e-02 1.099387007233e-02 4.401303498656e-07 2.400211054054e-06 -1.046649963840e-06 -8.128158138664e-04 7.348597687625e-05 1.921969761648e-04 1.250000000000e-03 2.045307717181e-05 -8.963524902457e-09 -4.689557488324e-08 2.034795276373e-08
453 3 1.121168118069e-02 7.022096665746e-03 1.258412618861e-02 2.752193071399e-07 1.986451063463e-06 -2.804657502642e-07 -2.450243269045e-04 1.193949033213e-04 1.719701368133e-05 1.250000000000e-03 2.045307717181e-05 -5.825541137529e-09 -3.885269836330e-08 5.462715677432e-09
454 3 1.437158897633e-02 1.168968166477e-02 6.239693828109e-03 7.031500428445e-07 2.661908471877e-06 -8.495431292552e-07 -2.887816551094e-04 5.928749689995e-04 1.833892195835e-05 1.250000000000e-03 2.045307717181e-05 -1.405864391809e-08 -5.204931925027e-08 1.644452363735e-08
455 3 1.212995807228e-02 8.543384471023e-03 1.419905559489e-02 -8.858699394296e-08 1.422824773760e-06 1.136495421956e-07 1.107257546942e-03 1.106492740626e-04 5.979975952538e-04 1.250000000000e-03 2.045307717181e-05 1.390513890372e-09 -2.778480339076e-08 -2.258842307321e-09
456 3 1.257226155837e-02 1.002843963409e-02 1.036877435235e-02 4.655948423344e-07 2.508253145153e-06 -5.874523048712e-07 -9.414388750441e-05 -3.659724353677e-05 9.843897835650e-05 1.250000000000e-03 2.045307717181e-05 -9.561003852986e-09 -4.904872535941e-08 1.142436812418e-08
457 3 1.464967976955e-02 6.256858428329e-04 1.087657168025e-02 2.867916282128e-07 2.455047860761e-06 -6.460793898807e-07 1.951476678028e-04 -5.141210691663e-05 -1.810823971266e-04 1.250000000000e-03 2.045307717181e-05 -6.005421257982e-09 -4.800962184546e-08 1.255530995021e-08
458 3 1.548735553359e-03 7.822439478602e-03 1.428343603984e-02 1.520317465548e-08 1.002279823638e-06 -3.422569487060e-07 7.815074528712e-04 -1.953014784623e-05 -1.926200130050e-04 1.250000000000e-03 2.045307717181e-05 -7.877117064878e-10 -1.958693104137e-08 6.671086760983e-09
459 3 6.758335244403e-03 6.285331378909e-03 1.253207640806e-02 3.382046608738e-07 2.035550910703e-06 -3.507391670268e-07 1.317329026779e-04 1.951612380421e-04 -7.952834057565e-05 1.250000000000e-03 2.045307717181e-05 -7.094802832296e-09 -3.995869092266e-08 6.833539753162e-09
460 3 1.431525927918e-02 8.770603727505e-03 9.647698797414e-03 7.583720352354e-07 2.572903716670e-06 -3.010219081692e-07 -2.643042382976e-04 -1.189855800424e-04 1.049820756795e-04 1.250000000000e-03 2.045307717181e-05 -1.519193447076e-08 -5.032343176159e-08 5.821349647876e-09
461 3 2.552522790645e-04 1.487902982749e-02 8.821112519128e-03 7.361901322361e-07 2.561601253075e-06 -1.508491735282e-06 8.200908620223e-05 -3.102359182599e-04 -3.068780299910e-05 1.250000000000e-03 2.045307717181e-05 -1.470551302469e-08 -5.007893490656e-08 2.924902767710e-08
462 3 1.490907377210e-02 1.260634916963e-02 8.546691673315e-03 7.532626224988e-07 2.484817039588e-06 -8.135193252137e-07 -5.240659694375e-04 1.414501699688e-04 -6.789420072564e-05 1.250000000000e-03 2.045307717181e-05 -1.500637471886e-08 -4.865368969626e-08 1.578182457402e-08
463 3 1.159338635432e-02 1.279654572860e-02 1.092204771694e-02 4.367782766505e-07 2.109359513382e-06 -6.331941499066e-07 -1.044910381391e-03 6.406215970976e-05 -5.854987609733e-05 1.250000000000e-03 2.045307717181e-05 -8.829137072887e-09 -4.129197908994e-08 1.227222974894e-08
464 3 9.461888741316e-03 1.085827506979e-04 8.245635414637e-03 3.488366323085e-07 2.981593312633e-06 -4.279691179118e-07 -6.700126761290e-05 -2.828424152370e-04 1.153022112644e-04 1.250000000000e-03 2.045307717181e-05 -7.227201266659e-09 -5.818553082349e-08 8.297101457306e-09
465 3 1.085027200961e-02 1.518747460459e-02 1.379280632143e-02 6.229998887905e-07 1.938668636506e-06 2.433191965119e-07 1.740356306276e-04 -1.593865635620e-03 3.961331580483e-04 1.250000000000e-03 2.045307717181e-05 -1.229262070849e-08 -3.782777159127e-08 -4.707385381570e-09
466 3 1.304093005108e-02 8.096494644095e-03 1.177251112194e-02 4.064488523147e-07 2.343893560148e-06 -3.240322182384e-07 5.365104037547e-05 -2.361378303580e-04 1.468908258891e-04 1.250000000000e-03 2.045307717181e-05 -8.296433328745e-09 -4.581501029622e-08 6.314540852832e-09
467 3 1.049522551882e-02 1.476512434676e-02 1.025683150518e-02 2.721460223658e-07 2.126827159579e-06 -6.821629449791e-07 8.738881018077e-04 2.253268604271e-04 -4.186740415269e-06 1.250000000000e-03 2.045307717181e-05 -5.733957185628e-09 -4.166399037359e-08 1.327322672031e-08
468 3 1.261298089506e-02 1.486980304637e-02 1.168125757486e-02 3.806414288467e-07 2.069434020615e-06 -6.880813919663e-07 7.863526144110e-04 5.575754412447e-04 2.046462923494e-04 1.250000000000e-03 2.045307717181e-05 -7.801586968755e-09 -4.051029339760e-08 1.338598340665e-08
469 3 1.503345014995e-02 6.918970146877e-03 1.152084581520e-02 4.885363131800e-07 2.054177282663e-06 7.994952632810e-08 3.118335251243e-05 -6.330973503509e-05 -3.373657418116e-04 1.250000000000e-03 2.045307717181e-05 -9.997718531858e-09 -4.015058680419e-08 -1.577355030859e-09
470 3 1.384441446313e-02 1.427409311932e-02 7.152031668715e-03 8.675155573908e-07 2.658049151319e-06 -8.482499018925e-07 4.681064239890e-04 1.042191125504e-04 -4.773903604886e-05 1.250000000000e-03 2.045307717181e-05 -1.719359834882e-08 -5.196595076409e-08 1.645459543640e-08
471 3 1.219084849433e-02 1.044037317734e-02 6.342217646062e-03 6.711766630432e-07 2.692958152024e-06 -2.908036997853e-07 -2.483377455763e-04 4.133769222167e-04 -1.073802190935e-04 1.250000000000e-03 2.045307717181e-05 -1.344547002157e-08 -5.263677623914e-08 5.574568615920e-09
472 3 9.097546693493e-03 1.240136778956e-02 8.653080347885e-03 1.885314655727e-07 2.522856526402e-06 -5.963755420154e-07 1.496534008796e-04 2.581543454435e-05 -1.366413478804e-04 1.250000000000e-03 2.045307717181e-05 -4.128062751966e-09 -4.934764388984e-08 1.156056983303e-08
473 3 6.863351375779e-03 8.443221883854e-03 1.371681227151e-02 4.772963420416e-07 1.919833252991e-06 7.832065925528e-08 -1.441698384071e-05 3.148088034293e-05 -1.748797284704e-05 1.250000000000e-03 2.045307717181e-05 -9.901712688568e-09 -3.798278491762e-08 -1.611350274261e-09
474 3 9.421998044773e-03 1.315241883339e-02 1.181018035445e-02 5.207631309809e-07 2.319623722514e-06 -3.647989102574e-07 3.320278937006e-04 2.340613931590e-04 2.871950862225e-04 1.250000000000e-03 2.045307717181e-05 -1.052650772524e-08 -4.539857818597e-08 7.061087395817e-09
475 3 1.140361916555e-02 1.092921397667e-02 1.422301073023e-02 4.023578970282e-07 1.385013201208e-06 -1.019706972178e-07 8.506112406086e-04 -2.866357609022e-04 -1.121366715304e-04 1.250000000000e-03 2.045307717181e-05 -8.093192379061e-09 -2.702950539777e-08 2.010958814007e-09
476 3 1.072196511412e-02 6.886467358871e-03 5.922920881572e-03 7.195734077869e-07 2.955476334185e-06 -4.635473068288e-08 4.783913245014e-04 -3.397557740186e-04 -2.161768924229e-04 1.250000000000e-03 2.045307717181e-05 -1.438679068079e-08 -5.771112535463e-08 8.904363803659e-10
477 3 1.009381148581e-03 1.695578818612e-03 9.535929326610e-03 4.940693809707e-07 2.538982865106e-06 -1.043074491089e-06 3.612851288420e-05 2.595856741168e-04 3.729646324895e-05 1.250000000000e-03 2.045307717181e-05 -1.002994590065e-08 -4.966248728650e-08 2.023463584358e-08
478 3 7.366653146363e-03 1.000757286076e-02 1.024371496652e-02 4.418485457739e-07 2.381994510635e-06 -3.195151558699e-07 -9.127715745995e-05 -7.035115896245e-05 -1.235486185130e-04 1.250000000000e-03 2.045307717181e-05 -9.133054174422e-09 -4.656558376742e-08 6.187963825712e-09
479 3 8.535346721924e-03 8.088446682444e-03 1.096233765098e-02 2.129784103530e-07 2.207972579450e-06 3.770901782452e-08 9.230794151535e-06 -1.822739666124e-04 -1.001854732419e-04 1.250000000000e-03 2.045307717181e-05 -4.583649686595e-09 -4.317303451289e-08 -8.208863337071e-10
480 3 6.664794290401e-03 1.387192671721e-02 1.436303215007e-02 9.493741902591e-08 1.634164171476e-06 -3.010821095735e-07 1.112432518592e-03 -1.875237758851e-04 9.500730048861e-04 1.250000000000e-03 2.045307717181e-05 -2.067046136634e-09 -3.187965197328e-08 5.766872719011e-09
481 3 9.334846506072e-03 8.267547749443e-03 1.315574004762e-02 5.320831200474e-07 2.108834791550e-06 1.140829451424e-07 -7.050508796497e-05 4.387885247236e-04 -2.318003400487e-05 1.250000000000e-03 2.045307717181e-05 -1.083317099814e-08 -4.133357395830e-08 -2.237638967560e-09
482 3 8.802131857481e-03 9.852372579576e-04 1.423549019084e-02 -3.356952771483e-08 1.605645351244e-06 -1.720438600670e-07 1.216037592778e-03 1.626516105043e-04 -3.702144730609e-04 1.250000000000e-03 2.045307717181e-05 4.155590933026e-10 -3.137212654135e-08 3.310380546354e-09
483 3 1.109601513788e-02 8.194026903828e-03 1.040580939309e-02 4.037612739666e-07 2.339363471027e-06 -2.188385676154e-07 -1.937672090640e-04 1.646693941302e-04 -8.172971773945e-05 1.250000000000e-03 2.045307717181e-05 -8.303476141849e-09 -4.574986129156e-08 4.287690935642e-09
484 3 1.284062073610e-02 8.066836658166e-03 6.390478185720e-03 6.884585611187e-07 2.699582548114e-06 1.286110144705e-08 -2.441557390106e-04 3.352616250702e-04 -4.028738201795e-05 1.250000000000e-03 2.045307717181e-05 -1.378142713887e-08 -5.276546357993e-08 -2.941909319427e-10
485 3 8.273506558866e-03 7.580874746671e-03 7.813449542000e-03 3.933474698750e-07 2.573601388983e-06 -6.059494002893e-07 3.893482434843e-04 -4.368322553711e-04 -1.289794402611e-04 1.250000000000e-03 2.045307717181e-05 -8.096421845543e-09 -5.034010390027e-08 1.173971769332e-08
486 3 1.349979388897e-02 1.063921723079e-02 8.263853131389e-03 8.085240354628e-07 2.605448679465e-06 -5.911833878044e-07 1.967168772776e-04 -2.256491177390e-04 -3.763861209294e-05 1.250000000000e-03 2.045307717181e-05 -1.609094982161e-08 -5.092500135317e-08 1.144821632705e-08
487 3 1.102227642337e-02 9.696179854780e-03 1.223682975293e-02 5.246856607085e-07 2.401714922654e-06 -4.584453206440e-07 8.883796211069e-05 4.855512195604e-05 1.555584597303e-05 1.250000000000e-03 2.045307717181e-05 -1.068488891326e-08 -4.693279064071e-08 8.967213547268e-09
488 3 7.483559431736e-03 1.231537598646e-02 1.297040926283e-02 6.910428911746e-07 2.469819479023e-06 -7.007282862370e-07 -2.350138575188e-04 -1.094581678580e-04 -4.722141409129e-04 1.250000000000e-03 2.045307717181e-05 -1.385617226457e-08 -4.809729159696e-08 1.365287625319e-08
489 3 1.101518547695e-02 1.106242780529e-02 9.015875218717e-03 3.150786747919e-07 2.321541114476e-06 -6.977287322660e-07 -1.000727577133e-04 1.177204477705e-04 3.055024832479e-05 1.250000000000e-03 2.045307717181e-05 -6.607410221899e-09 -4.539037361153e-08 1.354974483487e-08
490 3 1.062859616352e-02 7.427454899911e-03 8.262655453699e-03 2.539148745263e-07 2.279657140566e-06 -9.439951802635e-08 1.583066195105e-05 -1.232607982842e-04 -3.109102264760e-05 1.250000000000e-03 2.045307717181e-05 -5.345115891291e-09 -4.465482392383e-08 1.889764017697e-09
491 3 4.981746544116e-04 1.278973761588e-02 1.430721957235e-02 6.077051758532e-07 1.605795333123e-06 -4.324000158070e-07 1.113158345727e-03 -5.580550317413e-04 3.510023780337e-04 1.250000000000e-03 2.045307717181e-05 -1.209563176067e-08 -3.139701566265e-08 8.429803242298e-09
492 3 1.254610144394e-02 6.294268856354e-03 8.957384543651e-03 4.292375657371e-07 2.476942189315e-06 1.389074925886e-07 -4.956085001858e-05 1.067542583171e-04 3.036855303754e-04 1.250000000000e-03 2.045307717181e-05 -8.831370093532e-09 -4.839864929560e-08 -2.755660571816e-09
493 3 9.016996593649e-03 2.405632044152e-03 1.211494624806e-02 -4.362839967399e-08 2.070509997210e-06 -1.238754599631e-06 -4.040169405441e-05 3.184803680915e-04 -7.047879549169e-05 1.250000000000e-03 2.045307717181e-05 4.687818290314e-10 -4.044419565640e-08 2.375397489974e-08
494 3 1.317689381536e-02 1.497566985330e-02 9.317215075308e-03 4.194287700243e-07 2.639528017270e-06 -8.790745381613e-07 -3.651426552124e-04 -5.058847802035e-04 -1.695468409544e-04 1.250000000000e-03 2.045307717181e-05 -8.531618780985e-09 -5.164635342284e-08 1.708199013104e-08
495 3 1.099764398254e-02 1.221121684825e-03 1.180174827837e-02 -2.357990117285e-08 1.926074612727e-06 -4.230024331569e-07 -6.362157171166e-04 -5.978628103684e-04 1.408435733083e-05 1.250000000000e-03 2.045307717181e-05 -1.495956718298e-11 -3.766768737942e-08 8.169029467594e-09
496 3 4.113219669899e-04 1.022435210575e-02 8.091298666243e-03 8.035055247342e-07 2.448566934515e-06 -5.809397837144e-07 -7.581862063403e-05 3.024317013487e-05 -1.561795156800e-05 1.250000000000e-03 2.045307717181e-05 -1.608112624955e-08 -4.790397734299e-08 1.120457557876e-08
497 3 1.464086920471e-02 9.708020537012e-03 1.213116430907e-02 5.016146584119e-07 2.287572171305e-06 -3.840290337617e-07 -2.104214890696e-05 1.274531588075e-04 -2.733094915695e-04 1.250000000000e-03 2.045307717181e-05 -1.019193955557e-08 -4.475276521392e-08 7.407558604422e-09
498 3 1.018271813991e-02 9.299868537370e-03 6.934685383068e-03 5.259909025609e-07 2.672929557221e-06 -1.014339662897e-07 3.232738780550e-04 -3.410018407200e-04 5.693306108092e-05 1.250000000000e-03 2.045307717181e-05 -1.065195454208e-08 -5.223801660376e-08 1.994614086100e-09
499 3 1.498286750055e-04 9.830172340271e-03 1.428003205822e-02 3.664507497836e-07 1.116773053630e-06 -3.099881225102e-07 7.735118868814e-04 -1.951495206960e-04 4.431317303938e-05 1.250000000000e-03 2.045307717181e-05 -7.345613052096e-09 -2.183273007043e-08 6.050596961291e-09
500 3 8.095797422396e-03 1.015785733318e-02 1.258470413269e-02 3.942920381363e-07 2.111074082659e-06 -1.462549003676e-07 -1.668213471940e-04 -8.265646590405e-05 7.147725428944e-05 1.250000000000e-03 2.045307717181e-05 -8.202533298648e-09 -4.138665570668e-08 2.880282929087e-09
