ITEM: TIMESTEP
125000
ITEM: NUMBER OF ATOMS
500
ITEM: BOX BOUNDS pp pp ff
0.0000000000000000e+00 1.5370634520482899e-02
0.0000000000000000e+00 1.5370634520482899e-02
0.0000000000000000e+00 1.5370634520482899e-02
ITEM: ATOMS id type x y z vx vy vz omegax omegay omegaz radius mass fx fy fz
1 1 3.669442045839e-03 4.709309466288e-04 6.666650907416e-03 -3.990647407512e-11 8.786995655575e-10 3.433594867163e-10 -1.024237099459e-06 -2.269949200986e-08 5.403722406143e-07 7.500000000000e-04 4.417864669111e-06 -2.992696449634e-13 -8.573230861922e-13 -6.392632162134e-13
2 1 5.781446927158e-03 4.670507675872e-03 6.295447241340e-03 -2.537059402168e-10 4.731362941094e-10 -1.101299494937e-10 -1.307980740588e-07 8.945732188192e-08 -2.088280345243e-08 7.500000000000e-04 4.417864669111e-06 2.108596272016e-14 -5.330909375960e-13 1.305513027829e-13
3 1 1.750995984487e-03 6.429057128454e-03 3.714201796172e-03 3.153396115139e-11 2.541598673778e-10 7.558409878126e-13 8.183008401119e-07 5.440243130596e-07 8.340906716289e-07 7.500000000000e-04 4.417864669111e-06 -3.837569817294e-13 -4.390997816299e-13 6.584523006726e-13
4 1 5.572714629513e-03 4.454765790491e-03 6.859169505629e-04 -4.439727713542e-10 1.889035089841e-10 1.128643615819e-10 -2.438694300291e-07 -5.266900669706e-07 -1.137643310948e-07 7.500000000000e-04 4.417864669111e-06 8.856168684200e-13 -5.588361058716e-13 6.744128214270e-13
5 1 1.832063261354e-03 5.552201471644e-03 6.857307224259e-04 8.826869782020e-11 -2.691098841454e-10 1.205522947446e-10 3.351876810362e-07 1.706486295539e-07 -8.381619681755e-08 7.500000000000e-04 4.417864669111e-06 3.223073971404e-13 -1.903855476867e-13 5.431805065105e-14
6 1 5.762549210967e-03 6.860731040030e-03 2.428448532786e-03 6.441455803013e-11 3.468885965504e-10 1.072501281318e-10 -2.472089975257e-08 1.917810802616e-07 3.185101411356e-07 7.500000000000e-04 4.417864669111e-06 -1.240676559428e-12 -1.195415223683e-12 -7.427081001510e-13
7 1 2.804795358274e-03 1.969791518798e-03 2.129699820269e-03 -4.249872798846e-10 3.520625886004e-10 -6.468123529560e-12 2.603253816415e-06 -6.871562054173e-07 -2.632886612174e-07 7.500000000000e-04 4.417864669111e-06 -1.023915914735e-12 2.002961794016e-13 1.839882601597e-13
8 1 3.746282906013e-03 6.568277544622e-03 3.209019538304e-03 5.663289242489e-228 9.548010340733e-228 -2.759460372692e-228 -1.318176451983e+01 3.034971343926e+01 -1.081675735394e+01 7.500000000000e-04 4.417864669111e-06 -5.676137389307e-229 -9.569671646280e-229 2.765720683703e-229
9 1 4.777855764136e-03 4.996358340285e-03 1.751772870871e-03 -2.446335598396e-10 8.436972699618e-10 1.645540169339e-10 -1.700441630383e-07 5.303418286945e-07 -7.687231036957e-07 7.500000000000e-04 4.417864669111e-06 2.453075009313e-12 1.232826941801e-12 9.055123131530e-13
10 1 5.440008738761e-03 2.545225645924e-03 3.059132614122e-03 -1.052999703019e-09 6.881072342701e-10 5.457694582129e-10 7.049799145646e-07 -3.261115436627e-06 1.631657929769e-06 7.500000000000e-04 4.417864669111e-06 1.181265955040e-12 -5.405862771253e-13 -9.937813983245e-13
11 1 5.522972883718e-03 5.478530475685e-03 2.872468436919e-03 -2.025652214036e-10 4.688189598487e-10 6.336271405077e-11 -1.470806683931e-07 -7.413570499883e-07 -5.707179293738e-07 7.500000000000e-04 4.417864669111e-06 -8.133968513465e-13 -1.940463455928e-12 -6.590278792381e-13
12 1 3.555398288157e-03 4.967062702584e-03 2.453449556951e-03 -1.783017867126e-10 4.692715376366e-11 1.399122089888e-10 1.545855453630e-06 -6.108350703042e-07 1.240474418920e-06 7.500000000000e-04 4.417864669111e-06 2.475576066658e-12 4.180323479767e-12 1.033601954706e-12
13 1 2.284666405160e-03 7.789190085315e-04 7.290974379762e-04 3.454274208538e-10 8.811791397189e-10 -2.962930492081e-11 1.081926127568e-06 -5.301013118780e-07 4.628143812529e-07 7.500000000000e-04 4.417864669111e-06 -2.323215085770e-13 -1.622653892701e-12 -2.520827074316e-13
14 1 2.750210571472e-03 3.693045972728e-03 3.450476356154e-03 -8.647041161295e-10 5.287731303769e-10 5.716312668501e-10 -9.689125472776e-07 2.632766451205e-06 -2.488890838877e-08 7.500000000000e-04 4.417864669111e-06 4.951883904957e-13 -1.676478730794e-12 -7.817758687962e-13
15 1 6.227610189754e-03 8.938455870181e-03 4.219571350067e-03 -2.229902806540e-10 5.079446853306e-10 3.251154443322e-11 -6.613578310543e-08 -4.253317889502e-08 -1.563914302148e-07 7.500000000000e-04 4.417864669111e-06 1.540356142697e-13 -6.496630488744e-13 -3.259874779228e-15
16 1 4.969165050827e-03 5.416913545028e-03 7.750625995433e-03 -3.857585940990e-10 2.700549045637e-10 -7.819169328746e-11 7.781202157277e-08 2.079319705634e-07 -4.287558523786e-09 7.500000000000e-04 4.417864669111e-06 9.127489175657e-13 -6.570346176793e-13 3.039910221991e-13
17 1 4.164866823779e-03 7.339883399180e-03 7.816371212653e-04 -3.362425418548e-10 3.297263247036e-10 -4.247652111215e-11 6.543966509818e-07 4.905204922800e-07 -7.969648902955e-07 7.500000000000e-04 4.417864669111e-06 -1.302831719590e-13 5.070824703121e-13 -8.417044114091e-13
18 1 3.837065960654e-03 2.787557213377e-03 2.959345418527e-03 -8.602610383945e-10 5.482395397918e-10 -9.339054351412e-10 2.784350531312e-07 -1.078901210907e-07 -1.021588152244e-06 7.500000000000e-04 4.417864669111e-06 1.823645580258e-12 9.450207039459e-13 2.774035593942e-12
19 1 8.240987919242e-04 1.865060906606e-03 3.456226888081e-03 -1.247536315700e-10 -1.392707227172e-10 -8.840465435305e-11 5.622869726589e-07 1.032829753567e-06 -8.919082118548e-08 7.500000000000e-04 4.417864669111e-06 -2.268511311733e-13 -2.682219509854e-13 -4.831149931316e-14
20 1 4.623016156464e-03 5.476434274342e-03 6.302450768254e-03 -4.213697405977e-10 1.984785970282e-10 -3.019986115800e-10 -8.718200446722e-08 -2.595509023040e-07 4.227848921959e-07 7.500000000000e-04 4.417864669111e-06 5.994979083770e-13 -1.729902863091e-13 9.653533432239e-13
21 1 2.436759124902e-03 6.661035207055e-03 5.893037745202e-03 -1.131380159633e-10 1.885913539138e-10 1.774520046495e-10 -3.934291419410e-08 -3.659802899545e-09 2.998562703536e-07 7.500000000000e-04 4.417864669111e-06 -4.813550515015e-14 -6.871071769816e-14 -6.551608040330e-13
22 1 5.657632236394e-03 3.053066339336e-03 4.371992413759e-03 -1.438861481204e-09 4.792328600743e-10 6.691089462683e-10 -1.500688202564e-07 3.301677196023e-06 -3.647884215387e-07 7.500000000000e-04 4.417864669111e-06 1.591410558931e-12 -9.052806269688e-13 -2.280853784533e-13
23 1 3.093811632218e-03 2.001064821653e-03 6.996107317739e-04 8.683191613611e-10 3.762402657567e-10 -5.059682049230e-11 -5.554634665401e-07 1.300928315458e-06 -1.330637173286e-06 7.500000000000e-04 4.417864669111e-06 8.013879238932e-14 -9.770336228725e-13 -6.087738509353e-13
24 1 1.678412927266e-03 4.949247914107e-03 1.986541562265e-03 8.789829538596e-11 1.075595599311e-10 5.165003521260e-10 -1.073365719639e-06 -2.540401845338e-07 1.498449580550e-07 7.500000000000e-04 4.417864669111e-06 -1.105035582682e-12 -1.796692795513e-12 -1.379928708863e-12
25 1 4.730020142275e-03 5.998592200130e-03 7.089604539656e-04 -3.332013000460e-10 3.996922905546e-10 -1.073419439773e-10 -5.315285409988e-07 -4.497717264234e-07 8.386877239828e-07 7.500000000000e-04 4.417864669111e-06 2.149495785984e-12 1.168419093997e-12 1.075690547370e-12
26 1 2.407080686516e-03 3.294712889609e-03 7.141526904684e-04 -4.109276222401e-10 -9.754196618933e-11 -7.415270295091e-11 3.215714361675e-08 -4.559100124388e-07 3.120172198975e-06 7.500000000000e-04 4.417864669111e-06 -5.583588160673e-13 -2.347927667215e-12 -4.204420089925e-13
27 1 6.202471620743e-03 3.749949083062e-03 2.746724187372e-03 -6.855415403523e-10 7.936028575514e-10 9.254443119898e-10 -1.022139545919e-06 1.271636141135e-06 -1.639151791525e-06 7.500000000000e-04 4.417864669111e-06 9.317737980602e-13 -1.458446330473e-12 -1.609985068414e-12
28 1 4.584513549386e-03 1.110276967727e-03 5.666010017459e-03 -2.744924817123e-10 2.442559141864e-10 1.878346730621e-11 -1.486446273904e-07 -9.429649364082e-08 2.120357410612e-07 7.500000000000e-04 4.417864669111e-06 1.761300698137e-13 -5.232299596039e-13 -1.664403814864e-13
29 1 2.698305565654e-03 3.945465985204e-03 1.983236821052e-03 3.176014366301e-12 -2.098476396407e-11 -2.355013323873e-10 5.487200209399e-07 2.335032397591e-06 -2.491833194882e-07 7.500000000000e-04 4.417864669111e-06 -3.424684662984e-13 -1.399479168919e-12 -4.342065709657e-13
30 1 5.976424443546e-03 4.339711120469e-03 4.904763196818e-03 -2.613239223348e-10 3.907348884407e-10 -1.937107895500e-11 4.670880749742e-09 -1.867600044315e-08 -6.310559005587e-09 7.500000000000e-04 4.417864669111e-06 -2.860676733851e-13 -2.299702939576e-13 8.628386441104e-14
31 1 4.453105748507e-03 6.047759355291e-03 4.742118592775e-03 -1.014074207922e-10 1.490867512243e-10 -3.582354544696e-10 1.983771219617e-07 -1.514903791120e-07 5.049071367607e-07 7.500000000000e-04 4.417864669111e-06 2.179231844219e-13 -2.275036632230e-13 1.177857941305e-12
32 1 3.253067132375e-03 2.931174910632e-03 5.938217242914e-03 -5.930065487016e-08 -1.121435009040e-08 1.993267933716e-08 -1.463807451403e+03 -2.768790799998e+02 4.920859336079e+02 7.500000000000e-04 4.417864669111e-06 5.419927778537e-11 1.023182220650e-11 -1.823831060582e-11
33 1 4.042943436390e-03 4.224727737276e-03 6.886853262255e-03 -3.295901858280e-11 1.120789512467e-10 -2.026557478662e-10 -1.198392159236e-06 -2.104409661442e-06 1.285795495123e-06 7.500000000000e-04 4.417864669111e-06 8.939427786898e-15 -2.917255161259e-13 8.625115610432e-14
34 1 5.630957526356e-03 6.497159617976e-03 3.898486003091e-03 -2.009920322499e-10 4.365649856492e-10 3.849063437729e-11 1.310599597987e-07 5.114397196264e-08 -1.276681065806e-07 7.500000000000e-04 4.417864669111e-06 -1.644531801480e-12 -1.263346147379e-12 -3.890458226673e-13
35 1 2.189295967494e-03 1.454848668185e-03 3.784739892445e-03 -1.766709023352e-10 1.547520950186e-10 -1.839598370556e-10 -7.659297226305e-07 -8.930269158852e-07 5.160799647707e-07 7.500000000000e-04 4.417864669111e-06 -1.836001812589e-14 1.965885877769e-13 1.341455501876e-13
36 1 4.648249216624e-03 1.365762814295e-03 6.987956035358e-04 3.638285570549e-10 7.272055524732e-10 1.218987494381e-10 -8.371152419757e-07 5.409948264071e-07 -2.419426436678e-07 7.500000000000e-04 4.417864669111e-06 -6.500365606625e-13 -1.235988313541e-12 -7.036569947246e-13
37 1 4.549737056555e-03 4.634049842884e-03 5.143725142306e-03 -5.088184993104e-10 7.779820670721e-11 -3.544927940368e-10 -1.099122226115e-07 -1.286537483122e-06 -2.741218720640e-06 7.500000000000e-04 4.417864669111e-06 -1.360926811685e-13 6.778105122155e-13 1.292279637661e-12
38 1 4.805840640800e-03 3.667195090889e-03 2.332137873372e-03 -3.820190386350e-10 8.426269315716e-10 2.632895766382e-10 1.555927081972e-07 -2.099488912504e-06 1.340841994697e-06 7.500000000000e-04 4.417864669111e-06 4.402647356280e-13 -6.350521325025e-13 -6.203881678146e-14
39 1 4.070411567073e-03 4.184491509821e-03 7.183926994185e-04 7.583059375422e-12 1.059564309867e-09 -5.955823567069e-11 7.112748059331e-07 -6.272220816966e-07 1.151350533756e-06 7.500000000000e-04 4.417864669111e-06 -9.597182253343e-13 1.511256662222e-14 2.307592276662e-13
40 1 2.581104135649e-03 3.470242773197e-03 7.191034235449e-03 -2.315577069238e-10 4.509670005520e-10 -1.676031909688e-10 -1.925471035986e-07 -1.800348436953e-07 -9.303605054534e-08 7.500000000000e-04 4.417864669111e-06 1.504826633597e-13 -1.010587960613e-12 3.038935213288e-13
41 1 4.044443228720e-03 3.540331413307e-03 4.157285680131e-03 -1.026419968900e-11 -5.788535340416e-11 -6.266932763804e-10 3.854871518316e-07 -2.349302039325e-07 -1.465872814213e-06 7.500000000000e-04 4.417864669111e-06 -1.669831001260e-12 -2.488453187856e-12 -6.568379729581e-13
42 1 3.151730260662e-03 4.286726220555e-03 5.009698536327e-03 -5.051911224091e-10 1.039687237559e-10 -9.779473934852e-10 -1.498709837721e-06 1.765112550049e-07 2.463589473705e-06 7.500000000000e-04 4.417864669111e-06 3.509716997729e-13 -2.280576616275e-14 1.810469116799e-12
43 1 9.913520720971e-04 3.743107396190e-03 7.326498791940e-04 -2.874897004788e-10 1.636316125076e-09 4.565542770161e-10 -9.466156974348e-07 1.524482318911e-06 -5.402723692253e-06 7.500000000000e-04 4.417864669111e-06 2.022006543022e-13 -2.347072191084e-12 -1.040250455635e-12
44 1 2.548969123424e-03 5.279527668363e-03 5.941208743167e-03 3.422334239545e-10 5.510679317346e-11 -1.870749790307e-10 5.666748445655e-07 -6.146671224959e-07 3.079973297537e-07 7.500000000000e-04 4.417864669111e-06 2.251186046418e-13 2.745282572664e-14 8.643957307486e-13
45 1 1.091191680763e-03 4.392395993003e-03 6.858987317176e-03 3.450439517270e-10 2.513379802991e-10 4.035049831811e-11 2.240431321286e-07 7.053522274645e-07 9.144450040089e-07 7.500000000000e-04 4.417864669111e-06 -6.865853079794e-13 -3.193710030747e-13 -4.066512344142e-13
46 1 2.350102801745e-03 5.126645088001e-03 3.318740336353e-03 -2.557445673208e-10 1.241827220837e-10 -1.142052724910e-10 -1.150851441060e-06 4.482627352201e-07 -9.755330978961e-07 7.500000000000e-04 4.417864669111e-06 2.292814257080e-13 8.298570881884e-13 7.032818775222e-13
47 1 4.983720730834e-03 2.361588696557e-03 1.680841723648e-03 1.037871047243e-09 1.143846559471e-09 -7.659536260401e-11 3.711805473843e-07 4.453268417691e-07 -4.295069320210e-08 7.500000000000e-04 4.417864669111e-06 -1.100571958743e-12 -1.056229809144e-12 -1.319224291024e-13
48 1 5.056612956170e-03 4.488708994997e-03 3.792423650126e-03 -2.143885194397e-11 9.626561535427e-11 -1.993061870783e-10 5.424208342560e-07 3.482582026536e-07 1.367429303116e-06 7.500000000000e-04 4.417864669111e-06 3.277749007791e-13 1.694339741283e-14 -1.754134008919e-12
49 1 4.590232084742e-03 2.072437149796e-03 4.536370210308e-03 -1.116247868445e-09 1.608931731076e-10 1.929431231406e-10 1.469179146924e-06 -2.926942746473e-06 7.887277821589e-07 7.500000000000e-04 4.417864669111e-06 3.729501088404e-12 1.003004623399e-12 -2.596266309824e-13
50 1 3.732464817089e-03 5.102320048884e-03 3.872278143654e-03 -3.124711115903e-10 -3.170486575410e-10 2.395936320563e-10 -1.107712253692e-06 5.266130972396e-07 -5.546243719369e-07 7.500000000000e-04 4.417864669111e-06 4.584169274878e-13 2.312365632266e-12 -3.591383377755e-13
51 1 4.652562240483e-03 3.195889313023e-03 5.467751092947e-03 -2.137658195821e-09 5.247000314209e-11 5.009282686635e-10 -9.627165348754e-07 2.423304793896e-06 2.754385338167e-07 7.500000000000e-04 4.417864669111e-06 1.992220107613e-12 -1.668551890882e-13 -1.486425829719e-13
52 1 1.454146534586e-03 4.165318919634e-03 4.009862937508e-03 -6.982966144403e-10 1.005652118501e-09 7.748850251076e-10 -1.487766616101e-06 -1.421540192606e-06 6.854795917974e-07 7.500000000000e-04 4.417864669111e-06 4.315128540073e-13 -1.182711790614e-12 -1.006633923180e-12
53 1 6.761954294892e-03 3.276245219558e-03 5.416743418310e-03 -2.719274097157e-10 3.732326807909e-10 1.548652991846e-11 -3.182867906571e-08 -1.662264135593e-07 -6.799747031922e-09 7.500000000000e-04 4.417864669111e-06 -2.365286011970e-14 -5.808637071791e-13 -2.409376039701e-14
54 1 5.667887579529e-03 7.844111740797e-03 3.486404115033e-03 -1.680918003323e-10 4.251441469263e-10 9.090419573858e-11 -1.229454710426e-07 -1.469120326482e-07 9.948516885311e-08 7.500000000000e-04 4.417864669111e-06 -2.418723714695e-14 -8.185597462648e-13 -3.887052216704e-13
55 1 3.190552061584e-03 2.364710491592e-03 4.258496228172e-03 -6.785519937551e-10 6.113650944192e-10 -6.268261818097e-10 -2.218862346215e-08 8.030358505497e-07 1.626387807307e-07 7.500000000000e-04 4.417864669111e-06 1.469214280781e-12 -2.500021699756e-13 2.355208911261e-13
56 1 3.708679715354e-03 3.031563177488e-03 1.536883416291e-03 5.268528949091e-10 5.243916333265e-10 -7.589328220432e-10 -3.497528675072e-07 -1.644023686049e-06 1.286635527548e-06 7.500000000000e-04 4.417864669111e-06 -1.226146859382e-12 -1.831766870120e-12 -1.135545044406e-12
57 1 2.959124439624e-03 5.979862432914e-03 4.720503901971e-03 7.176403903060e-11 3.350910991134e-10 7.401120495609e-11 -1.418651249937e-07 3.958959286346e-07 5.137150822662e-07 7.500000000000e-04 4.417864669111e-06 1.847478309391e-13 -7.878536914774e-13 3.989466271559e-13
58 1 2.074755161983e-03 3.951699229461e-03 5.900284685973e-03 -3.118233584291e-11 1.907220112057e-10 -3.502020915294e-10 -5.192968511228e-07 2.020016166959e-07 -8.293616601327e-07 7.500000000000e-04 4.417864669111e-06 -3.510130334693e-14 -4.634698182640e-13 7.577216976693e-13
59 1 1.070844093832e-03 3.406100141686e-03 7.879224739756e-03 -4.569761021914e-10 2.037935729936e-10 1.518257986934e-10 -2.739439061762e-07 -1.937373070161e-06 -1.170808676581e-06 7.500000000000e-04 4.417864669111e-06 8.751970636530e-13 -4.305122055626e-13 1.690786525377e-13
60 1 2.608806474149e-03 5.815590909667e-03 1.136145669928e-02 -5.498964667003e-10 4.735345347813e-10 -6.241905235539e-11 -5.221366937265e-07 -3.069185031246e-07 -3.121960909739e-07 7.500000000000e-04 4.417864669111e-06 -1.057902559836e-12 -5.181471839327e-13 -2.518875474833e-13
61 1 3.859552919965e-03 2.575916136465e-03 1.369506302043e-02 -4.777670299987e-10 1.856710456378e-09 6.122353674841e-10 -2.081118749587e-06 -5.774899936669e-09 2.699341951274e-06 7.500000000000e-04 4.417864669111e-06 -1.815184064335e-12 -4.209652719293e-12 -1.280053003376e-12
62 1 2.497110060313e-03 4.571531002571e-03 9.726318796595e-03 -4.717990792224e-10 5.262300811032e-10 -3.098716903114e-11 -9.398762605423e-08 -4.004895021364e-09 2.916663849259e-07 7.500000000000e-04 4.417864669111e-06 1.098928483891e-12 -1.527287504090e-13 -1.426062414261e-13
63 1 6.545317489117e-03 1.185595372577e-03 1.038442208554e-02 -6.439614743530e-10 6.590842915721e-10 1.894710208679e-10 4.027775233980e-07 6.384523457115e-07 4.531389634789e-07 7.500000000000e-04 4.417864669111e-06 1.173016884338e-12 1.294635644451e-12 -8.730653938779e-13
64 1 2.812553718871e-03 4.361018818588e-03 1.139744034465e-02 -7.386894130340e-10 5.231379073802e-10 2.457688909370e-10 2.333524903171e-07 -4.393813599594e-07 2.412683501837e-07 7.500000000000e-04 4.417864669111e-06 -3.462548505610e-13 -7.197477344622e-13 -4.271328366284e-13
65 1 1.259301226178e-03 5.948234398933e-03 1.219839636165e-02 -6.679074882077e-10 5.640432613410e-10 -2.375487369119e-10 -3.822763430752e-07 2.641396322659e-07 2.983897554636e-07 7.500000000000e-04 4.417864669111e-06 -2.191452530043e-13 -6.552662826123e-13 -1.416596948898e-14
66 1 5.193925074981e-03 2.412091132812e-03 8.486004723662e-03 -2.906332033139e-10 4.980677380603e-10 4.235947068428e-11 1.227923817489e-07 -4.096781225698e-08 -1.190831945794e-07 7.500000000000e-04 4.417864669111e-06 8.490350049624e-13 -1.730706886820e-12 4.612100068729e-14
67 1 4.714550702535e-03 2.199075075492e-03 1.472842809006e-02 -5.188240367504e-10 1.008126264468e-09 4.238695924736e-10 1.569539955421e-06 5.240535178315e-07 -5.139474375505e-06 7.500000000000e-04 4.417864669111e-06 -1.735295492557e-13 -2.622466883550e-13 -1.523097297952e-12
68 1 2.952148669000e-03 2.207013347097e-03 9.591014481037e-03 -4.635040739338e-10 4.303471211390e-10 -4.929560668304e-11 -1.618755342660e-08 1.807551879011e-08 -7.965146747747e-08 7.500000000000e-04 4.417864669111e-06 2.393902464861e-13 -7.427803685333e-13 -3.122870596509e-13
69 1 3.627848850081e-03 5.627553281309e-03 1.462063985738e-02 -8.376923322316e-07 1.010429158915e-07 -4.460671502565e-07 -1.421107125397e-04 -1.178887671259e-03 -6.976562105511e-06 7.500000000000e-04 4.417864669111e-06 4.647454195560e-10 -5.602211337117e-11 2.465678254625e-10
70 1 1.738109246344e-03 3.209702397700e-03 1.469560382593e-02 1.714455611039e-10 1.830674621331e-10 2.596950926280e-10 5.163849955025e-07 -3.787798216686e-07 -1.505457432126e-06 7.500000000000e-04 4.417864669111e-06 1.102456348576e-12 -5.163690194511e-13 1.909849364916e-12
71 1 5.425959293544e-03 2.023067130313e-03 1.194053011260e-02 -7.946668309986e-10 1.029386452327e-09 3.616955347712e-10 2.816082831380e-07 -4.964626766771e-07 1.154078395136e-07 7.500000000000e-04 4.417864669111e-06 2.159414337430e-12 -1.976661798326e-13 1.202387000775e-12
72 1 5.381232131177e-03 5.726771526591e-03 1.054218957184e-02 -7.957296062006e-10 3.302421187151e-10 -2.159873419518e-10 1.882683026103e-07 -1.586857885202e-06 -1.107758416432e-07 7.500000000000e-04 4.417864669111e-06 -4.804249632926e-13 -5.074276618759e-13 9.282605842033e-13
73 1 6.228561379949e-03 4.928058789465e-03 1.133768030417e-02 -1.039723549224e-09 4.512209219948e-10 3.494982798761e-10 -2.790403062937e-07 9.467184805253e-07 3.838458847817e-07 7.500000000000e-04 4.417864669111e-06 -2.050480639991e-12 9.988331391836e-13 1.830786823661e-12
74 1 3.872529976188e-03 3.088156948320e-03 7.848074352709e-03 -3.766243032955e-10 4.904401238835e-10 1.280264937079e-10 2.291017787557e-07 -2.431128267695e-07 8.102149756293e-08 7.500000000000e-04 4.417864669111e-06 6.102496105378e-13 -8.677347536613e-14 -5.599471047723e-13
75 1 1.950775532385e-03 6.154764153144e-03 8.837122730860e-03 -4.882865310480e-10 4.177822458638e-10 1.169273043817e-11 -2.641746125063e-07 2.033975097122e-07 3.219445630770e-09 7.500000000000e-04 4.417864669111e-06 1.210346774038e-12 2.953168375185e-13 -3.075343244439e-14
76 1 3.959758855312e-03 1.934665523728e-03 6.818954022744e-03 -3.339438754041e-09 4.092653693027e-08 2.155246854096e-08 2.704779563162e+03 -1.489902364106e+03 1.811756561961e+03 7.500000000000e-04 4.417864669111e-06 2.685260667983e-12 -3.290927181112e-11 -1.733046572489e-11
77 1 5.204606941018e-03 4.767699530031e-03 1.276168787956e-02 -5.738216084429e-09 1.919186936427e-10 2.940268066511e-09 5.074313359078e-06 -9.298838305605e-06 4.392576777811e-06 7.500000000000e-04 4.417864669111e-06 5.614373464937e-12 -3.564722901696e-12 -3.674332672364e-12
78 1 1.272521687339e-03 6.042887256643e-03 1.364572666898e-02 -5.728820648002e-10 2.364686941113e-10 -1.688181135348e-10 -1.459883253294e-07 9.010845387153e-07 1.073387794649e-06 7.500000000000e-04 4.417864669111e-06 -2.527547598137e-13 1.136547249034e-12 -5.085131192920e-13
79 1 5.639268105179e-03 4.301888844751e-03 1.023565913386e-02 -7.801209254688e-10 4.408892131321e-10 8.378015327834e-11 2.623874978038e-07 -1.013542658504e-06 3.517998730690e-07 7.500000000000e-04 4.417864669111e-06 -9.404379409185e-13 -1.164149529783e-13 2.999447240027e-13
80 1 2.640217131010e-03 3.351455165036e-03 1.247151480082e-02 -9.084700736683e-10 6.842727045195e-10 1.417371872963e-10 -4.644754700792e-07 -1.481096022882e-07 1.306571323866e-07 7.500000000000e-04 4.417864669111e-06 1.272806548316e-12 -1.688230586535e-12 5.480104291064e-13
81 1 3.506831174356e-03 7.294532931190e-03 1.151674743154e-02 -5.619976317460e-10 6.703522740065e-10 -2.253042258072e-10 -3.634737371969e-07 2.624219117779e-07 1.714486050608e-07 7.500000000000e-04 4.417864669111e-06 1.079605974424e-12 -1.717700535557e-12 -9.653585014810e-13
82 1 4.564915663374e-03 6.918281567329e-03 8.162021094675e-03 -5.234836483503e-10 5.089231832666e-10 -1.892559810091e-11 1.701487469053e-08 -3.192056610641e-07 -2.616012376493e-07 7.500000000000e-04 4.417864669111e-06 1.402933983136e-12 1.843979812555e-12 -2.734516876318e-12
83 1 6.439928331638e-03 6.735199158987e-03 1.044164725218e-02 -5.756545852483e-10 3.705365866333e-10 1.927423381039e-10 -1.911231820707e-07 2.255296121525e-07 -1.982701629128e-09 7.500000000000e-04 4.417864669111e-06 1.746718164709e-13 -1.234238354576e-13 1.568282194408e-13
84 1 9.349314724113e-04 2.871763402298e-03 1.302334543201e-02 8.914251652824e-11 5.606171847995e-10 -1.627142297342e-10 -6.585177130396e-08 3.929661315999e-07 5.672329390316e-08 7.500000000000e-04 4.417864669111e-06 -3.807795708975e-12 -1.405052775087e-12 -6.168712165137e-12
85 1 4.814824946519e-03 5.919636407233e-03 9.197234960863e-03 -3.721511220602e-10 4.678940740995e-10 -2.462199253030e-10 1.871092685375e-07 7.433684869761e-07 3.731727022355e-07 7.500000000000e-04 4.417864669111e-06 1.753531187212e-12 -3.805502037622e-12 3.011351010832e-12
86 1 4.978507625536e-03 5.464680049979e-03 1.398883867080e-02 -5.155966957047e-09 -2.869592676977e-09 8.374098948074e-09 -6.442302372659e-07 1.942983336104e-05 3.189732944756e-06 7.500000000000e-04 4.417864669111e-06 3.145343815645e-12 5.010375929251e-12 -9.970864989042e-12
87 1 1.588260003162e-04 4.019231011993e-03 1.310612864177e-02 -3.045881032109e-10 3.577662827507e-10 -3.362420719617e-11 -6.030803837919e-08 -5.504349010370e-08 5.452225170631e-07 7.500000000000e-04 4.417864669111e-06 1.519728292111e-12 -9.665519186166e-13 1.152020806315e-12
88 1 2.637141026345e-03 3.433435467294e-03 8.827584928902e-03 -4.991980668073e-10 4.945225855908e-10 1.291309499530e-11 6.836082438027e-08 -4.255581436498e-08 1.107667972926e-07 7.500000000000e-04 4.417864669111e-06 2.702872573324e-13 -2.842380103133e-13 2.590385342711e-14
89 1 2.082099447731e-03 3.251749751410e-03 1.017653998289e-02 -3.766820697288e-10 5.421519221485e-10 5.183488634204e-11 -3.209810683077e-08 1.657729331717e-07 -2.003427108697e-07 7.500000000000e-04 4.417864669111e-06 8.388454667238e-13 -5.071085671257e-13 1.875359731825e-14
90 1 3.942213972339e-03 1.697230252263e-03 8.351739801716e-03 -3.645422760582e-10 5.145213998464e-10 -2.688039355647e-11 -1.787018390751e-08 -1.109180980046e-08 3.739107432170e-08 7.500000000000e-04 4.417864669111e-06 1.218117480106e-12 -1.898551853914e-12 -1.988796575329e-13
91 1 1.490270478695e-03 3.776525734003e-03 1.171249144884e-02 -7.020767384066e-10 4.141628009197e-10 -5.139365300957e-11 -8.530651468130e-08 -4.404643730218e-08 -5.772697201958e-08 7.500000000000e-04 4.417864669111e-06 -1.644623976817e-13 -1.068725829839e-12 3.670376555065e-14
92 1 1.638262398365e-03 4.853132074429e-03 1.085088325075e-02 -5.775035740530e-10 4.099788510029e-10 -2.371312665202e-11 5.862939563991e-08 -1.173170114302e-07 -2.719808841119e-09 7.500000000000e-04 4.417864669111e-06 -3.583293489019e-14 -7.773747576522e-13 2.396440339640e-13
93 1 1.823441868048e-03 4.291898443888e-03 1.324726080110e-02 -3.106966825905e-10 4.145259616830e-10 3.293149165286e-10 2.661078081165e-06 -1.312335464029e-06 -2.065931748053e-06 7.500000000000e-04 4.417864669111e-06 1.691486287448e-12 -2.803601053567e-13 3.311718947388e-14
94 1 5.783353278060e-03 3.705905513541e-03 1.203088849668e-02 -8.341509444072e-10 1.311916362649e-09 1.298496720489e-09 5.456063174757e-07 -4.356300764486e-07 -1.304485707586e-06 7.500000000000e-04 4.417864669111e-06 -2.623580621448e-12 1.679156281890e-12 1.594406568875e-12
95 1 2.965576289206e-03 3.893890764764e-03 1.435854260229e-02 -1.321975826695e-09 2.162487748089e-09 4.696423103447e-10 -3.020893662335e-06 -6.324722699563e-07 5.702130061644e-06 7.500000000000e-04 4.417864669111e-06 3.388402244990e-13 -5.397500130648e-13 -1.846447765070e-14
96 1 5.094186024102e-03 1.313541676524e-03 7.578743983921e-03 -3.673168567013e-10 4.582175384601e-10 1.825112875138e-11 -1.737574958316e-07 2.995801792838e-08 -3.073965538787e-08 7.500000000000e-04 4.417864669111e-06 -4.624979881787e-14 -6.534761897378e-13 -1.312095371980e-13
97 1 3.171038162898e-03 5.872199232838e-03 9.989652474444e-03 -2.793329581509e-10 2.288188663664e-10 3.576107766033e-11 3.916970510731e-07 1.967392674676e-08 -6.321364302502e-07 7.500000000000e-04 4.417864669111e-06 3.378366036108e-13 -4.890110294778e-13 1.363703740620e-13
98 1 3.449049847432e-03 6.122021254861e-03 8.555440897110e-03 -4.540844293806e-10 4.480590732178e-10 -2.177015648727e-11 3.982437319979e-08 2.748251341972e-07 2.644603703628e-07 7.500000000000e-04 4.417864669111e-06 1.696335126716e-12 1.029580960715e-13 -1.540444778103e-12
99 1 3.735808765950e-03 6.467518061890e-03 6.715893800791e-03 -4.792856174496e-10 1.805644100802e-10 -1.375389853126e-10 2.651988530177e-07 3.347449732684e-07 -3.870321042173e-07 7.500000000000e-04 4.417864669111e-06 4.087218011376e-13 -4.434233606043e-13 -3.604771367088e-15
100 1 4.364097604296e-03 4.277500942579e-03 1.464998790314e-02 -3.993227426952e-10 7.251000092363e-10 2.439727537201e-09 4.108874177309e-06 -1.003448348638e-06 -7.484378846662e-06 7.500000000000e-04 4.417864669111e-06 -1.227630836401e-12 -3.069388286695e-13 -2.293867597590e-13
101 2 1.834507314397e-03 2.180471370405e-03 1.147434328692e-02 -4.277756942832e-10 5.147905364936e-10 2.462922831842e-11 8.972704712270e-08 -2.616762050749e-07 2.470032661054e-07 1.000000000000e-03 1.047197551197e-05 -1.241516568406e-12 -1.959871264364e-12 -1.764612295433e-12
102 2 5.625620449659e-03 3.985886084940e-03 8.659388838133e-03 -3.868179074943e-10 5.117784899939e-10 -8.125598890979e-12 -8.139128090014e-08 3.312720968855e-07 2.153733722143e-07 1.000000000000e-03 1.047197551197e-05 4.458024243874e-13 -8.954820912018e-13 1.597903229669e-12
103 2 4.409428254616e-03 4.671881472916e-03 1.125465677861e-02 -9.342028722656e-10 7.305962542953e-10 -2.365591121887e-10 -1.041127921781e-06 6.571282408061e-07 7.944836166338e-08 1.000000000000e-03 1.047197551197e-05 -5.122272667984e-13 -4.938977080778e-12 -8.367407998700e-13
104 2 3.508815938079e-03 4.790137187202e-03 1.301786869605e-02 -4.571850763195e-09 5.608580313165e-10 -1.429522643995e-09 4.336510373863e-07 3.229327572515e-06 -3.721171851396e-06 1.000000000000e-03 1.047197551197e-05 8.368736006959e-12 -2.818786785699e-12 1.964095680503e-12
105 2 2.525363833209e-03 5.084353648592e-03 7.597503432332e-03 -4.033165168885e-10 4.633611721789e-10 -7.083570408766e-11 2.272955036272e-07 -4.622719751622e-08 2.060625774095e-07 1.000000000000e-03 1.047197551197e-05 2.322581029180e-12 -2.776336984540e-12 -8.809005449267e-13
106 2 4.254121519209e-03 3.101144112633e-03 1.219449234113e-02 -9.367651074516e-10 1.138860892257e-09 3.736877343264e-10 3.216301264660e-07 -2.566457981864e-07 1.603159206223e-07 1.000000000000e-03 1.047197551197e-05 2.350363653806e-13 -6.358845890931e-12 -6.766596534539e-13
107 2 6.047916740838e-03 2.772995757304e-03 1.064561742776e-02 -7.107343337434e-10 7.651608982460e-10 4.604741193542e-10 -3.889874844076e-07 9.508077606347e-08 -1.168437552320e-07 1.000000000000e-03 1.047197551197e-05 2.506593370275e-12 1.901006715868e-12 -4.150745996287e-13
108 2 2.275241908873e-03 2.121951146716e-03 1.355122077718e-02 -1.095175706321e-10 1.602655700569e-10 1.436445859463e-10 1.438102128105e-07 -7.021554505681e-07 -4.108472474760e-07 1.000000000000e-03 1.047197551197e-05 5.359685807502e-12 9.752194363570e-13 4.707451004069e-12
109 2 4.567024114971e-03 6.267443158960e-03 1.224962795451e-02 -1.271031554503e-09 3.157930215134e-10 -4.118762904098e-10 1.381210322172e-06 -1.257926095838e-06 -4.151282693911e-07 1.000000000000e-03 1.047197551197e-05 3.565841256709e-12 -8.339084232245e-12 -2.270333486169e-12
110 2 3.881127038811e-03 4.552553029111e-03 8.773226864011e-03 -4.385759605666e-10 4.615449296705e-10 9.518343608749e-11 -2.120304289924e-07 -1.286814709838e-07 -1.687969034991e-07 1.000000000000e-03 1.047197551197e-05 1.220340824244e-12 -1.076358188435e-12 -1.020060841233e-12
111 2 5.455494279224e-03 3.111695195835e-03 6.969435426363e-03 -5.583411613437e-10 5.160609597918e-10 -1.200320801620e-10 1.228416821560e-07 -1.623754689113e-07 -2.285361821154e-07 1.000000000000e-03 1.047197551197e-05 8.565927962888e-13 -1.857443706184e-12 2.301056927762e-12
112 2 4.263603391272e-03 3.175510479364e-03 1.003358157554e-02 -6.726590250338e-10 4.675204466791e-10 2.294555990917e-10 2.945629424699e-07 -3.089395564972e-07 3.321627091831e-07 1.000000000000e-03 1.047197551197e-05 9.308824425504e-13 -2.407984205878e-12 -4.167015915169e-13
113 2 2.393337733240e-03 2.023516416065e-03 7.973184332876e-03 -3.772463624688e-10 4.734559610758e-10 -9.991636309908e-11 3.947784611852e-08 -6.907216266374e-08 2.764408826801e-08 1.000000000000e-03 1.047197551197e-05 8.683925514755e-13 -4.143109815589e-13 -2.148566648639e-14
114 2 4.769832749275e-03 7.188390158418e-03 1.037262905013e-02 -5.155066176121e-10 4.344503249042e-10 -2.215520676892e-10 2.638774323734e-07 -1.596459053760e-07 -1.139880361042e-07 1.000000000000e-03 1.047197551197e-05 7.100086244285e-13 -1.867671715602e-14 8.094170854391e-14
115 2 2.591321552201e-03 1.439063397266e-02 5.807115838369e-03 -2.560381412912e-10 2.791553414491e-10 -7.951290253014e-11 -1.170921420241e-07 1.287385153265e-08 2.501662766429e-08 1.000000000000e-03 1.047197551197e-05 -7.314577724381e-13 -2.357065336917e-13 -5.616590886157e-13
116 2 3.289027371750e-03 1.309532713930e-02 3.972428963179e-03 -2.103329850547e-10 1.858367885649e-10 -4.156746029695e-11 -1.291094215439e-07 4.373855986406e-08 -1.409995560311e-07 1.000000000000e-03 1.047197551197e-05 -1.422542640339e-12 -1.086324595499e-12 2.290650133606e-12
117 2 5.010163340941e-03 1.135934473091e-02 7.140110104868e-03 -3.231875760989e-10 4.681643512412e-10 1.555642535091e-11 -6.875364217039e-08 -7.618692946435e-08 -8.456628383814e-08 1.000000000000e-03 1.047197551197e-05 2.130719633231e-12 -2.565853539198e-12 -5.002981882506e-13
118 2 2.283038610096e-03 8.033885494417e-03 8.572055619227e-04 -4.987457470899e-11 4.682854694479e-11 4.209986084036e-11 -3.884570241009e-08 -3.734916129591e-08 1.852602935642e-07 1.000000000000e-03 1.047197551197e-05 -1.039302771068e-13 -7.894622174982e-14 7.332436457787e-14
119 2 3.350473993476e-03 1.054675969173e-02 2.249639741683e-03 -1.092632358670e-10 2.040224536696e-10 -6.223426388721e-11 -1.882397401639e-07 -1.254193247204e-07 1.257223919312e-07 1.000000000000e-03 1.047197551197e-05 -1.957741228945e-12 3.323196270475e-13 -2.262531167643e-12
120 2 5.425346957875e-03 5.871882836133e-04 4.296817299120e-03 -3.447231227539e-10 4.498344185870e-10 -5.709741329032e-11 2.671062631059e-07 1.927754617257e-07 -1.250305698058e-08 1.000000000000e-03 1.047197551197e-05 4.334808384007e-13 -9.026800867830e-13 6.278396115636e-13
121 2 2.946476122246e-03 1.278276980218e-02 6.872388028511e-03 -2.760085718633e-10 3.758876750652e-10 3.081506582636e-11 -5.113189315899e-11 -2.363990967912e-09 -3.624470935543e-09 1.000000000000e-03 1.047197551197e-05 9.955316390365e-13 -7.459307729494e-13 -5.242476425515e-13
122 2 4.329091737184e-03 1.161581027101e-02 9.394387198589e-04 -1.072769888764e-10 1.080376600794e-10 -4.715550968796e-11 -9.264918306023e-08 -1.150874603349e-07 8.133127381556e-08 1.000000000000e-03 1.047197551197e-05 6.638002294544e-13 -3.834956434503e-13 -3.397299027844e-13
123 2 6.201055775472e-03 1.422288358482e-02 4.889080499992e-03 -1.749007796638e-10 3.247092318571e-10 -1.278264562952e-10 -2.242914259188e-07 -9.424091807365e-08 3.950011742434e-08 1.000000000000e-03 1.047197551197e-05 7.583533806325e-13 4.070550629782e-13 7.821036318830e-13
124 2 4.303011213984e-03 1.447718613811e-02 4.814472270959e-03 -1.881385490778e-10 2.286975857873e-10 -1.249311013234e-10 6.305735116796e-08 6.585457684354e-08 1.136284416169e-07 1.000000000000e-03 1.047197551197e-05 -3.529550885216e-14 -3.495513881020e-13 1.076826885629e-12
125 2 6.040066237764e-03 1.448728285157e-02 2.961665500059e-03 -4.444592060386e-10 4.081155506870e-10 -2.381285510952e-10 3.237006899620e-07 3.637705800397e-07 1.110677858183e-07 1.000000000000e-03 1.047197551197e-05 1.446266445326e-12 -1.326663672479e-12 1.715122420135e-12
126 2 1.763097883958e-03 9.387569111051e-03 1.998616598038e-03 -1.283479261336e-10 1.428933820073e-10 -3.408512494133e-11 -1.218122097412e-07 -3.701516130821e-08 -1.197666106952e-07 1.000000000000e-03 1.047197551197e-05 6.657186434091e-13 -4.170556776632e-13 -1.171387897071e-12
127 2 3.569858323879e-03 9.420639063363e-03 5.006383628606e-03 -1.920481854783e-10 2.823905009025e-10 4.531159322186e-11 -1.574800418135e-08 -5.888818831998e-08 2.486946950766e-08 1.000000000000e-03 1.047197551197e-05 2.350505298808e-12 -1.398968029165e-12 1.496615929570e-12
128 2 7.519306636724e-03 1.194722972162e-02 2.568735330862e-03 -1.640659102509e-10 2.247451816268e-10 4.590021800005e-11 -8.591091592413e-08 4.971018402531e-09 4.342234425623e-08 1.000000000000e-03 1.047197551197e-05 3.234562983973e-13 -7.763182370632e-13 -8.483811506183e-13
129 2 2.161577434495e-03 9.301343511226e-03 7.205739814256e-03 -2.832830214528e-10 3.443025977851e-10 3.669956965191e-11 -3.054949599101e-08 -6.544156712717e-08 -1.197858689993e-08 1.000000000000e-03 1.047197551197e-05 1.197666370414e-12 -1.082566995821e-12 -1.307846358372e-12
130 2 5.902573407684e-03 2.136785496639e-04 8.360780666382e-04 8.061296186994e-11 3.012887396709e-10 9.216512413785e-11 -2.595913010631e-07 2.131953499362e-07 -3.475119312708e-07 1.000000000000e-03 1.047197551197e-05 -2.374114387241e-12 -3.598361809063e-13 1.957308930762e-12
131 2 1.728124740652e-03 6.363703748422e-04 2.356526806752e-03 1.774941013219e-10 -3.353305595567e-11 -2.018056808774e-10 2.571088017354e-07 2.934704025316e-07 -4.080965453124e-07 1.000000000000e-03 1.047197551197e-05 -2.396002264298e-12 1.205786906537e-12 1.401040231142e-12
132 2 1.676369458134e-03 9.291460944979e-03 5.350613703009e-03 -2.122471678502e-10 2.890211344133e-10 1.183081013205e-11 1.473879960752e-08 9.786423066421e-09 -3.488108299780e-09 1.000000000000e-03 1.047197551197e-05 8.196141440513e-13 -1.013735303998e-13 -1.146784146874e-12
133 2 2.591257719077e-03 7.799168631306e-03 2.744085928097e-03 -1.517794677506e-10 9.856130199635e-11 5.454176926610e-11 -2.111016841392e-08 -1.555106908320e-08 -3.360780835254e-07 1.000000000000e-03 1.047197551197e-05 4.166840351565e-13 -5.392927411304e-13 4.073014091867e-13
134 2 5.768029852944e-03 9.661736693334e-03 7.162837616610e-03 -3.510769177299e-10 3.917445307774e-10 8.840556433677e-11 6.728046418137e-08 -1.046517868869e-07 2.152256386014e-08 1.000000000000e-03 1.047197551197e-05 6.120300812857e-13 -1.198854621699e-12 3.445227439432e-13
135 2 7.207944137977e-03 1.034831475580e-02 8.610135079676e-04 -1.110047972261e-10 1.043972452691e-10 -2.231483200726e-11 -8.200774587678e-08 -9.508151608794e-08 -1.089501170662e-07 1.000000000000e-03 1.047197551197e-05 7.674054623259e-12 -8.197574652366e-12 -1.363085867018e-13
136 2 1.416375882350e-03 1.297336397851e-02 4.390200515388e-03 -1.941788018685e-10 3.363974586115e-10 -4.632310393970e-11 9.333115617299e-08 -5.268493972637e-08 -6.219083370826e-09 1.000000000000e-03 1.047197551197e-05 -1.344716730859e-12 4.192020961834e-13 -2.565550460001e-12
137 2 3.052711545628e-03 6.322049476541e-03 1.568151803018e-03 -7.692200693416e-11 6.683591051862e-11 9.189886774579e-12 -2.347262142595e-08 1.272758042568e-07 6.231001255516e-07 1.000000000000e-03 1.047197551197e-05 2.444304026161e-12 2.261748288922e-12 -2.011440146668e-13
138 2 2.126890651274e-03 1.166533096281e-02 3.234229770679e-03 -2.130954993938e-10 3.297770390419e-10 -1.896606391243e-10 -1.391305196555e-07 2.791382023522e-07 1.082295204896e-07 1.000000000000e-03 1.047197551197e-05 -9.124352099405e-13 3.345687842428e-12 -7.354688271075e-12
139 2 6.142516534005e-03 1.266450742195e-02 3.770026634726e-03 -2.016112328347e-10 2.573404442469e-10 -2.187950166760e-11 1.282565200219e-07 -4.852195211939e-08 -1.996685210076e-07 1.000000000000e-03 1.047197551197e-05 7.097499637553e-13 -1.556722724277e-12 2.270040968083e-14
140 2 3.197123440764e-03 7.051910411980e-04 5.015350536350e-03 -1.940499581872e-10 1.525974869971e-10 -7.415920614480e-11 1.136870942372e-08 -3.389336358671e-08 -1.193338702184e-07 1.000000000000e-03 1.047197551197e-05 -6.028284879105e-14 -7.151221897291e-13 7.214651240735e-13
141 2 1.527853479166e-02 7.610555641211e-03 9.555117524211e-04 -5.507023137131e-11 6.931288210714e-12 -3.638115973422e-11 4.245011736422e-08 -2.997919740223e-08 -1.250168374587e-07 1.000000000000e-03 1.047197551197e-05 9.803605304771e-13 -1.959672660163e-13 3.878643628052e-13
142 2 3.801795748222e-03 1.146153958301e-03 3.237683397105e-03 -5.415683162997e-11 5.348346328561e-10 -1.459233718689e-10 -1.080155857823e-06 3.259857559050e-07 1.487691653145e-06 1.000000000000e-03 1.047197551197e-05 -2.300900259514e-13 -5.639306967309e-13 2.958248451159e-12
143 2 9.340310487999e-04 6.032457361731e-03 7.133755796609e-03 -4.998165382414e-10 2.779731699453e-10 -5.564919317145e-11 3.306253249245e-08 -9.056328674894e-08 1.739979544449e-08 1.000000000000e-03 1.047197551197e-05 2.383780650551e-12 -1.382545692000e-12 -8.467611135520e-13
144 2 2.588864998274e-03 7.667114542127e-03 4.602230137908e-03 -2.306975624048e-10 1.918894396571e-10 8.776298226643e-11 -5.620834336376e-08 -3.162147510444e-08 -3.763823364582e-08 1.000000000000e-03 1.047197551197e-05 8.295615834255e-13 -4.702556755048e-13 1.604842389338e-13
145 2 5.850059255553e-04 1.245606760243e-02 2.515834029551e-03 -3.812301425659e-10 2.809506225049e-10 9.336780512464e-11 7.054250926224e-08 8.935360256253e-08 -8.992512729145e-08 1.000000000000e-03 1.047197551197e-05 -1.306888515584e-12 1.830582520928e-12 -4.364262345831e-12
146 2 2.517210728684e-03 7.156175384766e-03 7.610963731079e-03 -4.439110759115e-10 2.969788374484e-10 -4.031269694563e-11 1.640521519464e-09 -2.758686881521e-07 4.182603088123e-08 1.000000000000e-03 1.047197551197e-05 2.161842454122e-12 -9.823822918497e-14 -1.645095223726e-12
147 2 2.643535439965e-04 9.499749343559e-03 7.625311408325e-04 -3.582107477894e-11 3.704144274395e-11 1.474237641069e-11 -3.810288199918e-08 4.833534714239e-09 9.566166611056e-08 1.000000000000e-03 1.047197551197e-05 4.209053507421e-14 2.728267099122e-13 -3.510271463812e-13
148 2 5.535562386900e-03 8.332981173693e-03 9.117941243054e-04 -9.966406787079e-11 3.633416924099e-11 1.566634983617e-11 3.025358431659e-08 -7.496794594018e-08 2.967203797193e-07 1.000000000000e-03 1.047197551197e-05 5.435054191713e-13 1.493387955705e-13 -5.619757043890e-13
149 2 4.620372021924e-03 1.415944758447e-02 8.653863980389e-04 5.992028693003e-11 2.369575156807e-10 -2.530051542459e-11 -2.085077803504e-07 1.540981292630e-07 -3.671901865813e-08 1.000000000000e-03 1.047197551197e-05 -8.944611556543e-13 -2.750823918155e-13 6.895161178113e-13
150 2 2.721203554464e-03 1.450162856948e-02 8.436823240742e-04 8.243308123217e-11 9.026267247987e-10 7.099256525931e-11 -9.081429402854e-07 1.240078359954e-07 -6.501320422426e-07 1.000000000000e-03 1.047197551197e-05 -2.618317631959e-13 -1.935871150857e-12 8.925370261890e-13
151 2 4.359697741279e-03 1.425823509032e-02 6.677047211228e-03 -3.226598314276e-10 4.482516733156e-10 -4.703983930425e-11 -2.472733129215e-07 -1.618324523263e-07 -1.862500248275e-08 1.000000000000e-03 1.047197551197e-05 7.030416635748e-13 -1.712957258470e-12 -5.376425794944e-13
152 2 2.691721561112e-03 1.311911382642e-02 2.128563653739e-03 -3.856557873803e-10 8.794880384403e-10 1.338015483188e-10 8.428840553148e-07 1.338894678872e-07 -1.401270733475e-07 1.000000000000e-03 1.047197551197e-05 -1.093506223734e-12 -7.014871016732e-13 -3.270811807280e-12
153 2 4.636234289370e-03 1.143549612056e-02 3.379966579323e-03 -1.491618680567e-10 1.641233605453e-10 5.509922409593e-11 8.268256360223e-08 -6.966258560273e-08 -2.574086751193e-07 1.000000000000e-03 1.047197551197e-05 -3.760511710257e-13 -1.022582715256e-13 8.609153300784e-13
154 2 4.650949553635e-03 1.316619819965e-02 2.579208991206e-03 -1.946105181356e-10 7.455866335884e-11 -8.939394266113e-11 -2.297625300326e-07 -4.059218317824e-08 3.836170927522e-07 1.000000000000e-03 1.047197551197e-05 -1.783531841364e-13 -8.890522381860e-13 1.041151672517e-12
155 2 2.192929408940e-03 1.308998900411e-03 6.317806796058e-03 -2.583329808324e-10 3.367039266593e-10 -1.395818756777e-10 -1.642721072849e-07 -5.976811921821e-08 4.256269396832e-08 1.000000000000e-03 1.047197551197e-05 7.391054954543e-13 1.110402338024e-12 -1.208880917311e-13
156 2 5.949729000978e-03 1.315523017242e-02 6.432328873689e-03 -3.573912100038e-10 4.302985193388e-10 -4.502060670364e-11 7.637773357317e-08 -1.366992344414e-07 -5.634655188300e-08 1.000000000000e-03 1.047197551197e-05 8.935151929315e-13 -5.722502842146e-13 2.703707301273e-13
157 2 4.416776347960e-03 7.972022988808e-03 2.373093709145e-03 -1.108396132210e-10 -6.284294364578e-11 1.917769019580e-11 -3.029875951606e-07 -7.892203120975e-09 2.264460829696e-07 1.000000000000e-03 1.047197551197e-05 2.862610549138e-13 1.885173128909e-13 -9.023880911414e-13
158 2 1.799926090969e-03 1.132532439454e-02 1.025009770335e-03 6.435997925364e-103 -8.662341070753e-103 3.179436303638e-103 7.135844669915e+02 5.662723153513e+02 -6.677749503634e+02 1.000000000000e-03 1.047197551197e-05 -6.442149725201e-104 8.670620903812e-104 -3.182475343731e-104
159 2 4.819933611561e-03 9.526489807567e-03 3.470245072840e-03 -3.527195258100e-10 1.069446836647e-10 -1.379038640547e-10 1.199698746954e-07 -2.353040985129e-09 5.258987753029e-08 1.000000000000e-03 1.047197551197e-05 1.238915771627e-12 9.463465850303e-13 -2.372304933494e-13
160 2 5.728763694584e-03 1.076242812454e-02 1.985859226283e-03 -1.668786847115e-10 1.754736276936e-10 -3.726954902637e-12 1.010828866153e-07 2.468734087552e-08 1.452636253279e-08 1.000000000000e-03 1.047197551197e-05 4.001529823124e-13 -8.499170201581e-13 -1.695709937972e-13
161 2 3.413202398442e-03 1.061356925211e-02 6.479509899284e-03 -2.870673998325e-10 3.674627612179e-10 1.840899477934e-11 -8.131684305956e-08 1.837042371938e-08 9.848750878605e-08 1.000000000000e-03 1.047197551197e-05 3.898421391015e-12 -2.759488851794e-12 3.035989779156e-12
162 2 4.557582658563e-03 7.778360228257e-03 4.734024407599e-03 -2.144238545880e-10 2.134192630863e-10 8.425581272327e-11 2.307809905636e-07 7.752430042129e-08 1.065570370375e-07 1.000000000000e-03 1.047197551197e-05 -7.771945880350e-13 -1.187523348230e-12 -5.664995646519e-13
163 2 4.397047406558e-03 1.244317729417e-02 5.680790726044e-03 -3.568054334946e-10 3.727024701610e-10 -6.884992454979e-11 -8.190079297518e-08 1.315033388248e-07 7.378686626045e-08 1.000000000000e-03 1.047197551197e-05 3.971925783802e-12 -2.293639644482e-12 1.545407283362e-12
164 2 1.062384670024e-03 1.339230706875e-02 9.095999061306e-04 -8.904301518220e-11 1.237586429743e-10 2.766080603390e-11 -1.304234624768e-07 -9.954475931136e-08 -3.806001503595e-07 1.000000000000e-03 1.047197551197e-05 -9.911190596788e-13 -2.079449004114e-12 5.350123256558e-13
165 2 3.274875956585e-03 1.131822502948e-02 4.683616154431e-03 -2.829154497226e-10 2.220659914934e-10 1.394204061083e-11 -8.708192292448e-09 -6.885242550549e-08 9.678092782708e-08 1.000000000000e-03 1.047197551197e-05 1.691217094879e-12 -6.525990295734e-12 7.945835130818e-12
166 2 3.846535009629e-03 9.249033273179e-03 9.259133958031e-04 -6.852756683094e-11 5.860939543323e-12 2.409787368979e-11 1.992274952213e-08 -1.236942254375e-08 -2.496742223093e-07 1.000000000000e-03 1.047197551197e-05 9.394957833037e-13 -4.304961615198e-13 1.500861583205e-13
167 2 2.749570618910e-03 1.494246606487e-02 3.711306775387e-03 -1.037179697204e-10 2.649305609797e-10 -1.499285595280e-10 5.797635157736e-08 -1.845392552114e-07 6.096842792386e-08 1.000000000000e-03 1.047197551197e-05 -2.705041429338e-13 -1.619611757335e-12 1.430405152649e-12
168 2 2.273441599311e-03 9.848202389887e-03 3.681159249256e-03 -1.439080005383e-10 2.910789139299e-10 -2.760666613830e-11 -2.676464798733e-08 -1.932656006981e-08 -6.741626250127e-08 1.000000000000e-03 1.047197551197e-05 -1.549540990698e-12 1.859336567071e-12 -3.188177279591e-12
169 2 5.104525244290e-03 7.814957014980e-03 6.873428364488e-03 -2.716534993705e-10 3.983824107603e-10 4.372007835986e-11 -7.080093932524e-08 4.700300468807e-09 6.594920083231e-08 1.000000000000e-03 1.047197551197e-05 1.244447434093e-12 -1.890961600593e-13 -7.177974516315e-13
170 2 4.984114765205e-03 1.060817931549e-02 5.356704686473e-03 -2.174007703167e-10 3.229128146953e-10 8.394458484842e-11 -1.013643359218e-07 -1.115521247914e-07 -4.688921545485e-08 1.000000000000e-03 1.047197551197e-05 2.862996613512e-12 -1.849788862983e-12 4.035052431367e-12
171 2 5.562890459146e-03 9.632250584417e-04 2.477853711703e-03 2.412268042433e-10 7.486899857096e-10 3.070123705072e-11 6.347737158913e-08 -5.817930318466e-07 -8.574323134504e-07 1.000000000000e-03 1.047197551197e-05 -4.464547041903e-12 -1.435889025476e-12 1.163157198105e-12
172 2 3.797976801305e-03 1.483978844625e-02 2.314282988642e-03 3.217057790522e-10 3.039258599899e-10 1.340768615231e-10 6.469827437358e-07 -2.860762088641e-07 -9.021419233447e-07 1.000000000000e-03 1.047197551197e-05 -1.068005851423e-12 -5.968238554457e-13 7.333697173220e-13
173 2 3.336420312026e-03 8.068738647258e-03 6.261561134312e-03 -2.562922357000e-10 2.963436437837e-10 7.473331273111e-11 -3.875038851593e-08 1.253065026506e-08 -1.863804309658e-08 1.000000000000e-03 1.047197551197e-05 5.701469753231e-13 -1.058012006956e-12 -1.300845293528e-12
174 2 1.482617535092e-03 1.536307400222e-02 1.075949609249e-02 -3.804279237121e-10 3.857423810347e-10 -8.399493468712e-11 4.001793421372e-08 -1.401995538364e-07 -2.916436149165e-08 1.000000000000e-03 1.047197551197e-05 6.144302797164e-13 -2.714699216734e-13 1.974075437735e-12
175 2 1.341725462642e-03 1.014390036793e-02 1.252379186927e-02 -3.074148266973e-10 3.593379783677e-10 -8.490859952933e-11 1.715877310907e-07 3.608362197108e-08 1.180491781337e-07 1.000000000000e-03 1.047197551197e-05 5.404352750759e-13 -5.333194224697e-13 8.557574667759e-13
176 2 9.510751854051e-04 9.100143779215e-03 1.035431101865e-02 -4.328458957063e-10 4.664672155494e-10 -1.341745118714e-11 2.811002054414e-07 1.563487478858e-08 -3.479249759995e-08 1.000000000000e-03 1.047197551197e-05 2.129920449230e-12 5.065716201172e-13 -2.102397989028e-12
177 2 4.007534997275e-03 9.128035284083e-03 7.895806487458e-03 -3.742320534786e-10 3.870547140157e-10 3.335989976424e-11 -1.008325956308e-07 1.626215020689e-08 -1.270338502454e-08 1.000000000000e-03 1.047197551197e-05 9.737760114526e-13 -8.825474841906e-13 -3.467680659750e-13
178 2 2.314885938065e-03 1.374231587676e-02 1.138907070772e-02 -3.084478948895e-10 3.200676125058e-10 -9.264709451728e-11 1.064714398808e-07 -1.374665707831e-08 9.408336335995e-08 1.000000000000e-03 1.047197551197e-05 8.434830499771e-13 4.415675825390e-14 1.642042910195e-12
179 2 4.165172695386e-03 1.389614546021e-02 9.627875762500e-03 -3.034844220155e-10 5.617928761362e-10 3.472729388870e-12 -2.218626534315e-07 8.940694609423e-08 1.321069238904e-07 1.000000000000e-03 1.047197551197e-05 4.625404951223e-13 -3.851752817747e-13 5.940973733822e-13
180 2 4.955482641212e-03 1.522377834210e-02 1.444402880697e-02 -2.853480369272e-10 2.942725982074e-10 4.652772403277e-11 2.229967597507e-07 2.318312424906e-07 1.716330000822e-07 1.000000000000e-03 1.047197551197e-05 -2.156266389474e-13 -1.799975418726e-12 1.997928105099e-12
181 2 5.054887044871e-03 1.200948462851e-02 9.930034856448e-03 -3.246994445697e-10 3.005048269361e-10 1.177450598601e-10 1.027654562283e-07 9.166427627957e-08 8.322008818892e-08 1.000000000000e-03 1.047197551197e-05 -8.577714522347e-13 -3.382399478297e-13 -5.831265642232e-13
182 2 3.113274582563e-03 1.073928989461e-02 1.255236177979e-02 -3.436610554011e-10 4.780666363299e-10 7.722323755280e-11 -8.042844414667e-08 -1.404927510897e-07 1.581399701369e-08 1.000000000000e-03 1.047197551197e-05 -2.954504453874e-13 -1.966322422792e-12 2.086338630735e-14
183 2 1.659225740093e-03 1.410523912073e-02 1.313909832990e-02 -2.528603661973e-10 3.347498650390e-10 -8.423884735093e-11 -1.173206104316e-07 8.083643339803e-08 -1.833394390586e-07 1.000000000000e-03 1.047197551197e-05 1.377144548365e-12 -9.665809582557e-13 -1.148975561473e-14
184 2 2.789627643638e-03 8.733152775148e-03 1.116867392445e-02 -2.650170458245e-10 5.955635653232e-10 7.434557442178e-11 1.031356470852e-07 4.453710857025e-07 -4.770131092349e-07 1.000000000000e-03 1.047197551197e-05 2.376829560942e-12 -4.109414613191e-12 8.440714582964e-13
185 2 5.506507407756e-03 9.802337507859e-03 9.256611810406e-03 -3.626473801520e-10 3.685378334494e-10 3.279854168975e-11 2.708930040685e-08 -3.392992145513e-08 8.099476905702e-08 1.000000000000e-03 1.047197551197e-05 1.210157538778e-12 1.180796395986e-14 5.403841761241e-13
186 2 6.989174210614e-03 2.992105721004e-04 1.329808861947e-02 -7.454070670360e-10 1.117630663586e-09 4.004204646414e-10 7.314423672191e-08 2.867338157347e-07 -7.059428900740e-07 1.000000000000e-03 1.047197551197e-05 3.098393743834e-11 -1.991251389972e-11 -5.232391868372e-12
187 2 5.442484833288e-03 1.400153377203e-03 1.345531805581e-02 -1.372203494277e-09 8.995501051112e-10 1.525727532239e-10 -9.931268905022e-08 -7.066045256541e-07 1.458487770820e-06 1.000000000000e-03 1.047197551197e-05 -2.551130415728e-11 2.239674403414e-11 -3.543643006054e-12
188 2 2.231036662763e-03 9.817942256937e-03 9.101542096168e-03 -3.617024895782e-10 5.007072797222e-10 2.871069019467e-11 -1.214467204687e-07 -1.272187299302e-08 9.313094960262e-09 1.000000000000e-03 1.047197551197e-05 9.634155725258e-13 6.975823604188e-14 -1.202997479916e-12
189 2 1.444977200421e-03 1.182930479968e-02 9.428269938472e-03 -3.165100882660e-10 3.538267552772e-10 3.938024195790e-11 6.026663953212e-08 3.475269772581e-08 5.146188815692e-09 1.000000000000e-03 1.047197551197e-05 7.415536403608e-13 1.972186504366e-13 2.301949031985e-13
190 2 6.650227959469e-03 1.515277575991e-02 1.147099012415e-02 -4.033325876235e-10 9.467763631842e-10 2.952366960094e-10 -6.340697767872e-08 -4.136160257336e-07 7.631955689825e-07 1.000000000000e-03 1.047197551197e-05 -4.431303330467e-13 1.385428562767e-12 9.972944361444e-14
191 2 4.425220113859e-03 1.069114322401e-02 1.109595084704e-02 -2.811596521868e-10 2.209820354124e-10 1.912428814845e-10 -1.043515423500e-07 -2.793499006118e-08 -7.104226071472e-08 1.000000000000e-03 1.047197551197e-05 -1.999501645691e-12 -3.065634461884e-13 -6.337124905403e-13
192 2 2.837078445870e-03 1.455777419951e-02 7.757658909582e-03 -3.829082506855e-10 4.901576312306e-10 -7.535038610769e-11 7.917764083444e-08 1.249972233052e-07 1.006101436038e-07 1.000000000000e-03 1.047197551197e-05 9.178078729733e-12 2.940750313447e-12 -2.494365294633e-11
193 2 1.112780012632e-03 8.334430597350e-03 1.211733725908e-02 -2.541453068270e-10 3.389811853286e-10 -1.138041967380e-10 -1.453164691726e-07 2.226646925744e-07 -1.893918692630e-09 1.000000000000e-03 1.047197551197e-05 6.081771645831e-13 -6.924531996300e-13 -1.236725140891e-12
194 2 3.320285436842e-03 8.342930268259e-04 1.445770233034e-02 -4.146308196933e-10 2.808072294538e-11 1.059873385716e-10 5.831647370365e-08 4.034276005042e-07 2.244201622206e-07 1.000000000000e-03 1.047197551197e-05 3.787200068728e-12 -1.011107970980e-12 -3.020367945621e-13
195 2 5.473896666809e-03 1.444760577434e-02 1.279860188769e-02 -4.059530664960e-10 5.253856928137e-10 -2.819738373654e-12 2.601724092473e-08 -1.951608726987e-07 -8.190235722631e-08 1.000000000000e-03 1.047197551197e-05 -3.290495025397e-13 -2.649786338029e-12 2.393238869720e-12
196 2 3.853926119505e-03 1.343075250347e-02 1.262546861074e-02 -3.444132830483e-10 4.284858549475e-10 -1.124268891513e-10 -4.993279685489e-08 2.280416716396e-08 1.372038241599e-07 1.000000000000e-03 1.047197551197e-05 6.883329637076e-13 -9.229698696338e-13 9.310632840294e-13
197 2 3.440614344521e-03 1.519857723679e-02 1.078979542109e-02 -4.093805278244e-10 5.335853729588e-10 4.635023136669e-11 1.317276089485e-07 2.822494855462e-08 1.338992988654e-07 1.000000000000e-03 1.047197551197e-05 1.677116645357e-12 -4.680426172381e-13 -1.020244421393e-13
198 2 3.986091613433e-03 1.092798371230e-02 8.756829548950e-03 -3.259829424596e-10 3.769759605670e-10 5.930126835232e-11 -1.019256049769e-08 -1.241480932205e-09 -2.318179289087e-08 1.000000000000e-03 1.047197551197e-05 1.103305939843e-12 -2.254527988096e-13 -2.490203482336e-13
199 2 3.115568452201e-03 1.261453358368e-02 8.821085185685e-03 -2.994441762292e-10 3.858657310731e-10 7.168023214149e-11 2.942794798567e-08 -4.181366674446e-08 -2.212262257763e-08 1.000000000000e-03 1.047197551197e-05 4.968369617510e-13 -1.833010578758e-13 1.270024133871e-12
200 2 5.950463684635e-03 1.520738469329e-02 9.671593376041e-03 -3.929550328415e-10 4.523475795435e-10 9.939196186783e-11 -8.820790807299e-08 7.240591943546e-08 1.243903303380e-07 1.000000000000e-03 1.047197551197e-05 -2.137267070112e-11 2.921038604952e-11 1.022401434130e-12
201 2 3.849428481542e-03 9.382338694642e-03 9.849304440277e-03 -4.025047719056e-10 3.703525742923e-10 -2.680804241559e-11 1.877801948744e-07 3.284236368035e-09 -1.566525104889e-07 1.000000000000e-03 1.047197551197e-05 -1.142100895199e-12 -4.037232367097e-13 -2.079726231365e-13
202 2 2.315719903964e-03 1.122032523286e-02 7.850049262379e-03 -3.197175989655e-10 3.955773920165e-10 1.306328532092e-12 -4.182949285649e-10 -3.341876738412e-08 -2.511940941222e-08 1.000000000000e-03 1.047197551197e-05 6.489913100392e-13 -1.106332235528e-12 -5.403770821886e-13
203 2 2.685067944140e-03 8.906983029264e-03 1.300070317852e-02 -4.199938981090e-10 4.307208089774e-10 1.736034496866e-10 9.855793036199e-08 -6.549025846496e-07 5.623366353152e-09 1.000000000000e-03 1.047197551197e-05 2.886102097981e-12 -1.388973587234e-12 3.039575020087e-12
204 2 4.691475080320e-03 1.169563813351e-02 1.277794835290e-02 -1.870718526971e-10 4.544246048522e-10 7.537800138015e-11 -2.261414529559e-07 9.704951121301e-09 -1.853412982002e-07 1.000000000000e-03 1.047197551197e-05 -7.999751483412e-13 -2.514007869152e-12 -8.378491599024e-13
205 2 6.056490671927e-03 1.044822958568e-02 1.346678932756e-02 -7.109352973062e-10 -8.304451924496e-11 1.083004590817e-10 2.076894549560e-08 -2.839884403110e-07 -3.778329421092e-07 1.000000000000e-03 1.047197551197e-05 5.495953924570e-13 -7.917507598776e-13 -1.823485647985e-13
206 2 3.663206480406e-03 1.042020974621e-02 1.440582438910e-02 -3.607439906953e-10 -2.793161971129e-10 -1.351031643426e-11 -3.226395828024e-07 3.441876449141e-07 -3.863749090750e-07 1.000000000000e-03 1.047197551197e-05 7.121859877525e-13 -4.225916661952e-14 -5.485842106792e-13
207 2 6.160285649097e-03 1.118422020312e-02 1.166826030006e-02 -2.670678088807e-10 1.784403030472e-10 1.352980244478e-10 1.417985561496e-07 5.104802216780e-08 -3.390260369270e-08 1.000000000000e-03 1.047197551197e-05 1.930889332584e-12 -1.073693529618e-12 1.298743813828e-12
208 2 5.540869209194e-03 1.201298218169e-02 1.444749308285e-02 1.427630874681e-11 1.865026352598e-10 9.102051909779e-11 1.541144473677e-07 -1.440513430032e-08 -6.506012653237e-07 1.000000000000e-03 1.047197551197e-05 3.150600719052e-13 -5.998034053919e-13 -1.904735799838e-13
209 2 3.256100229395e-03 1.426112087616e-02 1.441211215655e-02 -2.732385187203e-11 -1.114636717815e-11 -3.642767305138e-11 8.089201133499e-08 1.360499684771e-08 2.616875017808e-07 1.000000000000e-03 1.047197551197e-05 -2.106479492773e-12 -2.841964917524e-13 5.058155669853e-13
210 2 3.422054528143e-03 7.667172736681e-03 9.188616477482e-03 -5.718085853227e-10 4.930652875921e-10 -7.727438533182e-11 -1.240978147698e-07 2.248796831363e-07 8.110572803135e-08 1.000000000000e-03 1.047197551197e-05 -8.632026490571e-13 3.751996590193e-13 -1.284691391495e-12
211 2 2.699550470169e-03 6.589287106669e-03 1.286419198954e-02 -1.082673439237e-09 8.442220999339e-10 -2.478997349742e-10 -4.629180669426e-08 -5.293333333164e-07 -5.184247559976e-09 1.000000000000e-03 1.047197551197e-05 1.603349210668e-13 -1.103551566771e-12 5.536760396071e-14
212 2 4.802488496645e-03 1.326538983138e-03 9.722202109637e-03 -4.341130424339e-10 4.349629265278e-10 1.270389647174e-11 4.208227098506e-08 -8.232113264960e-08 -8.987508663068e-08 1.000000000000e-03 1.047197551197e-05 2.462192076005e-11 -3.022762816743e-11 -8.495243005842e-13
213 2 2.177710649902e-03 1.059674803487e-02 1.084310350196e-02 -3.042051974081e-10 5.315490727221e-10 -2.126265925267e-11 6.236229078700e-08 -7.972031606670e-10 -1.556434431090e-07 1.000000000000e-03 1.047197551197e-05 4.465065260610e-13 1.689138414665e-12 2.831185039890e-13
214 2 2.228988177506e-03 1.416506719538e-02 9.517262185252e-03 -3.143850045182e-10 4.096361052727e-10 -8.436308394808e-12 -1.009923149768e-08 -3.884870891931e-08 7.597778556657e-10 1.000000000000e-03 1.047197551197e-05 -6.299554894894e-12 -5.706489181801e-12 2.171007647922e-11
215 2 6.393544566364e-04 1.351487216646e-02 1.040422644223e-02 -3.180022670271e-10 3.425469647505e-10 -9.650716241150e-11 1.143231373960e-07 2.183681217123e-08 6.778733684190e-11 1.000000000000e-03 1.047197551197e-05 -9.684866164824e-13 -3.990484469102e-13 2.591284120175e-12
216 2 4.551095374703e-03 1.529504849704e-02 8.308312063924e-03 -4.069163129074e-10 4.893909045599e-10 -9.115163869281e-12 1.718326259927e-07 -3.704328477635e-08 -5.403516326801e-08 1.000000000000e-03 1.047197551197e-05 -4.782127124243e-13 3.487958249263e-13 -7.659085080805e-13
217 2 3.449710254746e-03 1.235241489239e-02 1.422671505430e-02 1.074466508091e-10 -9.853208096731e-11 -2.388508428595e-10 5.135154296001e-08 2.498428555262e-07 -1.565750575768e-07 1.000000000000e-03 1.047197551197e-05 -1.437761670260e-12 -5.805561451625e-13 1.915848032507e-13
218 2 5.425069486220e-03 6.998408761640e-03 1.449550922724e-02 -1.177828773623e-09 -1.044270522714e-09 5.793217986189e-10 -1.541725353038e-06 1.160452774980e-06 -8.751511064195e-07 1.000000000000e-03 1.047197551197e-05 -2.402391435802e-12 1.933219749199e-12 -4.652356646766e-12
219 2 4.153995562188e-03 7.751104479501e-03 1.335583894813e-02 -1.093580134863e-09 -2.679560263017e-10 5.364197812994e-10 3.710552504175e-07 -3.559969552445e-07 -8.907319499623e-07 1.000000000000e-03 1.047197551197e-05 1.339755099209e-12 5.249688003885e-12 3.661572004597e-12
220 2 3.555818355450e-03 1.721174583159e-03 1.112136274897e-02 -3.265717028963e-10 6.289785387251e-10 9.151833936831e-11 -2.371020746203e-07 2.478230387681e-07 -1.497422533602e-07 1.000000000000e-03 1.047197551197e-05 2.842375515053e-15 -3.017414766827e-12 -2.046140053003e-12
221 2 1.916492036312e-03 1.115125337718e-02 1.411112208656e-02 -1.831059841107e-10 2.166031173904e-10 -5.254035293477e-11 -2.221194953246e-07 -1.528031299293e-07 -2.479246544377e-07 1.000000000000e-03 1.047197551197e-05 -9.937983255876e-13 -6.992686554573e-14 -1.129465635145e-12
222 2 4.972912287506e-03 9.053115190696e-03 1.447164501358e-02 -6.157294190700e-10 -6.198772767244e-10 8.362961024372e-11 -6.780431889917e-07 6.073981759826e-07 -5.872449446416e-08 1.000000000000e-03 1.047197551197e-05 1.013026578558e-12 2.113225245391e-12 8.509262979361e-13
223 2 1.479940867147e-03 1.323445419123e-02 8.023184607398e-03 -2.916786361429e-10 3.677619905452e-10 8.898296330794e-12 -6.231304291250e-08 -1.400129277174e-08 2.790899111710e-08 1.000000000000e-03 1.047197551197e-05 4.710466455883e-13 -6.168797303827e-13 -5.791872023143e-13
224 2 5.383514882149e-03 1.379635643467e-02 1.103591856008e-02 -2.504458956689e-10 5.961963799433e-10 2.510871027839e-11 -4.694993150350e-08 -7.129631175778e-08 -4.664105987009e-07 1.000000000000e-03 1.047197551197e-05 -5.568524686353e-13 1.162157824403e-12 1.281404445034e-13
225 2 6.148583658931e-03 1.339874166669e-02 9.321919521026e-03 -3.355371094456e-10 3.863001679831e-10 1.092687041738e-10 4.067853526857e-08 -1.552153432942e-08 -7.068232927296e-08 1.000000000000e-03 1.047197551197e-05 -8.224936568568e-13 9.763455897145e-13 4.836874802871e-14
226 2 3.155059511361e-03 1.527446289977e-02 1.271562284326e-02 -2.838506288979e-10 4.058433142999e-10 8.128432116839e-11 3.282783127389e-07 -1.531637765896e-07 3.021734711037e-07 1.000000000000e-03 1.047197551197e-05 1.347690333444e-12 -5.665435107809e-13 -3.045024570531e-13
227 2 3.311652350803e-03 1.218094467031e-02 1.123243673314e-02 -2.133710408909e-10 3.336527991264e-10 -4.140456197290e-11 -1.044079299406e-07 -8.056165487495e-08 -2.832515964640e-08 1.000000000000e-03 1.047197551197e-05 -6.034081022979e-13 -4.328527741476e-13 1.368040355475e-12
228 2 4.782491844644e-03 1.299272680557e-02 8.015216832769e-03 -3.206796863089e-10 5.002753550033e-10 6.666306017000e-11 1.091888126201e-07 3.737366326079e-08 6.941304630734e-08 1.000000000000e-03 1.047197551197e-05 8.982602780414e-13 -1.863843728859e-12 -6.868566169141e-13
229 2 2.879075221556e-03 5.772274178686e-04 9.137940652073e-03 -4.110108693015e-10 4.709702697350e-10 -2.758677469759e-11 -5.522483165777e-08 -9.502745498761e-08 5.713733674749e-08 1.000000000000e-03 1.047197551197e-05 -2.931923872950e-13 -1.035028594763e-12 -2.039433512169e-12
230 2 4.826875254810e-03 5.121966846460e-04 1.183531883124e-02 -3.597213174739e-10 6.281582731873e-10 -8.404181390653e-12 8.273592242979e-08 1.314134662108e-07 8.889904891236e-08 1.000000000000e-03 1.047197551197e-05 9.506517853281e-13 1.477849879447e-12 2.152759086227e-12
231 2 4.366637530840e-03 9.200532690240e-03 1.217985830845e-02 -2.857873751748e-10 2.150233139379e-10 5.607390206918e-10 -9.450445469716e-08 3.715188712592e-07 -1.567208952249e-07 1.000000000000e-03 1.047197551197e-05 9.096287285038e-13 7.949256855691e-13 1.222822828195e-12
232 2 1.833052461154e-03 7.405912864198e-03 1.026478883124e-02 -5.166722788898e-10 5.434429865332e-10 2.335048037121e-10 -3.775867280930e-07 -4.697638602584e-07 1.587841105044e-08 1.000000000000e-03 1.047197551197e-05 3.330631782052e-12 -1.297898103635e-13 -4.970140227310e-13
233 2 1.057618588692e-02 6.003453697968e-03 8.327795336803e-04 4.208592769609e-11 1.033090667776e-10 4.644669705106e-12 -8.657543615353e-08 6.397839013874e-08 1.182030407487e-07 1.000000000000e-03 1.047197551197e-05 -4.218808945405e-14 -2.644148622089e-13 -3.817778615480e-14
234 2 8.572698153029e-03 9.542384258260e-04 3.719913745195e-03 -2.863254257133e-10 3.174808122251e-10 -4.941105212960e-12 -7.993335649345e-08 -6.048771794655e-08 5.500011881110e-08 1.000000000000e-03 1.047197551197e-05 1.763915455149e-12 -1.036527413868e-12 6.572470412182e-13
235 2 1.255061708155e-02 5.925073410385e-03 6.872239266805e-03 -3.407344944727e-10 3.266915646659e-10 4.829070629382e-11 -2.306594828696e-09 -5.925986264368e-08 1.414114544203e-08 1.000000000000e-03 1.047197551197e-05 4.133808913945e-13 -6.243863511571e-13 -1.128220347143e-12
236 2 1.386440128140e-02 1.861083371449e-03 3.738843625030e-03 -2.210229542589e-10 2.282200619194e-10 5.312315334374e-11 8.636956416495e-08 -8.952899536984e-08 -7.315910615513e-08 1.000000000000e-03 1.047197551197e-05 1.244948253597e-13 -1.054328924345e-12 -1.067758243373e-13
237 2 1.481984721461e-02 6.907219165370e-03 6.227709076132e-03 -3.743764178705e-10 3.350659121670e-10 -7.033374742461e-11 -6.671432783467e-08 6.475633604855e-09 -9.777472219303e-08 1.000000000000e-03 1.047197551197e-05 1.443146941866e-12 -8.350237920490e-13 -7.019140373024e-13
238 2 1.279672008440e-02 1.151037149334e-03 5.182544425642e-03 -2.992319726441e-10 2.697618015405e-10 5.853669917979e-11 -6.282619247538e-08 -2.757795703383e-09 -1.448386564238e-08 1.000000000000e-03 1.047197551197e-05 6.136512583888e-14 -7.574046278636e-13 -8.692146505395e-14
239 2 1.269779408757e-02 3.394102742725e-03 3.665365046025e-03 -2.110228597992e-10 2.275046681819e-10 5.222243428461e-11 -2.307881833221e-08 -4.654399565856e-08 1.290206374295e-08 1.000000000000e-03 1.047197551197e-05 6.179289866692e-13 -7.557552587632e-13 -6.903061018967e-13
240 2 1.422432222625e-02 7.105190812695e-03 4.446111558183e-03 -2.588981957983e-10 3.128769415420e-10 -1.511099395537e-11 1.691836011604e-08 -1.760313073835e-08 -2.108033210397e-08 1.000000000000e-03 1.047197551197e-05 9.647906943098e-13 7.328969809928e-14 2.970210854459e-13
241 2 1.191517418304e-03 6.672935203909e-03 2.086042477990e-03 -1.363833565053e-10 1.824478839552e-10 1.702670787499e-10 -3.787528447847e-07 -1.882210207997e-07 1.142351984536e-07 1.000000000000e-03 1.047197551197e-05 1.485073751267e-12 -8.140095188641e-13 1.210680208397e-12
242 2 3.135715916352e-04 5.139547536943e-03 2.924548873067e-03 -1.444918712004e-10 2.975143188626e-10 1.749771809398e-10 9.242980456426e-08 -1.785837553196e-07 7.789911076280e-08 1.000000000000e-03 1.047197551197e-05 -2.883552012185e-13 -1.174976101620e-12 -7.163264062233e-13
243 2 6.009256044350e-03 1.885235068956e-03 5.590961029651e-03 -2.844168521175e-10 3.774833384745e-10 4.125939232525e-11 -9.208594767001e-08 -3.460453799883e-08 1.432888692240e-10 1.000000000000e-03 1.047197551197e-05 2.149419098464e-13 -1.927218492628e-12 -4.496886956357e-14
244 2 1.451431520581e-02 3.006379735173e-03 6.705877600196e-03 -3.670476019721e-10 3.098197290385e-10 1.222396542894e-10 6.630663151119e-08 -3.776499455194e-08 -1.419666721206e-08 1.000000000000e-03 1.047197551197e-05 1.079850096999e-13 -1.607006250197e-12 -4.775402007362e-13
245 2 1.129233933428e-02 7.883711881142e-03 1.015274032931e-03 -1.799688412232e-103 4.353246411996e-102 -5.630215779091e-102 2.235618384403e+03 2.108827890374e+03 2.418188823478e+03 1.000000000000e-03 1.047197551197e-05 1.801408630761e-104 -4.357407429585e-103 5.635597378171e-103
246 2 1.447333124246e-02 3.907211253042e-03 9.308206367341e-04 -1.055270996154e-10 7.682023944627e-11 -1.981424603350e-11 -7.439162189887e-08 -6.909529073024e-08 -2.407576496633e-08 1.000000000000e-03 1.047197551197e-05 5.306783672523e-13 1.223779136992e-13 2.532712548461e-13
247 2 1.042710851495e-02 1.941798032339e-03 5.286528723202e-03 -3.128677471803e-10 2.789990807792e-10 2.732960676642e-11 -6.517658814159e-09 -4.013654625379e-08 -9.032755557321e-09 1.000000000000e-03 1.047197551197e-05 5.218203343079e-13 -1.214081485913e-12 7.687229299605e-13
248 2 7.519661756210e-04 1.544042197715e-03 9.461223348449e-04 -4.426131423406e-11 1.432385773628e-10 -4.635972862990e-12 -1.104292009349e-07 -3.761184341562e-08 3.731412287554e-07 1.000000000000e-03 1.047197551197e-05 7.555699591264e-14 1.888366097734e-13 4.258587072089e-14
249 2 5.724414829627e-03 2.247544589710e-04 6.454324315968e-03 -3.182805447175e-10 4.001026708621e-10 7.215137029105e-11 8.815960185108e-08 -9.794650297463e-08 9.213443217552e-10 1.000000000000e-03 1.047197551197e-05 -4.096432373739e-14 -2.055842238323e-12 7.746010121242e-13
250 2 7.338114659370e-03 3.371564890627e-03 9.598940204558e-04 -2.749914846158e-10 1.236836789124e-10 -1.969753713604e-11 -8.484263787801e-08 -2.594901911120e-07 2.869864064149e-07 1.000000000000e-03 1.047197551197e-05 1.332370416119e-12 -7.115355962172e-13 6.561735287410e-14
251 2 6.824692814114e-03 1.823934857037e-03 3.792576116963e-03 -3.485300577246e-10 3.970694019250e-10 -7.959513428173e-11 2.626557908689e-08 2.756669533205e-08 -5.987394624593e-08 1.000000000000e-03 1.047197551197e-05 1.931064577394e-12 -2.675535908490e-12 3.837179317640e-13
252 2 1.488821150043e-02 2.404240133058e-03 2.165959388106e-03 -1.359507013076e-10 1.332391078026e-10 -2.065621499575e-11 -1.128379689783e-07 2.162563423607e-07 -3.529834668882e-08 1.000000000000e-03 1.047197551197e-05 3.099655686256e-13 -4.334140990121e-13 -2.761936560479e-14
253 2 6.714061586287e-03 5.035042227169e-03 1.786445319747e-03 -3.244266948364e-10 6.713845828158e-11 9.529642508914e-11 1.284575333042e-07 3.865157025161e-07 -1.632112112168e-07 1.000000000000e-03 1.047197551197e-05 1.917947602133e-14 -9.199152054401e-13 -1.800879301506e-12
254 2 1.006008571411e-02 2.131750300930e-03 7.196461396040e-03 -4.104782620728e-10 3.422868456834e-10 1.874090812366e-11 -5.187508655088e-08 -2.157760293458e-08 -3.600370896584e-09 1.000000000000e-03 1.047197551197e-05 3.714967173881e-13 -4.414667850404e-13 1.447691141740e-12
255 2 5.876210006935e-03 6.445280181105e-03 5.612429912183e-03 -3.445862026156e-10 4.156891295993e-10 -9.551423531102e-11 -4.000508267312e-08 -1.643297159029e-07 -1.282485851496e-08 1.000000000000e-03 1.047197551197e-05 1.774966763771e-13 -1.180952779273e-12 9.500452068952e-13
256 2 1.094371552182e-02 3.540873955473e-03 4.426310948218e-03 -2.645628672750e-10 2.739514004406e-10 3.138151273038e-12 -4.234944084373e-08 -4.257006706846e-08 5.469270509940e-09 1.000000000000e-03 1.047197551197e-05 -1.091785524170e-13 -9.023472297153e-13 -4.899619223341e-13
257 2 6.992383138103e-03 4.403078940761e-03 7.410882521098e-03 -4.255134801669e-10 4.595244929419e-10 -4.047771585457e-11 -7.032955396027e-08 -2.468043612258e-07 -1.483136030975e-07 1.000000000000e-03 1.047197551197e-05 1.086443702674e-12 -1.544406363749e-12 -5.933310848402e-14
258 2 9.502574320195e-03 6.770937599047e-03 4.049190502086e-03 -2.524894973861e-10 3.318995363265e-10 -5.851386406587e-11 -1.253372356152e-08 3.599175582415e-08 1.791015693276e-08 1.000000000000e-03 1.047197551197e-05 1.875093504753e-13 -1.417390309734e-12 -5.933893181320e-15
259 2 1.194711638279e-02 4.614402782090e-03 8.323777178024e-04 -1.141511290759e-11 1.357626668999e-10 1.970655427355e-11 -1.036842305132e-07 -1.121822478091e-08 -1.370628014900e-07 1.000000000000e-03 1.047197551197e-05 7.439656035559e-16 -2.039916895510e-13 -3.398402831409e-13
260 2 1.021250194634e-02 4.287806166102e-03 6.099147065680e-03 -3.511496172803e-10 3.299806504082e-10 -4.434369804428e-12 5.962649578981e-09 -6.088866665189e-08 -8.057967081738e-09 1.000000000000e-03 1.047197551197e-05 1.235978210574e-13 -6.307117881432e-13 6.771890897739e-14
261 2 1.673099418627e-03 2.627248399574e-03 4.969411747035e-03 -4.025081291131e-10 2.330364508337e-10 -1.280531496881e-10 1.834372152965e-07 -2.387495733664e-08 2.140967432136e-07 1.000000000000e-03 1.047197551197e-05 2.219336895145e-13 2.389178146625e-13 -2.084947180555e-12
262 2 1.112965861046e-02 3.011224443339e-03 2.552279354517e-03 -1.864751540757e-10 2.344377803830e-10 1.422658907200e-11 -4.609548430085e-09 -2.225900417865e-08 -2.204649849101e-08 1.000000000000e-03 1.047197551197e-05 3.843786346831e-14 -5.898475230205e-14 -4.345312728741e-13
263 2 7.323000888824e-03 2.609901656063e-03 6.855073621825e-03 -4.535393324011e-10 3.998842137295e-10 6.734795574474e-11 4.916381735805e-08 -8.508214843403e-08 6.145534088401e-08 1.000000000000e-03 1.047197551197e-05 1.100606301728e-12 -1.203262905286e-12 2.481335778677e-13
264 2 7.335758422607e-04 2.178446551054e-03 6.995962642960e-03 -3.390160781043e-10 3.094985420083e-10 -9.011369819501e-11 1.303360301454e-07 1.452315060830e-07 7.797524206492e-08 1.000000000000e-03 1.047197551197e-05 3.403348610754e-13 -2.657640321961e-13 2.077216383815e-13
265 2 8.230854745205e-03 5.019931214105e-03 2.887628254020e-03 -1.558109502689e-10 1.776695957148e-10 -8.562170601597e-11 -2.046238148350e-07 -8.815991192549e-08 1.363629869904e-07 1.000000000000e-03 1.047197551197e-05 -3.370494471884e-13 -4.192819933649e-14 6.526768562356e-13
266 2 1.187798915170e-02 4.791434054995e-03 2.657044863248e-03 -1.388359424866e-10 2.283543038640e-10 4.373643716777e-11 1.840659796970e-08 -8.202482900142e-08 -1.900676329851e-08 1.000000000000e-03 1.047197551197e-05 3.149156974869e-13 -9.044210605144e-13 -3.604206368102e-13
267 2 7.191579695642e-03 4.066495660248e-04 5.077605573498e-03 -3.250761517191e-10 3.634075978679e-10 -1.480797075047e-10 5.200546151097e-08 -1.207022821766e-07 6.105890539642e-08 1.000000000000e-03 1.047197551197e-05 1.074619305787e-12 -1.221853054480e-12 2.386377972165e-13
268 2 8.929824586178e-03 5.550897744957e-03 7.482139721341e-03 -3.647944726747e-10 3.121275323701e-10 3.421679645015e-11 -1.512212408127e-08 -6.720476466654e-08 -1.333970291603e-08 1.000000000000e-03 1.047197551197e-05 1.181589646026e-12 -4.438455511654e-13 2.435101166080e-13
269 2 1.406912676864e-02 4.938031081445e-03 3.975596505385e-03 -1.975339477514e-10 2.046744580437e-10 5.204024618725e-11 1.130180786431e-07 9.050485787112e-08 -7.704436724375e-08 1.000000000000e-03 1.047197551197e-05 1.894441161554e-13 -9.771716752818e-13 -6.210619320188e-13
270 2 1.083775798059e-02 5.400615786690e-03 7.507732332994e-03 -3.635457401908e-10 3.085816868500e-10 3.173038937840e-11 1.446902885161e-08 3.183210286610e-08 4.134580928164e-09 1.000000000000e-03 1.047197551197e-05 1.220955975050e-12 -6.487314994786e-13 -8.897985608596e-14
271 2 1.266042770384e-02 6.256730994209e-03 5.044826138664e-03 -2.558282110296e-10 3.101293845346e-10 5.435733753885e-11 -4.656114216924e-09 5.375696684374e-09 -1.235621693339e-08 1.000000000000e-03 1.047197551197e-05 -5.555674633940e-14 -5.133817644295e-13 -5.851730468827e-13
272 2 1.520257323413e-02 2.050372539695e-03 5.125945466589e-03 -3.182965901167e-10 1.700778466366e-10 9.465642652934e-11 1.027265932578e-07 4.308967958425e-09 1.330711858570e-07 1.000000000000e-03 1.047197551197e-05 5.837225174527e-14 -8.419426517818e-14 -3.256817834191e-13
273 2 7.735433704413e-03 4.530394711060e-03 5.709352153235e-03 -2.549528318662e-10 3.400824234883e-10 -2.203850232643e-12 -8.958226398897e-09 7.710430680613e-08 -2.104477153525e-08 1.000000000000e-03 1.047197551197e-05 5.646387550428e-14 -1.716046779403e-12 9.451674269581e-15
274 2 3.088030106438e-04 3.939797616303e-03 5.475614042727e-03 -2.741556850655e-10 2.262392673377e-10 1.569727068437e-10 7.205794816351e-08 1.674795524181e-07 -2.830069998844e-07 1.000000000000e-03 1.047197551197e-05 -1.220897719773e-13 -1.320035187540e-12 -8.644479727211e-13
275 2 1.372377206206e-03 2.944034886015e-03 2.220716585858e-03 -9.433856803587e-11 1.851721030786e-10 1.823361516148e-10 5.475836365221e-08 -6.902995742750e-07 -3.843373103126e-08 1.000000000000e-03 1.047197551197e-05 -2.559273344141e-12 -2.734087337742e-12 -6.976078256486e-13
276 2 7.916760325286e-03 1.929863237369e-03 2.143959377023e-03 -2.455586219942e-10 2.519980692032e-10 1.490032424686e-11 6.622632891009e-08 1.242321306687e-10 -1.620301749883e-08 1.000000000000e-03 1.047197551197e-05 8.420774377771e-13 -8.397000852430e-13 1.016972287414e-12
277 2 1.417494765511e-02 5.110376398233e-03 5.904225101670e-03 -2.692610752851e-10 2.783563055176e-10 8.480477290479e-11 -1.697422195982e-07 -1.738216909537e-07 1.973653360632e-07 1.000000000000e-03 1.047197551197e-05 1.275205942888e-12 -1.500269346572e-12 -1.729780428918e-12
278 2 1.428952333400e-02 5.861210476521e-03 7.717060403117e-03 -3.898362604579e-10 4.039304788714e-10 2.018429942313e-11 -1.784856124723e-08 4.513531596400e-08 -1.331979258367e-08 1.000000000000e-03 1.047197551197e-05 1.612949866827e-12 -8.276545763031e-13 -2.213500441213e-12
279 2 1.361472647875e-02 1.528559788761e-02 9.209236387526e-04 -1.810355888296e-10 2.265605808873e-11 1.644071841960e-11 2.025372246629e-08 -1.560191363595e-07 1.095972332444e-07 1.000000000000e-03 1.047197551197e-05 4.992846743760e-13 -2.538465380842e-13 2.406122932129e-14
280 2 1.335750959061e-02 6.001933518264e-03 1.124864531874e-03 2.810270775905e-08 9.045523131285e-09 6.620166891132e-09 1.338737502335e+03 8.283555002378e+02 -1.507967210414e+03 1.000000000000e-03 1.047197551197e-05 -5.153289975298e-11 -1.658708860463e-11 -1.213962786037e-11
281 2 9.128990146164e-03 2.828328781570e-03 3.449075147328e-03 -2.150111203545e-10 2.794260716450e-10 -8.437517045042e-12 5.198562136367e-09 -5.638097368801e-08 1.039202975812e-09 1.000000000000e-03 1.047197551197e-05 1.014719213879e-12 -9.152959622908e-13 2.665301012999e-14
282 2 6.944414513292e-03 5.513918515336e-03 4.252496934971e-03 -2.539783707522e-10 3.053158264783e-10 -3.165680550480e-11 -7.399828241210e-08 1.531754121011e-08 -3.861275409186e-08 1.000000000000e-03 1.047197551197e-05 -3.097561220052e-13 -6.754995014582e-13 1.874920396028e-13
283 2 1.104434128527e-02 5.549009760823e-03 4.196721427326e-03 -2.333813875697e-10 3.108903516059e-10 1.951035060995e-11 -3.925357394243e-08 -3.515129836766e-08 -2.123148080174e-08 1.000000000000e-03 1.047197551197e-05 5.564773547536e-13 -1.159306629094e-12 -1.501473309214e-14
284 2 1.205819201640e-02 4.592996769538e-03 5.564056286122e-03 -3.050570232256e-10 3.165251355410e-10 4.013657404892e-11 2.586463919664e-09 -1.831126449531e-08 -2.249957773122e-08 1.000000000000e-03 1.047197551197e-05 7.538328987841e-13 -4.341227921830e-13 -7.505960346649e-13
285 2 1.289514463950e-02 6.240322985953e-03 3.151014561983e-03 -1.951545829647e-10 2.438072837865e-10 9.717002611398e-11 -4.862178455603e-08 -3.715666555050e-08 3.534081732934e-08 1.000000000000e-03 1.047197551197e-05 6.469023541639e-14 -1.505321695943e-13 -1.774419389981e-13
286 2 9.261433180003e-03 4.903500035957e-03 4.533880735588e-03 -2.471973944090e-10 3.395578801546e-10 -2.662009021842e-11 7.356026969801e-09 -4.809666809810e-08 -1.944538609358e-08 1.000000000000e-03 1.047197551197e-05 9.361866077293e-15 -1.059309293871e-12 1.719151889445e-13
287 2 7.256947809807e-03 7.300888421508e-03 3.757392091505e-03 -1.490433509260e-10 2.867672525910e-10 -2.938874343630e-11 1.200680371680e-07 2.567320919867e-07 -1.629078665321e-07 1.000000000000e-03 1.047197551197e-05 -5.438551710457e-13 -1.040270758691e-12 1.099118638637e-12
288 2 1.320587131507e-02 3.050062375175e-03 5.399091394616e-03 -3.200408375462e-10 3.047804844084e-10 8.887307581221e-11 -5.241927256662e-08 -3.712940816211e-08 -4.875540391447e-09 1.000000000000e-03 1.047197551197e-05 2.414442049945e-13 -1.118213658137e-12 1.350487904905e-13
289 2 1.479970616848e-04 5.501390575295e-03 9.843913794030e-04 6.340554351562e-11 -5.544160686782e-13 8.863180133647e-11 7.481209927987e-08 -2.035704340401e-07 -1.819426029355e-07 1.000000000000e-03 1.047197551197e-05 7.563318263697e-13 6.810885808195e-13 -3.956777421385e-14
290 2 1.209459770497e-02 1.536276066663e-03 1.884973894953e-03 -2.687804414346e-10 2.133359920678e-10 -2.035464500320e-11 2.199944945536e-08 7.283798248784e-08 -5.708582122850e-08 1.000000000000e-03 1.047197551197e-05 1.117340804179e-12 -6.597393135730e-13 -3.348170920960e-13
291 2 7.417889111896e-03 3.640768648509e-03 3.920590514845e-03 -1.473623485495e-10 3.192922871415e-10 3.667382260455e-11 3.148488937152e-08 7.439446265235e-08 -1.226095230333e-07 1.000000000000e-03 1.047197551197e-05 -1.640237617745e-13 -1.216014434995e-12 2.770849395835e-13
292 2 1.070760024896e-02 1.904758789985e-04 4.540623860963e-03 -2.974263857387e-10 2.453894391738e-10 4.630827736955e-11 -4.792770408893e-09 -3.234598563725e-08 -1.619428284276e-08 1.000000000000e-03 1.047197551197e-05 8.220582790652e-13 -8.142554378035e-13 -6.563946297883e-14
293 2 8.359003807635e-03 7.036248936501e-03 1.511960700570e-03 -9.955427392891e-11 7.665893741750e-11 -3.056535984997e-11 1.273513317673e-07 1.232117995994e-07 2.165552910025e-07 1.000000000000e-03 1.047197551197e-05 -9.528686350594e-13 1.187704574467e-13 -1.228159489114e-13
294 2 1.168190987128e-02 1.711994363493e-03 3.824322125602e-03 -2.580132724679e-10 2.315186533986e-10 3.715523039632e-11 -1.792371816096e-08 -2.386749729064e-08 -3.791132629851e-08 1.000000000000e-03 1.047197551197e-05 8.418750940599e-13 -3.688868232843e-13 -8.550847058956e-14
295 2 1.291908355331e-02 7.867727070459e-03 2.230338347125e-03 -2.258343979356e-10 1.781503057146e-10 3.480324071962e-11 -5.103549945629e-08 1.271972795230e-08 7.016869797862e-09 1.000000000000e-03 1.047197551197e-05 5.058890364293e-13 -1.510183038155e-12 -2.074736958497e-13
296 2 1.305466246695e-02 2.095566701510e-03 7.581811704687e-03 -3.905407193628e-10 3.446762651242e-10 7.352871238312e-11 1.439667684315e-08 1.268478553981e-09 -1.979132314018e-08 1.000000000000e-03 1.047197551197e-05 6.809735950206e-13 -9.565689925124e-13 -6.275173454520e-13
297 2 6.517990494329e-03 6.685163917963e-03 9.051344098565e-04 -6.895280905002e-11 1.197306573379e-10 7.503440024171e-11 -1.312542894746e-07 -4.367704944568e-08 -2.715864465525e-07 1.000000000000e-03 1.047197551197e-05 8.892152173052e-14 -1.042777857253e-12 -6.224280032949e-13
298 2 9.998197498650e-03 4.373564455503e-03 2.795799570299e-03 -1.629109573977e-10 2.620410059556e-10 2.672998095595e-11 5.664046231424e-09 2.617371325327e-08 -2.597065354609e-08 1.000000000000e-03 1.047197551197e-05 6.061522470787e-13 -1.322899727073e-12 -1.691626242624e-13
299 2 1.529848563583e-02 3.409319756450e-03 3.703096703510e-03 -2.112488568283e-10 2.590029690452e-10 5.420623065151e-11 -2.935123292233e-08 -3.073286562544e-07 6.954563096388e-08 1.000000000000e-03 1.047197551197e-05 -5.155186857294e-13 -1.344335524097e-12 -7.996392351610e-13
300 2 8.658038280646e-03 1.386108040030e-03 5.639914420326e-03 -3.527349069854e-10 3.426309442401e-10 -4.525000454366e-12 -1.603465914367e-08 -2.184086914511e-08 -6.837205346215e-08 1.000000000000e-03 1.047197551197e-05 1.702416210819e-12 -4.990242429468e-13 -7.753895962043e-14
301 2 9.033090489084e-04 5.820599703820e-03 5.145242809536e-03 -3.765125314992e-09 2.842135155591e-08 -1.073466639829e-08 -3.827557361940e+02 -3.437352863749e+02 5.856877553245e+02 1.000000000000e-03 1.047197551197e-05 6.926150805643e-12 -5.228262049760e-11 1.974700040900e-11
302 2 1.162639565361e-02 3.037976561641e-03 6.568797598338e-03 -3.711895524921e-10 3.350505829861e-10 3.842103926328e-11 -9.291172845567e-09 -3.193867394088e-08 1.264705979932e-09 1.000000000000e-03 1.047197551197e-05 1.642406660017e-12 -2.850359171067e-13 -4.389644215844e-13
303 2 9.739238725531e-03 6.092723666070e-03 2.404524808996e-03 -9.078180436223e-11 2.137228590341e-10 -3.258129612884e-11 -7.954971620181e-08 -1.894773779045e-07 -2.854597365662e-08 1.000000000000e-03 1.047197551197e-05 2.096971169083e-13 -7.419419838148e-13 4.026874648442e-13
304 2 8.916098502206e-03 3.155159047237e-03 5.327309607019e-03 -2.904583544352e-10 3.214861282564e-10 -3.448793492874e-11 -2.160443464635e-08 -9.122923300960e-09 7.252176931556e-09 1.000000000000e-03 1.047197551197e-05 1.944333281303e-13 -9.558112798938e-13 -1.948670024701e-13
305 2 1.365625861368e-02 1.813708742244e-03 8.803455336541e-04 -1.911104576813e-10 6.563870454207e-11 3.771640091515e-11 -4.513588711587e-08 -1.782940768642e-07 -7.998606149321e-08 1.000000000000e-03 1.047197551197e-05 8.140848373682e-13 3.490647832871e-15 -3.031487591167e-13
306 2 1.291251099569e-02 3.309091357869e-03 1.830703561575e-03 -1.638588099786e-10 1.595245164997e-10 1.460046219193e-11 1.502173896644e-08 3.871404480996e-08 -5.823556250871e-08 1.000000000000e-03 1.047197551197e-05 7.498673101505e-13 -5.992014650589e-13 -5.074199153901e-13
307 2 1.307052912977e-02 4.135564046936e-03 7.146990265178e-03 -3.736720229830e-10 3.233611376794e-10 7.468451341701e-11 -2.370579006130e-08 -5.562650550686e-08 -3.643743363356e-08 1.000000000000e-03 1.047197551197e-05 8.135530315243e-13 -1.353079647986e-12 -9.710211908993e-13
308 2 8.775871927642e-03 5.092939238780e-03 9.816836568865e-04 -6.351978847977e-12 4.505937200348e-11 -3.043191022537e-11 -4.203910491792e-08 -1.413214529393e-08 7.296642695468e-08 1.000000000000e-03 1.047197551197e-05 4.881906411160e-14 -3.934458094127e-14 1.307180408132e-14
309 2 1.166091912900e-02 1.157325214338e-03 6.711299373122e-03 -3.621983233174e-10 3.470782511181e-10 6.710290000914e-11 -2.188092182504e-08 -2.688829324069e-08 1.599062021775e-08 1.000000000000e-03 1.047197551197e-05 1.696625047940e-12 -3.659788420350e-13 -5.927500136799e-13
310 2 1.017854617801e-02 1.446072082585e-03 2.708682970432e-03 -2.457440349441e-10 2.660985944911e-10 2.234506275383e-11 -1.546707915433e-08 1.248885688988e-09 -4.397344252734e-08 1.000000000000e-03 1.047197551197e-05 9.928823165113e-13 -1.991761601329e-13 -6.371151650557e-13
311 2 9.641413218142e-03 2.720232888728e-03 1.248110021425e-03 2.314444393985e-91 6.973287147464e-91 3.288345804266e-90 -1.152664526382e+03 4.090879621960e+02 -1.137567531874e+03 1.000000000000e-03 1.047197551197e-05 -2.316656638118e-92 -6.979952511132e-92 -3.291488944680e-91
312 2 1.319140559616e-02 2.351313454156e-04 2.844174608402e-03 -2.907968953090e-10 2.492781764282e-10 1.276607894457e-11 -1.164344282197e-07 -1.328938117961e-08 -2.538408245198e-08 1.000000000000e-03 1.047197551197e-05 4.321987564243e-13 -3.775805397436e-13 2.045277855267e-13
313 2 7.780118758113e-03 8.417373403640e-04 7.159263094208e-03 -4.137373141957e-10 4.064860874821e-10 1.176261038127e-11 -1.869866919004e-09 7.700311943410e-09 -1.057958706784e-08 1.000000000000e-03 1.047197551197e-05 8.930077548268e-13 -1.220258801119e-12 -7.026845127198e-14
314 2 6.546134507372e-03 4.876700751005e-03 1.439778052254e-02 6.546648509493e-10 1.085153646860e-09 -1.041005200137e-09 -6.548522443277e-08 -1.204791460507e-06 -4.889525193806e-06 1.000000000000e-03 1.047197551197e-05 2.627480048355e-12 -5.602999139949e-12 2.094006895076e-12
315 2 1.421467536710e-02 4.379747717776e-03 1.443935273263e-02 -2.939990571714e-11 5.063455222970e-11 2.077642272475e-11 1.138092958606e-07 1.440673664955e-08 9.728962752143e-07 1.000000000000e-03 1.047197551197e-05 -2.138574151844e-12 8.009024163638e-14 -1.069359684066e-12
316 2 7.027525673791e-03 1.668859094207e-03 1.194987008421e-02 -7.418798994391e-10 9.014512407643e-10 1.904133109308e-10 -2.992024556640e-07 5.517748324248e-07 -3.067410145183e-07 1.000000000000e-03 1.047197551197e-05 2.976730188382e-12 3.602122903566e-13 -7.236753126907e-13
317 2 1.255849920281e-02 1.358093103446e-03 1.034506854209e-02 -4.855907262251e-10 3.185261926873e-10 -7.128731637990e-12 1.843842710651e-07 1.578812545241e-07 1.394527883707e-07 1.000000000000e-03 1.047197551197e-05 -1.585532836931e-13 -1.008255788924e-12 -2.017759804806e-12
318 2 1.053871507184e-02 3.664876500860e-03 8.265328779202e-03 -4.429977915165e-10 3.122333973383e-10 4.437770075208e-12 3.708184809477e-09 -1.216217176122e-07 -4.263560805084e-08 1.000000000000e-03 1.047197551197e-05 5.013489605194e-13 -1.873450040343e-13 1.032917800654e-12
319 2 9.894551158543e-03 3.796149149799e-03 1.326051780585e-02 -4.293554509474e-10 1.518052804526e-10 -4.237253008971e-10 4.813698153750e-07 -4.498279743983e-07 -3.603482190813e-07 1.000000000000e-03 1.047197551197e-05 6.425456244231e-13 -9.741562944729e-13 3.689666034356e-12
320 2 9.480294815717e-03 4.974336522024e-03 1.458847070435e-02 -1.523530653683e-10 1.105131990202e-10 -6.397949160802e-11 8.562365139485e-08 -8.207635043771e-08 -9.739211383699e-07 1.000000000000e-03 1.047197551197e-05 7.148270958392e-13 -3.104671454922e-12 8.783149221250e-13
321 2 8.124475044296e-03 3.702299943508e-03 1.441780435999e-02 7.201981289060e-11 -6.193279872856e-10 1.162599962745e-11 -3.130874792164e-07 4.308063552647e-08 2.143855374033e-06 1.000000000000e-03 1.047197551197e-05 -2.723124753352e-13 -1.694646368915e-12 3.106231708708e-12
322 2 6.457692048777e-03 6.244686674648e-03 7.472784639679e-03 -4.431466221759e-10 4.265602214425e-10 -8.684054448194e-11 8.909923670165e-08 2.739829514267e-08 1.503812492150e-07 1.000000000000e-03 1.047197551197e-05 1.101948601993e-12 -7.715969596460e-13 -3.166187227844e-15
323 2 8.696105856724e-06 2.469120526280e-03 1.177499554104e-02 -4.404731278898e-10 3.890235214466e-10 -7.127261364923e-12 -6.955656229127e-08 1.611269062954e-07 -4.802609932104e-08 1.000000000000e-03 1.047197551197e-05 6.290638035423e-12 2.985188661167e-12 4.599901703077e-12
324 2 5.474412774213e-03 3.371557106994e-03 1.370707601816e-02 -1.347967547759e-09 4.585463157012e-10 9.261278353589e-10 -1.014765774346e-06 1.374359852878e-06 3.776753391732e-06 1.000000000000e-03 1.047197551197e-05 2.127669395183e-13 5.876550644324e-13 -5.217012114108e-12
325 2 7.675525986938e-03 4.281736740543e-03 1.075318466989e-02 -9.534547334820e-10 7.045304331980e-10 2.018002666024e-10 -1.848105817067e-07 -4.612810340797e-07 1.930880444747e-07 1.000000000000e-03 1.047197551197e-05 7.946257448249e-12 -5.709178164195e-12 -2.231224915891e-12
326 2 1.173238626143e-02 3.272335902253e-03 1.275934770355e-02 -4.219484316464e-10 7.210542560894e-11 -3.867130025522e-10 3.038169116928e-07 1.680798669244e-07 6.673815237952e-08 1.000000000000e-03 1.047197551197e-05 1.538578274797e-12 1.764075514458e-12 2.392713659996e-13
327 2 1.374375195466e-02 4.490532324727e-03 1.215457266456e-02 -4.968310302503e-10 2.504570986382e-10 9.011618183800e-11 -4.658122684566e-08 -9.770384274736e-08 7.377156921741e-08 1.000000000000e-03 1.047197551197e-05 7.113173108768e-13 1.718745604338e-12 3.667898159127e-14
328 2 1.456432940126e-02 6.717857856944e-03 9.418518558331e-03 -3.688987833742e-10 4.262976601353e-10 6.055634869448e-11 4.325889033963e-08 -4.525281034286e-08 -4.193326261025e-08 1.000000000000e-03 1.047197551197e-05 -5.498095730652e-13 -5.928475368145e-13 -9.814650982614e-13
329 2 1.105450819193e-02 6.125327326875e-03 1.061929172778e-02 -5.014714052256e-10 3.353760418759e-10 -2.244593529760e-11 1.631503112341e-07 -4.189084671910e-08 -1.400757465354e-07 1.000000000000e-03 1.047197551197e-05 2.519322164301e-13 5.586193038207e-14 -1.448836675743e-12
330 2 1.144129525536e-02 4.588713173540e-03 9.674778971845e-03 -5.666435592810e-10 3.614498583020e-10 -4.734734181045e-12 -1.289500265689e-07 -3.222180360623e-08 -2.931123220671e-09 1.000000000000e-03 1.047197551197e-05 6.067216779834e-13 3.078644099404e-13 -3.253721387564e-13
331 2 8.158333004804e-03 1.603329216564e-03 1.028126040440e-02 -7.378831479797e-10 4.199089383297e-10 -2.426025556493e-10 1.272789683170e-07 7.240323973373e-08 -4.811311206435e-07 1.000000000000e-03 1.047197551197e-05 -5.704995306697e-13 -2.344848342788e-12 -1.930652480177e-14
332 2 9.402724329763e-03 6.217220087852e-03 1.165180403862e-02 -4.702971719552e-10 3.981641609024e-10 -2.451511853690e-11 1.574197183822e-07 1.027727421952e-08 -8.918491414638e-08 1.000000000000e-03 1.047197551197e-05 -1.133117215715e-12 -1.542561776223e-12 -2.517052384353e-13
333 2 1.475356551046e-02 1.419814176417e-03 8.177872317203e-03 -3.972520874794e-10 4.204557396220e-10 6.500670255069e-11 1.364996468879e-07 -4.433350759102e-08 1.563857566973e-07 1.000000000000e-03 1.047197551197e-05 1.162944562448e-12 -7.843569017408e-13 2.135529589653e-14
334 2 1.413428206963e-02 2.432448158709e-03 9.722309304904e-03 -4.048133073623e-10 4.721087329959e-10 1.062412591435e-10 7.257497658784e-08 -7.077010047563e-08 7.694898811258e-08 1.000000000000e-03 1.047197551197e-05 -1.051944474905e-12 -2.027106641869e-12 -1.496968638724e-12
335 2 1.442111060418e-02 4.930468792617e-03 1.003114599022e-02 -4.465338577249e-10 4.314645240697e-10 1.070957940661e-11 2.071184336504e-08 8.444337375307e-08 -7.730374819215e-08 1.000000000000e-03 1.047197551197e-05 -1.175246351519e-13 -2.802131668540e-12 1.848530662902e-13
336 2 9.777799523022e-03 5.493102979774e-03 9.330069845137e-03 -5.325688786780e-10 4.112347991476e-10 -4.089066250535e-11 -1.057000504630e-07 7.133842150641e-08 9.057281641309e-08 1.000000000000e-03 1.047197551197e-05 3.707133831110e-13 -4.001320689485e-13 -2.990496977080e-13
337 2 7.213836798344e-03 2.987983546312e-03 9.196399822717e-03 -6.245998853491e-10 4.409577811317e-10 1.591026058593e-10 4.746668447007e-08 4.358308789129e-08 9.544645065558e-08 1.000000000000e-03 1.047197551197e-05 2.243222235537e-12 2.480847837178e-13 -1.031076045551e-12
338 2 1.527815656966e-02 5.152234442504e-04 1.449245352895e-02 5.407235855896e-11 -7.054758699352e-11 5.705841685027e-11 -5.129205546705e-08 -1.092147244947e-08 9.794716734896e-07 1.000000000000e-03 1.047197551197e-05 7.922844445591e-13 -2.802389546868e-13 -1.021898406811e-12
339 2 8.833129744241e-03 3.649772956014e-03 7.330242668165e-03 -4.202697014556e-10 3.732966538496e-10 5.801353664529e-11 1.853212375712e-08 1.448431309963e-07 -5.206918941828e-08 1.000000000000e-03 1.047197551197e-05 7.177625519811e-13 -7.929134321626e-13 7.777102151056e-13
340 2 1.204412817831e-02 1.666687559954e-03 1.380578594934e-02 -9.327633591332e-12 4.313887020770e-10 3.625820610196e-11 -8.852742497236e-07 2.288684784966e-07 1.656502020299e-07 1.000000000000e-03 1.047197551197e-05 -1.640968353668e-12 -2.271631183193e-13 1.751565774934e-12
341 2 6.538853478463e-03 5.509906825292e-03 9.285254651788e-03 -5.288207610059e-10 5.640855058704e-10 3.039845844384e-11 2.849024882672e-07 -8.437655686900e-08 3.709123713816e-08 1.000000000000e-03 1.047197551197e-05 6.780385604039e-13 -1.111179185261e-12 2.063102244650e-13
342 2 1.625031381016e-04 4.802899139875e-03 1.162427230047e-02 -5.766121883902e-10 3.522673337338e-10 6.372895593262e-11 7.174697267447e-08 1.299349348164e-07 7.915109056919e-09 1.000000000000e-03 1.047197551197e-05 7.111760459803e-13 -2.249484481733e-12 3.562327835558e-14
343 2 1.280723858637e-02 3.517388686773e-03 8.845243390297e-03 -4.602003741268e-10 3.687733938891e-10 8.967542601529e-11 -3.115630166864e-08 -2.694642511998e-08 8.896621050031e-08 1.000000000000e-03 1.047197551197e-05 3.784571976303e-13 -1.424115605795e-12 -1.215127403348e-12
344 2 1.096388529436e-02 5.224121516491e-03 1.356249787064e-02 -2.188335696886e-10 -8.934106413517e-11 3.378737393503e-11 1.488902712436e-07 2.597126563802e-07 2.797273908913e-07 1.000000000000e-03 1.047197551197e-05 9.311423452831e-12 -5.525163286369e-12 2.599853780932e-12
345 2 1.300187116306e-02 6.027054259048e-03 1.343666941917e-02 -5.836939544181e-10 2.622432533551e-10 4.671144261487e-11 -8.094890349394e-09 6.861349181549e-08 1.697568014416e-08 1.000000000000e-03 1.047197551197e-05 -4.558330238977e-14 -2.558812771830e-12 -1.546862857144e-12
346 2 1.098252935374e-02 2.857170869186e-03 1.040885599702e-02 -5.746130105643e-10 3.070673419544e-10 -8.587957355563e-11 3.101106303805e-07 9.848472653987e-08 2.554532676263e-08 1.000000000000e-03 1.047197551197e-05 1.538032705975e-12 -7.967544888964e-13 5.571499121879e-13
347 2 7.100541241318e-04 4.725048629749e-03 1.448304721891e-02 -1.469869549652e-10 2.098079066884e-10 3.793505664460e-12 1.458354128863e-07 5.953772077910e-08 -7.701043223535e-07 1.000000000000e-03 1.047197551197e-05 -3.866069884448e-13 2.051857177867e-12 5.997727482443e-13
348 2 7.527106260028e-04 5.918977755022e-03 9.996965691630e-03 -4.151050750483e-10 4.227224944629e-10 5.289049528853e-11 1.519713113662e-07 -8.848278376169e-08 5.796177372814e-08 1.000000000000e-03 1.047197551197e-05 -2.315458180914e-13 5.874722132824e-13 -1.636090750276e-12
349 2 7.328436977983e-03 3.658304867893e-03 1.253694295211e-02 -2.499222733579e-10 2.267839844913e-10 4.105859474462e-10 6.499159179504e-07 1.316161906031e-06 3.485093873275e-07 1.000000000000e-03 1.047197551197e-05 6.379768420607e-12 -3.682001747579e-12 -1.456165056543e-12
350 2 1.145105064672e-02 1.819405510249e-03 8.744834906851e-03 -1.407617622295e-08 -6.287078511578e-09 -2.333710040366e-08 -2.605602188811e+01 -5.147292136904e+00 2.044500989295e+01 1.000000000000e-03 1.047197551197e-05 2.488689066708e-11 1.111564760276e-11 4.126034739018e-11
351 2 6.496600235923e-03 1.325462794573e-03 8.495118240215e-03 -4.404711083091e-10 4.286295828975e-10 3.805604310456e-11 4.622940934367e-08 -8.467761634758e-08 -2.624865652737e-08 1.000000000000e-03 1.047197551197e-05 -1.038101878748e-13 1.885064800254e-13 -6.776707104983e-13
352 2 1.465409967478e-02 4.037148917397e-03 8.330471440242e-03 -4.576610357073e-10 3.919929934862e-10 9.837407575236e-11 -1.185031351121e-07 -5.248932693337e-08 2.069278129544e-08 1.000000000000e-03 1.047197551197e-05 2.391043465157e-12 -7.514114831566e-13 -1.559880790309e-12
353 2 1.233797285841e-02 4.464447099789e-03 1.449226487511e-02 -5.576342091636e-11 -3.172966628316e-10 -2.542801581503e-11 -3.237440843822e-07 4.551189372680e-09 -5.869598775903e-07 1.000000000000e-03 1.047197551197e-05 -1.538865003943e-11 5.425003587026e-12 -1.083396317392e-11
354 2 9.152164197373e-03 3.255865730020e-03 9.919088921674e-03 -6.622772244917e-10 3.066189866998e-10 1.436175140602e-10 2.995556404514e-07 6.513931321911e-09 2.189814709278e-07 1.000000000000e-03 1.047197551197e-05 1.422795780945e-12 -1.717609879541e-12 -5.901509939029e-13
355 2 8.630802834628e-03 2.055074797863e-03 8.436078701530e-03 -5.063718882533e-10 4.415569240621e-10 -4.082862716537e-12 2.207878377101e-08 -8.316655381229e-08 -3.214740888316e-08 1.000000000000e-03 1.047197551197e-05 1.837230029987e-13 -1.436681549173e-12 6.636051297227e-13
356 2 8.527214605532e-03 5.072222522852e-03 1.291567128466e-02 -2.394521573577e-10 3.890553464841e-10 -6.860877784116e-11 2.719971084023e-08 3.373886070430e-07 9.706098853737e-08 1.000000000000e-03 1.047197551197e-05 8.933979846837e-13 -2.682407043350e-12 -6.974927346404e-13
357 2 7.071107748374e-03 2.254190795906e-03 1.385576545900e-02 -7.991633907725e-10 -2.751052796961e-11 3.120362196250e-10 -8.230444605250e-09 3.370008034411e-07 -3.114622522289e-06 1.000000000000e-03 1.047197551197e-05 2.910718952030e-12 1.352019579597e-12 -2.381619942881e-12
358 2 1.270050040933e-02 3.722341398862e-03 1.066947173505e-02 -6.115927236806e-10 3.301063064248e-10 1.143513305683e-10 9.477298488162e-08 -1.039275927821e-07 1.393181576730e-08 1.000000000000e-03 1.047197551197e-05 2.136305285140e-12 6.786304684534e-14 -6.190433153352e-13
359 2 1.355025977216e-02 2.443965204961e-03 1.154797384024e-02 -5.450143575285e-10 3.044525194964e-10 8.612522517387e-11 5.619581613110e-08 -3.625108676101e-08 1.443032668884e-07 1.000000000000e-03 1.047197551197e-05 -2.334484218035e-13 -1.559070718669e-12 -1.797469603223e-12
360 2 1.010811471624e-02 4.469882420129e-03 1.113488027954e-02 -5.693838671699e-10 3.347444975960e-10 6.939199741436e-11 -2.680323079200e-07 7.993521956725e-08 -6.381040727393e-08 1.000000000000e-03 1.047197551197e-05 3.287736529689e-12 1.817556584789e-12 -2.671532538827e-13
361 2 1.379070066750e-02 2.918569443038e-03 1.324901857966e-02 2.514034442853e-10 1.140368183930e-10 2.189172909600e-11 1.827807859711e-07 9.461525327442e-07 1.608042180325e-07 1.000000000000e-03 1.047197551197e-05 1.015092393969e-12 -9.665099554038e-13 -1.400475560926e-12
362 2 8.572215169208e-05 2.863824540989e-03 1.444372084946e-02 1.676158202439e-10 2.732067343274e-11 -2.943174503220e-11 -5.793895802708e-08 -7.756845264769e-08 1.231197482588e-06 1.000000000000e-03 1.047197551197e-05 1.523157091999e-12 -3.803953608418e-13 1.924384128160e-12
363 2 1.384408816321e-02 1.784421252754e-03 1.458920832908e-02 1.705738774344e-10 -1.654371151254e-11 -6.496301900563e-11 -2.812652707171e-08 -1.582838942138e-07 -1.142907782482e-06 1.000000000000e-03 1.047197551197e-05 8.081492048990e-13 -2.185617577883e-13 -4.492382432046e-13
364 2 1.312799548276e-02 5.917513424918e-03 1.095997202532e-02 -4.188700270967e-10 3.605244907591e-10 7.240090039004e-11 1.063921148932e-07 -1.149143031618e-07 4.199313955283e-08 1.000000000000e-03 1.047197551197e-05 -6.367371931402e-12 -5.008512701965e-12 9.461370123782e-12
365 2 3.382505184240e-04 3.562628651613e-03 1.020261722801e-02 -4.650587714065e-10 4.270770006110e-10 -1.409625012179e-12 4.162573664517e-08 -1.433739165095e-07 1.193296076971e-07 1.000000000000e-03 1.047197551197e-05 1.048019025709e-12 -8.624414770791e-13 -3.026062796076e-12
366 2 8.116277031955e-03 6.137027254111e-03 1.016190297329e-02 -4.762130607701e-10 3.897156122431e-10 9.029502340915e-11 1.115276493304e-07 1.012004310172e-07 -5.783224113878e-08 1.000000000000e-03 1.047197551197e-05 -2.847562908814e-13 -2.111014641347e-13 5.820877026226e-13
367 2 1.492228326004e-02 5.649910032860e-03 1.323274633823e-02 -6.230299973867e-10 3.380736631186e-10 1.844849321221e-10 -6.613217490346e-08 -2.020071983402e-07 2.614698592704e-09 1.000000000000e-03 1.047197551197e-05 2.185969168281e-12 -6.340081688986e-13 1.963078787753e-13
368 2 1.302767202877e-02 1.532639757851e-02 1.439651533733e-02 -1.422463469822e-10 1.352037564823e-10 4.432305243768e-12 1.248317085241e-07 1.372652993227e-07 -2.775042731527e-07 1.000000000000e-03 1.047197551197e-05 7.784053185459e-13 -4.255974049563e-13 -1.223819140770e-13
369 2 1.192123104632e-02 5.056479320593e-03 1.202586111350e-02 -4.965401116517e-10 2.293608722972e-10 -6.807162061662e-11 7.324891846592e-08 4.637208315702e-09 -3.073176266544e-08 1.000000000000e-03 1.047197551197e-05 9.990953283125e-12 5.852588605642e-12 -5.632798006744e-12
370 2 1.099594375774e-03 4.640286791682e-03 8.801795603803e-03 -4.416184634737e-10 3.835353721315e-10 -2.894667005440e-11 -1.092105540148e-07 6.164915288131e-08 -1.535634976836e-07 1.000000000000e-03 1.047197551197e-05 3.488937883715e-12 -9.652561199402e-13 -4.088589689806e-13
371 2 8.166625667378e-03 4.609553940575e-03 8.922141812576e-03 -5.847053957361e-10 4.253431758296e-10 1.125505571974e-10 -1.294671615227e-07 -3.575658628509e-08 -1.739649201769e-07 1.000000000000e-03 1.047197551197e-05 3.236864001428e-12 -7.275242904186e-13 -3.929811605980e-13
372 2 1.365955106111e-02 9.909364467164e-04 1.284718625329e-02 -2.693784918216e-10 2.077987443350e-10 -4.336697172389e-12 7.853897137607e-08 1.793294846147e-07 7.200007621391e-08 1.000000000000e-03 1.047197551197e-05 2.121525014354e-13 -8.401274843134e-13 -6.039879323834e-15
373 2 1.022951604229e-02 7.854501445684e-03 2.754436269263e-03 9.988613874869e-12 1.852519223599e-10 -1.367206023703e-10 -1.765593460612e-07 -2.803996215401e-07 -1.498876440292e-07 1.000000000000e-03 1.047197551197e-05 -1.243187386386e-12 -6.473894815058e-13 8.420168082598e-13
374 2 8.410500514490e-03 8.827594250841e-03 8.702427835514e-04 -1.817491265023e-10 8.248247225818e-11 3.609481154162e-11 -6.991821064299e-08 -1.483963060650e-07 -1.167903186102e-07 1.000000000000e-03 1.047197551197e-05 -6.113511681732e-12 7.722691205235e-12 6.243954925082e-13
375 2 9.329663078624e-03 1.251745234390e-02 2.668053962246e-03 -1.951433221172e-10 3.253003521425e-10 4.655832314756e-11 1.434164286599e-07 -2.176946754863e-08 9.391938826070e-08 1.000000000000e-03 1.047197551197e-05 -4.450931636452e-14 7.378827907531e-14 -1.018493029958e-12
376 2 1.482409272813e-02 1.289841153838e-02 4.420984679465e-03 -2.461497107651e-10 2.904101816243e-10 5.729867678659e-12 -8.698163874579e-08 4.304906907278e-08 1.660969617830e-08 1.000000000000e-03 1.047197551197e-05 1.367100890657e-13 -2.297288029302e-13 -5.708118065791e-13
377 2 1.101782151095e-02 9.823605636856e-03 4.666868738903e-03 -2.356692233431e-10 2.896305119104e-10 2.817965107284e-11 5.586332032203e-08 -5.787071341666e-08 1.623297287200e-08 1.000000000000e-03 1.047197551197e-05 1.477691618455e-13 -4.364261074084e-13 -2.233095879270e-13
378 2 1.513223404411e-02 6.071001288853e-04 2.971998918659e-03 -3.082445546028e-10 1.088590165058e-10 1.261652516378e-10 -6.808361459272e-08 -1.129864470173e-07 -1.187109652242e-07 1.000000000000e-03 1.047197551197e-05 -2.590667731742e-13 -8.638551497690e-13 -4.289966667068e-13
379 2 9.551852345253e-03 9.420528401457e-03 2.254527593364e-03 -2.258594829142e-10 1.001064205468e-10 -4.716315551617e-12 3.000538279142e-07 3.129967449981e-07 4.428770262938e-07 1.000000000000e-03 1.047197551197e-05 -4.630569535266e-13 9.976723410248e-13 3.180583673168e-13
380 2 9.152903947791e-03 5.448865209647e-04 1.456820083479e-03 -2.475714681007e-10 2.269617112017e-10 4.111041584630e-11 -7.172990512944e-08 -2.711344659461e-08 1.097344893992e-08 1.000000000000e-03 1.047197551197e-05 1.930584550173e-12 -3.077694498518e-12 2.949796097600e-12
381 2 1.531405413245e-02 9.721224317928e-03 2.450864870241e-03 -1.570070240752e-10 2.371886919708e-10 -1.077716222753e-11 -1.798324929082e-07 -1.142300624042e-07 9.290825287165e-08 1.000000000000e-03 1.047197551197e-05 6.328602539722e-13 -4.994756904011e-13 -1.876731507676e-13
382 2 1.026751491847e-02 1.116045750722e-02 3.591395853146e-03 -1.691380157311e-10 2.848692350217e-10 1.466892518863e-11 -3.687560590107e-08 -3.129185082299e-08 -2.258068164116e-08 1.000000000000e-03 1.047197551197e-05 1.053476244563e-13 -7.653854665629e-13 4.351433107365e-15
383 2 5.654030564232e-04 3.543549443416e-04 6.909789208672e-03 -2.589178523587e-10 3.095669039703e-10 -1.049981969457e-10 -1.065174848273e-07 -7.210640942819e-08 3.360286196831e-08 1.000000000000e-03 1.047197551197e-05 1.033518628903e-12 -8.524424274583e-14 4.036148878509e-13
384 2 1.465282264321e-02 6.766621063289e-03 2.579725046870e-03 -1.879508569584e-10 2.028179673423e-10 1.869013065275e-11 -1.912163490968e-07 -3.860560325132e-09 1.312488310484e-08 1.000000000000e-03 1.047197551197e-05 1.441761467020e-12 -1.875497079599e-13 -1.292782594536e-13
385 2 1.115462713714e-02 2.494806799716e-04 8.307348408893e-04 -1.866406752070e-10 1.437260558406e-10 2.820766497886e-12 -1.469917496126e-07 -1.896094833848e-07 7.007210998181e-08 1.000000000000e-03 1.047197551197e-05 1.398187255909e-12 -4.084994462629e-13 2.884093062592e-13
386 2 6.905922582290e-03 1.185848118633e-02 5.449970811531e-03 -3.157663880348e-10 4.031800393560e-10 -5.855638314280e-12 1.930005357165e-08 -1.107299760230e-07 -5.943678058997e-08 1.000000000000e-03 1.047197551197e-05 -3.814535883325e-13 -1.607838796711e-12 -3.122941918162e-13
387 2 1.416872348338e-02 9.461515034822e-04 6.432627055592e-03 -3.210601249248e-10 3.677304382623e-10 5.448014144951e-11 -6.177153070395e-08 1.430019775438e-08 6.671398203542e-08 1.000000000000e-03 1.047197551197e-05 9.045022105823e-13 -8.919314913887e-13 -3.653179019065e-13
388 2 6.299390187758e-03 1.075881533898e-02 4.056668821462e-03 -1.926052421879e-10 1.954142148046e-10 8.524648697373e-11 -2.206614918612e-07 7.868130209706e-08 1.965586631266e-07 1.000000000000e-03 1.047197551197e-05 5.845220979700e-13 2.039462196079e-14 -1.843977180654e-12
389 2 8.208092228542e-03 1.267534214042e-02 4.264181091658e-03 -1.985084789796e-10 2.749900253962e-10 5.198430941628e-11 -3.399003658351e-08 -1.118137966828e-08 -9.388827559851e-08 1.000000000000e-03 1.047197551197e-05 3.228709781551e-13 -1.700938041552e-12 -2.417242931886e-12
390 2 1.156860261571e-03 7.735462847657e-03 6.248960765569e-03 -3.334014887103e-10 2.405451617945e-10 -1.322951159900e-11 -2.584861285860e-08 -1.783034097623e-07 -5.661597858096e-08 1.000000000000e-03 1.047197551197e-05 1.232399096843e-12 -1.081412370083e-12 -2.881465862500e-13
391 2 1.163470011892e-02 1.232313085622e-02 2.902545102742e-03 -2.416462152367e-10 3.064105486403e-10 7.100747098236e-11 3.662551364394e-08 -6.302901329209e-09 8.528908651952e-08 1.000000000000e-03 1.047197551197e-05 -3.711899360366e-13 -6.484995248481e-13 8.450272226444e-14
392 2 1.201194378442e-03 1.422262587869e-02 2.928807072343e-03 -1.215200942246e-10 2.211989385358e-10 -1.094297296402e-10 -2.337448344843e-07 1.331258050452e-07 -1.394440651916e-07 1.000000000000e-03 1.047197551197e-05 -1.462803401967e-12 -3.512118581884e-14 -1.800793936393e-13
393 2 1.231344893046e-02 1.145240728774e-02 1.149126013496e-03 -2.376535625362e-10 1.183402929551e-10 -1.152955122876e-11 5.066370753861e-08 2.653447702410e-07 -1.885508748834e-07 1.000000000000e-03 1.047197551197e-05 5.883957288224e-13 -2.413942536355e-13 2.940481972515e-13
394 2 8.750273150811e-03 1.470753360856e-02 4.774415758365e-03 -2.449282867909e-10 3.740182557432e-10 6.538877443803e-11 -3.241442720036e-08 3.065704675729e-08 -5.619346569255e-08 1.000000000000e-03 1.047197551197e-05 3.970487672892e-14 1.662264009185e-13 -1.276695772166e-12
395 2 8.513490258435e-03 1.306730178978e-02 9.569087558777e-04 -1.165044358089e-10 1.459515852358e-10 6.935699625561e-11 -1.121220805273e-07 -9.729238085799e-08 2.143746257294e-07 1.000000000000e-03 1.047197551197e-05 7.470164912836e-13 2.336404538234e-13 -2.052011710238e-12
396 2 1.007287178979e-02 2.595129358227e-04 6.251083536740e-03 -3.553759956454e-10 3.202757900804e-10 7.361302965974e-11 -6.750544930548e-08 -1.136276897352e-08 1.181394711137e-08 1.000000000000e-03 1.047197551197e-05 1.023741731733e-12 2.840541630942e-13 -2.441183155265e-13
397 2 7.664689985494e-03 1.502934726073e-02 8.641755506178e-04 -1.153199433708e-10 7.987489517605e-11 2.667702223225e-11 -9.392267763559e-08 -1.140143348161e-07 7.909683815546e-08 1.000000000000e-03 1.047197551197e-05 -2.243715296995e-13 -1.950071511674e-12 2.470993202596e-12
398 2 1.510347409115e-02 1.447215492171e-02 1.752130598268e-03 -1.509634482287e-10 1.823088795540e-10 1.844353290101e-11 2.207120404031e-07 -1.683220880146e-08 2.088680993346e-07 1.000000000000e-03 1.047197551197e-05 -1.346539110264e-12 -1.030965089419e-12 3.682843055247e-13
399 2 1.217313469823e-02 1.441798891374e-02 3.995453070144e-03 -2.645509072576e-10 2.808158884953e-10 1.592881755700e-11 5.534361361476e-08 -2.585967663531e-08 6.652583444812e-08 1.000000000000e-03 1.047197551197e-05 -4.380977239469e-14 -1.020877490485e-12 -3.375696256717e-13
400 2 7.632950875676e-03 1.251701713370e-02 7.119352577394e-03 -3.749082443947e-10 3.668668454669e-10 4.056063736289e-11 -2.076696757734e-08 2.319652344030e-08 -1.987229928020e-08 1.000000000000e-03 1.047197551197e-05 7.504864581161e-13 -1.055139666660e-12 2.402847348206e-13
401 3 9.798107610295e-03 1.106841789296e-02 1.103727598270e-03 -3.542823034773e-10 2.014280585307e-10 6.461783363889e-11 -1.440357294701e-07 -2.748862964232e-07 -2.085163662131e-07 1.250000000000e-03 2.045307717181e-05 3.154090331205e-12 -1.385619997748e-12 -2.970822033653e-13
402 3 8.282934539712e-03 1.032590651671e-02 3.669287914529e-03 -1.578354476388e-10 3.217940655514e-10 7.787116888407e-13 5.492600657327e-08 1.262850462201e-08 -8.914556662972e-09 1.250000000000e-03 2.045307717181e-05 -6.058637469515e-13 -8.356590441328e-14 8.381828427093e-14
403 3 1.197539311172e-04 1.090671515355e-02 4.108374138795e-03 -2.605599663387e-10 3.156880912042e-10 -3.476569605522e-11 7.623736494679e-08 4.460873999467e-08 4.704591151226e-09 1.250000000000e-03 2.045307717181e-05 1.093777321799e-12 -8.418000887268e-13 -1.127354823445e-12
404 3 1.450281362699e-02 1.167702663962e-02 1.195039511462e-03 -2.430036651548e-10 1.413764404998e-10 -1.236739775623e-11 -1.023364495269e-07 -2.087036128625e-07 1.811320389342e-07 1.250000000000e-03 2.045307717181e-05 7.448999305041e-14 1.052074395605e-12 -1.198121018273e-12
405 3 9.163541046709e-03 8.686256179763e-03 5.002540700508e-03 -2.298510591129e-10 3.021789627661e-10 -1.458581880520e-11 -6.064913658333e-09 -1.801429158018e-08 -3.507670233624e-08 1.250000000000e-03 2.045307717181e-05 -6.226634501831e-14 -2.006028348088e-12 6.195561897851e-13
406 3 8.224390676953e-03 1.432319613848e-02 2.750898501110e-03 -2.847770417175e-10 2.688509338588e-10 9.595866369933e-11 -4.953829544413e-08 5.612365980701e-09 -6.829208174791e-09 1.250000000000e-03 2.045307717181e-05 -1.423740472927e-12 3.068163065529e-12 -9.462158857481e-12
407 3 6.600337031314e-04 8.094102548580e-03 3.715078949869e-03 -1.976826085911e-10 2.925782677002e-10 4.050081021585e-11 1.106661024879e-07 -2.077700848813e-08 -1.709430091677e-08 1.250000000000e-03 2.045307717181e-05 1.693214581500e-12 -1.341536146963e-12 1.047909321681e-12
408 3 1.423403420791e-03 1.142009974947e-02 5.974744370819e-03 -2.601940566098e-10 3.125251198732e-10 -2.609596651403e-11 -4.021334972800e-08 -2.494807999485e-08 2.930491546563e-08 1.250000000000e-03 2.045307717181e-05 1.818320923282e-12 -1.466417047881e-12 -1.460751063895e-12
409 3 6.930642109997e-03 8.921680268487e-03 2.406571037757e-03 -2.121368020306e-10 2.989914034032e-10 3.511449691707e-11 -8.980466814711e-08 3.776946393344e-08 -2.702100997525e-09 1.250000000000e-03 2.045307717181e-05 1.208468482172e-12 -1.425684502417e-13 8.152659937512e-13
410 3 1.088015065879e-02 1.312115655172e-02 1.088609289132e-03 -1.624758216942e-10 1.517741000803e-10 2.691592717574e-11 -9.842783298735e-08 -1.193669043499e-07 6.359394053627e-08 1.250000000000e-03 2.045307717181e-05 -4.076278335215e-13 1.279651300682e-13 -7.550009615505e-14
411 3 1.060428571880e-02 1.479179661144e-02 2.618891639385e-03 -2.905273162469e-10 2.471603148410e-10 1.661354964122e-11 1.516320482765e-08 3.162354667505e-08 -4.129182570371e-09 1.250000000000e-03 2.045307717181e-05 2.187264257560e-12 -5.012002858581e-14 -4.696491476172e-13
412 3 1.036316035624e-02 1.327596812952e-02 4.427842276712e-03 -2.674981849378e-10 2.833068899733e-10 5.936789199610e-11 -4.719904510442e-08 1.375360364374e-08 -2.503977511965e-08 1.250000000000e-03 2.045307717181e-05 8.460644552165e-13 -2.442370374952e-12 -1.018110800891e-12
413 3 6.914092628622e-03 8.382793521072e-03 5.928097111531e-03 -2.873078258929e-10 4.035787895986e-10 1.684570637233e-11 6.395307071031e-08 1.250639592950e-08 -5.621873666606e-08 1.250000000000e-03 2.045307717181e-05 1.112752546307e-12 -3.634477489204e-12 -2.899392096303e-13
414 3 1.353183353824e-02 1.332780956179e-02 2.684947414496e-03 -2.124463078780e-10 1.651500253882e-10 1.870239758889e-11 -1.308526370459e-07 -8.115055797941e-10 -1.485551840803e-07 1.250000000000e-03 2.045307717181e-05 2.367178748333e-13 -1.046971315139e-12 -8.644117521587e-13
415 3 1.245679443579e-02 1.309770447946e-02 5.640533670196e-03 -2.875570356224e-10 3.069290935693e-10 3.978990360217e-11 -4.732304476657e-08 -8.534427215870e-09 3.007280104359e-09 1.250000000000e-03 2.045307717181e-05 9.530763830570e-13 -2.044270632513e-12 -4.602524898462e-13
416 3 6.235242145011e-03 1.277505099392e-02 1.139157119954e-03 -6.912621169444e-11 1.138649491251e-10 6.278359014438e-12 -6.418663209195e-08 -3.162323605361e-08 -9.990903623801e-08 1.250000000000e-03 2.045307717181e-05 -7.751363248311e-13 -1.352919057159e-12 2.793528920042e-13
417 3 1.412870400513e-02 1.489064404155e-02 4.731298807255e-03 -2.645426449834e-10 2.969288522220e-10 1.694734720770e-11 4.750188535569e-08 5.816485621058e-08 1.141645430757e-08 1.250000000000e-03 2.045307717181e-05 -1.166352757025e-13 -6.014363753175e-13 -2.277279687570e-13
418 3 1.352656331880e-02 9.506700895997e-03 1.113026048140e-03 -1.093983552350e-10 6.989488564416e-11 -1.022520798664e-11 -4.422428376963e-08 -7.439554779597e-08 -7.783677815073e-08 1.250000000000e-03 2.045307717181e-05 1.275218178354e-12 -7.570388830621e-13 -7.670896763638e-13
419 3 9.958283647919e-03 1.139670803072e-02 5.813138083850e-03 -2.852357995979e-10 3.071646043701e-10 7.363493558244e-11 1.883124379194e-08 2.434756412237e-08 -1.807132471657e-08 1.250000000000e-03 2.045307717181e-05 1.742836036047e-12 -2.310382896478e-12 1.298814707516e-13
420 3 1.166828818262e-02 9.866829115374e-03 2.564794555966e-03 -1.960893313540e-10 2.108191707011e-10 3.613926200074e-12 5.823825239040e-09 3.922567334248e-08 -3.854529945825e-08 1.250000000000e-03 2.045307717181e-05 -4.273527718365e-13 -8.604858115544e-13 -1.485498083117e-12
421 3 1.384348103546e-02 9.112414160433e-03 3.808483646129e-03 -2.334953464963e-10 2.988839160502e-10 -2.405660831714e-11 -3.962867452901e-08 -2.103044393209e-08 2.207695428749e-08 1.250000000000e-03 2.045307717181e-05 2.496853482567e-12 -7.406253591048e-13 -1.189045518778e-12
422 3 9.294090363605e-03 1.366822159133e-02 6.557893908106e-03 -3.210028423196e-10 3.405522790318e-10 7.845173313085e-11 2.200284573230e-08 -5.417406697866e-08 6.478073231690e-09 1.250000000000e-03 2.045307717181e-05 1.681536734592e-12 -9.766381418630e-13 8.871808631644e-14
423 3 1.183660153999e-02 7.931229399671e-03 4.086733192419e-03 -2.124996794564e-10 2.732231531616e-10 3.717630326110e-11 -5.399492985443e-08 6.688667113344e-09 4.780455233442e-10 1.250000000000e-03 2.045307717181e-05 1.192624505240e-13 -1.908578097567e-12 -1.463593971596e-12
424 3 5.255521222133e-04 1.366273168403e-02 6.171539939796e-03 -2.526042837230e-10 3.053869619284e-10 -2.830864618146e-11 1.295008846616e-08 -1.607208918704e-08 -3.809562540653e-08 1.250000000000e-03 2.045307717181e-05 -3.313286336869e-14 -2.550332482343e-12 -5.495891099260e-13
425 3 1.038169067323e-03 2.408951833768e-04 4.792570546064e-03 -2.467092335821e-10 2.503373382264e-10 -1.161018068457e-10 2.782672283693e-08 6.128748737226e-08 -3.463574645760e-08 1.250000000000e-03 2.045307717181e-05 9.599154577748e-13 -9.732572938700e-14 2.179117418145e-12
426 3 1.303696883609e-02 1.130548874680e-02 4.187937920192e-03 -2.612107740807e-10 3.062037947961e-10 2.032753287568e-11 7.153490866027e-08 -3.558745896769e-08 -7.159705824955e-09 1.250000000000e-03 2.045307717181e-05 6.959781569400e-13 -1.959132792400e-12 -5.929173827054e-13
427 3 7.977894507373e-03 1.034993693627e-02 6.819985363928e-03 -3.079969260726e-10 3.847788951564e-10 9.843527827158e-11 -2.165840516796e-08 -4.883464784897e-08 6.052073114523e-08 1.250000000000e-03 2.045307717181e-05 -6.196042341033e-15 -1.650989173647e-12 1.312796121865e-13
428 3 1.455233957239e-02 1.435839579765e-02 1.305975982380e-02 -2.269168606304e-10 2.661060392246e-10 -9.621418454723e-12 -6.054969210248e-08 -1.361629350348e-07 -4.172618831136e-09 1.250000000000e-03 2.045307717181e-05 1.192133920223e-12 -8.347538554663e-14 1.001026094176e-13
429 3 9.498550035266e-03 1.095279614062e-02 1.082330245957e-02 -4.579437430340e-10 3.708934710616e-10 8.242765424607e-11 -1.948214719523e-07 1.051124083204e-08 -1.139297490270e-07 1.250000000000e-03 2.045307717181e-05 3.217895414553e-12 -7.585576807691e-13 -5.194198437147e-13
430 3 1.445032679041e-02 7.645493701053e-03 1.401440594917e-02 -5.417480469545e-10 3.727042794051e-10 -9.263520506376e-11 -6.855850214639e-08 -3.460874498297e-07 -2.663878892790e-07 1.250000000000e-03 2.045307717181e-05 -3.704809857561e-13 1.286525872393e-12 1.616095259770e-12
431 3 1.279437608293e-02 1.131849209912e-02 1.226587792598e-02 -3.260090421694e-10 3.812055812140e-10 3.035629362142e-11 9.465231147875e-08 8.701277020695e-08 -7.847216314322e-08 1.250000000000e-03 2.045307717181e-05 1.786558054960e-14 -4.740152922260e-13 3.893769999760e-13
432 3 8.243187695394e-03 6.687028689878e-03 1.434941719378e-02 -1.803453944096e-10 5.491270416826e-11 -5.638191091117e-11 3.194207640491e-08 7.057942625824e-08 3.271637961605e-07 1.250000000000e-03 2.045307717181e-05 3.898306080346e-13 -4.110908483170e-13 -2.218082236754e-14
433 3 6.959651506082e-03 1.445015670296e-02 7.757013946230e-03 -3.631336623354e-10 3.932741650711e-10 4.991269135131e-11 -2.548610147877e-08 5.226833302134e-08 3.176273785549e-08 1.250000000000e-03 2.045307717181e-05 3.588188309569e-12 -6.568239506214e-13 -4.502552988278e-14
434 3 1.503407846622e-02 1.099662198236e-02 1.025938319093e-02 -3.764034871443e-10 3.478560474676e-10 3.063048578616e-11 3.839566547483e-08 -2.157238430171e-08 -6.687475968898e-08 1.250000000000e-03 2.045307717181e-05 3.345726235315e-15 -3.182759373454e-13 5.716570116207e-13
435 3 6.999422618119e-04 7.797994415696e-03 8.385165998427e-03 -3.941135208419e-10 3.295013323766e-10 -4.580183230478e-11 -1.320176775023e-08 1.611056744909e-07 -7.742608023067e-08 1.250000000000e-03 2.045307717181e-05 3.738244573463e-12 -5.770631148537e-13 -1.499576119590e-12
436 3 9.632147316639e-03 1.259411696955e-02 1.417503113072e-02 -2.460994755314e-10 2.055173378454e-10 2.162085113258e-11 -1.629087250465e-07 -8.200564889630e-08 1.604001542545e-07 1.250000000000e-03 2.045307717181e-05 1.894017409733e-12 6.400166286211e-13 1.244798760565e-12
437 3 7.514220987785e-03 1.237788966839e-02 1.056070074544e-02 -3.547192913519e-10 3.269564837169e-10 3.883841575924e-11 -8.350671497036e-10 8.497113091486e-08 4.488527417888e-08 1.250000000000e-03 2.045307717181e-05 -3.054317025945e-12 -2.867904461351e-12 4.272523002902e-13
438 3 9.374829445297e-03 9.289071038333e-03 9.129584252972e-03 -4.613353445808e-10 2.704304230822e-10 7.388198743769e-11 2.987829546072e-08 -3.323589194671e-08 1.776540050143e-08 1.250000000000e-03 2.045307717181e-05 2.332601843319e-12 -1.495265625622e-12 2.839975432361e-13
439 3 8.299092325377e-03 6.524978539348e-03 5.666425900572e-03 -2.814710523075e-10 3.339522220666e-10 -3.521383680746e-11 1.935201948428e-09 -3.361749445417e-08 1.637691945711e-08 1.250000000000e-03 2.045307717181e-05 3.942203607165e-13 -1.723955710360e-12 1.003333303101e-12
440 3 1.252339756020e-02 1.279795669383e-02 8.609290830841e-03 -3.672535084581e-10 3.203392238612e-10 3.998171597403e-11 2.633657741785e-08 -1.913535578456e-08 -2.470373086022e-09 1.250000000000e-03 2.045307717181e-05 1.306100185695e-12 -4.882474808881e-12 -3.814740492717e-12
441 3 9.129753643415e-04 6.826759661085e-04 1.267264004657e-02 -2.450030638279e-10 3.720327464039e-10 -9.303126252713e-11 -1.799195899441e-08 2.234199578276e-07 3.930088323868e-08 1.250000000000e-03 2.045307717181e-05 9.498318015737e-13 2.143216799584e-12 1.372363946440e-12
442 3 1.147418041323e-02 1.449796324427e-02 7.379404124671e-03 -3.425411082189e-10 3.546243972465e-10 8.423768174905e-11 1.357747961525e-08 3.625521806651e-08 -1.071913043557e-08 1.250000000000e-03 2.045307717181e-05 3.563848779578e-12 -3.063188640385e-12 -1.339423797378e-12
443 3 8.845932830620e-03 7.620260218791e-05 1.200692251752e-02 -5.489995846357e-10 3.795872559533e-10 5.949171145537e-11 -2.283934044283e-07 4.763583964132e-08 7.689397634237e-08 1.250000000000e-03 2.045307717181e-05 8.690484004419e-13 2.601359865771e-14 -1.051369174077e-13
444 3 1.494176896248e-02 9.277080930798e-03 6.002087142515e-03 -2.873117758131e-10 3.153687895918e-10 -4.104972361682e-11 4.897383556208e-08 6.849675367080e-09 1.101946060375e-08 1.250000000000e-03 2.045307717181e-05 1.756628420639e-12 -1.863929688176e-12 -1.746035011523e-12
445 3 6.592725730958e-03 1.143390774728e-02 8.528279059550e-03 -3.873673927541e-10 3.893329025513e-10 6.766235405365e-11 1.217941899238e-08 -8.636449379210e-09 -3.081613608179e-08 1.250000000000e-03 2.045307717181e-05 3.833841570201e-13 -1.202060300941e-12 -3.515386447563e-13
446 3 8.066003417041e-03 1.462040805204e-02 9.942761855915e-03 -5.214135129582e-10 3.506779965060e-10 5.756286169032e-11 1.743952569927e-07 -7.145462491019e-08 -3.597534092903e-08 1.250000000000e-03 2.045307717181e-05 -2.456414218273e-13 2.654546727931e-12 -8.997223767523e-13
447 3 6.152823776474e-03 7.875641262091e-03 8.847302161163e-03 -3.895627509719e-10 3.684734317063e-10 -8.344958772931e-12 2.798362860767e-08 -7.361812737390e-09 -1.459416935276e-07 1.250000000000e-03 2.045307717181e-05 3.978923251701e-12 5.727818765508e-13 6.890604923618e-13
448 3 1.219834164252e-02 1.320643533918e-02 1.374521010415e-02 -1.409607563397e-10 2.558781837659e-10 3.884010547318e-10 1.891350237532e-07 1.025099159501e-07 8.566745280840e-09 1.250000000000e-03 2.045307717181e-05 -1.245544303411e-13 -6.609701026336e-13 -1.692898523491e-12
449 3 6.162762159528e-03 8.384389175334e-03 1.143800422290e-02 -4.823383200604e-10 1.946220187698e-10 7.645123066374e-11 8.453984312425e-08 9.394223415434e-08 1.009915758228e-08 1.250000000000e-03 2.045307717181e-05 5.502441705715e-13 1.086170384085e-12 6.630555217954e-13
450 3 1.386533672941e-02 1.152933218094e-02 1.426252068940e-02 -1.014960793448e-10 1.431032196220e-10 3.048244266986e-11 7.059169632095e-08 4.731347783332e-08 -1.564974686799e-08 1.250000000000e-03 2.045307717181e-05 2.024781263494e-13 4.955214996366e-13 -4.674263152738e-13
451 3 8.344792789326e-04 1.214814846142e-02 1.205155874101e-02 -3.115687492680e-10 3.596109612970e-10 -6.533577623767e-11 -1.386918857684e-07 3.900912821573e-08 -8.575836221435e-08 1.250000000000e-03 2.045307717181e-05 -2.112601530317e-12 -8.396012468705e-13 5.036572908006e-12
452 3 1.399709207487e-02 1.301740252091e-02 1.099386895083e-02 -3.342760971867e-10 3.626841983413e-10 -8.489396667331e-11 -1.324792628771e-07 -1.295740737437e-08 2.283519687605e-08 1.250000000000e-03 2.045307717181e-05 5.757257723376e-13 -1.960267148072e-12 2.597825036195e-12
453 3 1.121168141330e-02 7.022098778723e-03 1.258412589280e-02 -5.242967011802e-10 2.081026083210e-10 4.365687548003e-11 -1.120724897991e-08 -6.101985734906e-08 -4.276826927482e-09 1.250000000000e-03 2.045307717181e-05 5.930100944060e-12 -8.524203317626e-13 1.579934126008e-13
454 3 1.437158968177e-02 1.168968450203e-02 6.239692918520e-03 -2.797093920705e-10 3.062158770364e-10 1.852962680765e-11 -3.461416915830e-08 4.820894602099e-08 -1.187842212662e-08 1.250000000000e-03 2.045307717181e-05 1.485380057833e-12 -2.949444112347e-12 4.361973964742e-13
455 3 1.212995792791e-02 8.543385993433e-03 1.419905571283e-02 -4.525496715522e-10 2.181338299507e-10 4.431682388730e-12 1.684506985799e-07 3.722385887050e-07 2.478019969628e-07 1.250000000000e-03 2.045307717181e-05 1.335086034327e-12 -4.247568147099e-12 -1.780229980037e-13
456 3 1.257226199444e-02 1.002844231233e-02 1.036877372478e-02 -4.547907779879e-10 3.512659621205e-10 1.370137535541e-11 -8.642990478503e-08 -2.173915506156e-08 7.152338157047e-09 1.250000000000e-03 2.045307717181e-05 4.445414417783e-13 -9.166610862270e-14 1.777668086968e-13
457 3 1.464968001799e-02 6.256884674843e-04 1.087657099106e-02 -4.312789897323e-10 4.107887025286e-10 2.286114832544e-11 6.056234695605e-08 -5.315938495692e-08 -1.503741188142e-08 1.250000000000e-03 2.045307717181e-05 2.266051148835e-13 -4.056955959491e-12 -4.493325676448e-12
458 3 1.548735501062e-03 7.822440561237e-03 1.428343566883e-02 -6.290058180738e-10 2.914877823321e-10 -9.520761956862e-11 2.667233409895e-07 4.691494761456e-07 -1.742209923371e-07 1.250000000000e-03 2.045307717181e-05 2.997188353446e-12 -1.064430894275e-12 3.149466216276e-13
459 3 6.758335535246e-03 6.285333527985e-03 1.253207603493e-02 -5.899271065608e-10 5.351192625290e-11 1.522761556569e-11 7.796423279116e-08 3.476504451964e-07 -8.861322708550e-08 1.250000000000e-03 2.045307717181e-05 -2.240515262721e-12 -1.707534332331e-13 9.119593260121e-13
460 3 1.431526003412e-02 8.770606477588e-03 9.647698476806e-03 -3.769784069088e-10 3.913530556621e-10 6.022929976698e-11 -5.666697555703e-08 2.377395425784e-08 8.620765425239e-08 1.250000000000e-03 2.045307717181e-05 5.433826215702e-13 -1.777775741403e-13 -2.966556800608e-13
461 3 2.552530154954e-04 1.487903256522e-02 8.821110903684e-03 -3.311179551492e-10 4.115823490122e-10 -3.745754139412e-11 -3.151152419790e-09 -1.253922447528e-08 6.496392765777e-09 1.250000000000e-03 2.045307717181e-05 -2.250923208395e-13 -1.397946098182e-12 9.727577404522e-14
462 3 1.490907452866e-02 1.260635181990e-02 8.546690804472e-03 -3.162945380606e-10 3.417566736054e-10 3.490926829725e-11 -6.037973829053e-08 3.532123295332e-10 1.439700569497e-08 1.250000000000e-03 2.045307717181e-05 7.117003610138e-13 -1.933959927984e-12 -1.809379507248e-12
463 3 1.159338677350e-02 1.279654797921e-02 1.092204703559e-02 -3.252245513029e-10 3.314123339033e-10 -4.490441232507e-11 -2.678231707604e-07 8.811139854980e-09 -1.407627924252e-08 1.250000000000e-03 2.045307717181e-05 -6.376648719530e-13 1.189664632699e-12 9.507656816064e-13
464 3 9.461889054795e-03 1.085859406016e-04 8.245634963315e-03 -4.277033899066e-10 4.462587042580e-10 9.976722190659e-11 -7.699452209580e-08 -4.359538726441e-08 3.694407925817e-08 1.250000000000e-03 2.045307717181e-05 7.917502453405e-13 4.321872237960e-13 8.493754261325e-14
465 3 1.085027266039e-02 1.518747668583e-02 1.379280659642e-02 -7.183760690023e-11 3.981127218411e-10 2.380486695035e-10 9.951859640712e-08 -7.539676909571e-07 -1.346703054815e-07 1.250000000000e-03 2.045307717181e-05 -1.134918166089e-12 -3.729348450613e-12 2.791155445251e-13
466 3 1.304093042635e-02 8.096497149566e-03 1.177251078543e-02 -4.622389395697e-10 3.589106386285e-10 1.292740080463e-10 5.713217146466e-08 -2.355297045448e-08 5.459175496299e-08 1.250000000000e-03 2.045307717181e-05 -1.734758953099e-14 -3.863906937612e-12 2.650768344296e-12
467 3 1.049522575339e-02 1.476512661248e-02 1.025683077720e-02 -3.991347576409e-10 2.887207935187e-10 2.157946293513e-11 2.644715749757e-07 1.042688294209e-07 1.787681670411e-08 1.250000000000e-03 2.045307717181e-05 2.390521849583e-12 -1.695664013206e-13 1.646399486324e-12
468 3 1.261298124950e-02 1.486980525451e-02 1.168125684282e-02 -3.511856046143e-10 3.142996087538e-10 5.604971432332e-11 1.581042790692e-07 1.895148941375e-07 4.572552079874e-08 1.250000000000e-03 2.045307717181e-05 1.917279113040e-12 -2.025584201859e-12 3.553885654714e-12
469 3 1.503345061372e-02 6.918972342220e-03 1.152084590262e-02 -4.467589801760e-10 3.428628384587e-10 1.079816426912e-10 9.016612806285e-09 9.966927517479e-09 -8.109663708523e-08 1.250000000000e-03 2.045307717181e-05 -1.626415350962e-12 -2.105722658585e-12 -2.364789619956e-12
470 3 1.384441534263e-02 1.427409595353e-02 7.152030763452e-03 -2.931411017394e-10 3.153466275753e-10 2.940605146592e-11 6.795940577631e-08 5.068622105037e-09 -7.192225655666e-09 1.250000000000e-03 2.045307717181e-05 2.248305150802e-12 -3.453037577925e-12 -2.427092416072e-12
471 3 1.219084916429e-02 1.044037604942e-02 6.342217333380e-03 -2.983823127499e-10 3.095353140168e-10 2.012368162420e-11 -6.788349753366e-08 2.414789896600e-08 7.320596864746e-09 1.250000000000e-03 2.045307717181e-05 7.543095435184e-13 -2.436423794165e-12 9.892703957708e-13
472 3 9.097546834774e-03 1.240137048234e-02 8.653079711482e-03 -4.191238453478e-10 3.159901837283e-10 4.781936030056e-11 1.217724163446e-09 -3.977686045150e-08 -5.880977105475e-08 1.250000000000e-03 2.045307717181e-05 9.874141360909e-14 8.446996080414e-13 -8.501915560582e-13
473 3 6.863351795814e-03 8.443223868497e-03 1.371681235242e-02 -7.680879924319e-10 -4.030804186875e-10 3.315070170803e-11 4.372787423741e-07 -4.334634353458e-07 3.601945629619e-07 1.250000000000e-03 2.045307717181e-05 1.363594164868e-12 2.672121664519e-12 3.506691289991e-13
474 3 9.421998554292e-03 1.315242130508e-02 1.181017996148e-02 -2.915700252571e-10 3.016118695549e-10 -2.303075796214e-12 2.381319312275e-07 4.959660376406e-08 9.134257950041e-08 1.250000000000e-03 2.045307717181e-05 6.394339617964e-12 2.773019731154e-12 2.987786016197e-12
475 3 1.140361956465e-02 1.092921546023e-02 1.422301062591e-02 -1.835366541255e-10 2.288332900428e-10 6.356678672859e-11 1.599177438433e-07 1.128839731779e-07 -1.186358627346e-07 1.250000000000e-03 2.045307717181e-05 9.199777447183e-13 -8.242527579436e-13 2.179465936837e-13
476 3 1.072196583459e-02 6.886470515131e-03 5.922920832131e-03 -2.969080749596e-10 3.348237992725e-10 3.981733713898e-11 1.736039157093e-08 -5.285147881691e-08 -2.292769010301e-08 1.250000000000e-03 2.045307717181e-05 9.727555434400e-13 -2.222444984750e-12 -2.176289529218e-13
477 3 1.009381623097e-03 1.695581535290e-03 9.535928210459e-03 -3.445631527031e-10 4.434934972414e-10 -3.152341010412e-11 8.536046925527e-10 1.191595459580e-07 -1.185362283314e-08 1.250000000000e-03 2.045307717181e-05 3.919862747161e-14 -1.516132395355e-12 -2.160466332414e-12
478 3 7.366653556513e-03 1.000757540072e-02 1.024371462658e-02 -4.551001229384e-10 2.930271733332e-10 5.640193007333e-11 4.261276268865e-08 -1.344047002146e-09 -7.630149020562e-08 1.250000000000e-03 2.045307717181e-05 1.150399496417e-12 -1.635426891467e-12 7.696673561127e-13
479 3 8.535346890952e-03 8.088449044483e-03 1.096233769037e-02 -4.790091447432e-10 3.536099929451e-10 7.998970397976e-11 -9.242641649131e-08 -4.951923823717e-08 8.925850695678e-08 1.250000000000e-03 2.045307717181e-05 -1.455538889382e-12 -2.369063218677e-12 1.398474496722e-12
480 3 6.664794362944e-03 1.387192848405e-02 1.436303182466e-02 -2.350833465842e-10 5.343370828836e-10 -5.443100849685e-11 4.210323616569e-07 1.315369722633e-07 7.294368675816e-07 1.250000000000e-03 2.045307717181e-05 3.510715610496e-12 -1.304379020783e-12 3.931105564499e-13
481 3 9.334847009455e-03 8.267549997855e-03 1.315574017114e-02 -4.882117427204e-10 3.032078751995e-10 1.116166621721e-10 1.881625753627e-07 4.785155857421e-08 -6.548913768890e-08 1.250000000000e-03 2.045307717181e-05 1.162532750288e-12 2.135586956751e-13 1.155916932733e-13
482 3 8.802131792364e-03 9.852389786920e-04 1.423549000822e-02 -2.740494720517e-10 3.845463010293e-10 3.288536073339e-11 3.145737263913e-07 2.753221463664e-07 8.378336147270e-08 1.250000000000e-03 2.045307717181e-05 2.412418202550e-12 -1.961836827613e-12 -6.183079154759e-13
483 3 1.109601550916e-02 8.194029400590e-03 1.040580916770e-02 -4.362899981321e-10 3.243476002247e-10 1.055677334502e-10 -3.136811075767e-08 1.716134937742e-09 4.006845704187e-08 1.250000000000e-03 2.045307717181e-05 2.876329775457e-13 -1.152250031165e-12 -6.681214806971e-13
484 3 1.284062142407e-02 8.066839537254e-03 6.390478198829e-03 -2.941628701325e-10 3.105756840808e-10 3.847595516179e-11 5.032721783845e-09 7.722034260390e-08 -2.015760128051e-08 1.250000000000e-03 2.045307717181e-05 1.022583323799e-12 -3.340735362697e-12 -2.734601678714e-12
485 3 8.273506924382e-03 7.580877490045e-03 7.813448892989e-03 -3.787937927852e-10 2.869087242507e-10 8.110712907500e-13 3.050598771707e-08 -3.190904103331e-08 2.296183432648e-08 1.250000000000e-03 2.045307717181e-05 3.807524797829e-12 -1.003455516264e-12 -6.014851854946e-13
486 3 1.349979470018e-02 1.063922000942e-02 8.263852497773e-03 -3.509165280602e-10 3.233497168637e-10 1.335182253919e-11 4.275208257803e-08 -5.758258041219e-08 -2.892627634076e-08 1.250000000000e-03 2.045307717181e-05 2.405373999117e-13 -1.514088929181e-12 1.200457577076e-13
487 3 1.102227692321e-02 9.696182425492e-03 1.223682927171e-02 -4.388117744316e-10 3.985338427334e-10 8.234006482199e-11 -1.105419513885e-08 7.256638438749e-08 1.391740683039e-08 1.250000000000e-03 2.045307717181e-05 7.762043274328e-13 1.561044996411e-13 4.444874412681e-14
488 3 7.483560126026e-03 1.231537864452e-02 1.297040850639e-02 -2.405657396248e-10 6.509613025810e-10 -1.305781966715e-10 -2.666792720049e-07 7.013903307631e-09 -5.254235187775e-07 1.250000000000e-03 2.045307717181e-05 6.786481067418e-13 -1.041961469823e-12 2.338864774164e-12
489 3 1.101518575242e-02 1.106243027826e-02 9.015874473414e-03 -4.575642316007e-10 2.593177375048e-10 2.255452114058e-11 3.331576936013e-08 4.754162263120e-08 1.163609436138e-08 1.250000000000e-03 2.045307717181e-05 3.146491647163e-12 -2.457087179035e-12 -5.825198015483e-13
490 3 1.062859637797e-02 7.427457330448e-03 8.262655357185e-03 -3.966495048106e-10 2.882969431284e-10 7.458183348561e-11 2.595414052129e-08 -4.146995699230e-08 -1.123485909134e-08 1.250000000000e-03 2.045307717181e-05 3.558907086214e-12 -3.045309801358e-12 -9.069786792735e-13
491 3 4.981752730026e-04 1.278973933020e-02 1.430721911047e-02 -1.444347313549e-10 2.658665288312e-10 -3.935190209809e-11 2.017083014840e-07 1.049886671285e-07 1.279828396434e-07 1.250000000000e-03 2.045307717181e-05 -1.623117565270e-13 -1.082868384895e-12 1.090888092863e-12
492 3 1.254610184881e-02 6.294271501449e-03 8.957384695968e-03 -3.577628442240e-10 3.514133227445e-10 7.407461247194e-11 -3.631835429345e-08 4.664212233088e-08 9.804021059016e-08 1.250000000000e-03 2.045307717181e-05 -3.752587342003e-13 -1.894298501670e-12 -2.215143019155e-12
493 3 9.016996494118e-03 2.405634267378e-03 1.211494486589e-02 -4.722617909651e-10 4.320409083407e-10 -6.453247979723e-10 -3.814223646649e-07 -1.850870394382e-08 -1.460523930547e-07 1.250000000000e-03 2.045307717181e-05 -2.966011510309e-12 7.013958956316e-15 6.209977160908e-12
494 3 1.317689421150e-02 1.497567266999e-02 9.317214134173e-03 -3.914213585600e-10 3.756537401203e-10 -4.055176436521e-11 -1.279952690572e-07 -1.000112186817e-07 -1.640555517374e-08 1.250000000000e-03 2.045307717181e-05 1.788335307183e-12 -1.366221071652e-12 -3.670439711808e-12
495 3 1.099764389885e-02 1.221123738386e-03 1.180174782209e-02 -5.009488672919e-10 2.782149925907e-10 3.550602469978e-12 -3.008399242362e-07 -1.471145220405e-07 7.496536508716e-08 1.250000000000e-03 2.045307717181e-05 4.490758095893e-12 -3.119424143841e-12 2.635892575967e-12
496 3 4.113227740280e-04 1.022435471748e-02 8.091298040824e-03 -3.420644556160e-10 3.477095432178e-10 1.867891639286e-12 -1.168003332178e-08 1.631360796321e-08 4.800698551639e-08 1.250000000000e-03 2.045307717181e-05 1.516684022498e-12 -1.433045321302e-12 -1.129254497630e-12
497 3 1.464086968834e-02 9.708022978215e-03 1.213116390353e-02 -3.834550733791e-10 3.252348587657e-10 6.410160101517e-11 5.328289264049e-09 1.338638877084e-07 -9.115280227177e-08 1.250000000000e-03 2.045307717181e-05 -1.270091605015e-12 -7.936620968964e-14 2.690543279454e-12
498 3 1.018271865252e-02 9.299871388520e-03 6.934685276109e-03 -3.189372860383e-10 3.068613993956e-10 6.389573132374e-11 -8.195982552592e-09 -6.834116114117e-08 1.042493191394e-08 1.250000000000e-03 2.045307717181e-05 1.827117883480e-12 -3.151985075059e-12 2.754524043431e-13
499 3 1.498290401244e-04 9.830173530897e-03 1.428003172679e-02 -1.670796845409e-10 1.690853445519e-10 -1.277544608915e-11 3.383043145528e-08 5.810106057101e-08 -5.070596098120e-08 1.250000000000e-03 2.045307717181e-05 -6.295821162489e-13 7.109415196744e-13 -5.341686979475e-14
500 3 8.095797768093e-03 1.015785957801e-02 1.258470399623e-02 -6.451761173648e-10 2.437355019440e-10 2.770172833184e-10 -1.131544821686e-07 -5.232572098118e-08 1.411744364001e-07 1.250000000000e-03 2.045307717181e-05 1.271270068669e-12 1.131490429312e-12 2.136448993813e-12
