ITEM: TIMESTEP
100000
ITEM: NUMBER OF ATOMS
500
ITEM: BOX BOUNDS pp pp ff
0.0000000000000000e+00 1.5370634520482899e-02
0.0000000000000000e+00 1.5370634520482899e-02
0.0000000000000000e+00 1.5370634520482899e-02
ITEM: ATOMS id type x y z vx vy vz omegax omegay omegaz radius mass fx fy fz
1 1 3.669442045523e-03 4.709309374400e-04 6.666650904197e-03 3.565540038645e-10 3.639024577899e-09 1.060791139554e-09 -4.318587504760e-06 -7.784947221521e-08 2.190983554780e-06 7.500000000000e-04 4.417864669111e-06 -5.392991536714e-13 -6.034784982706e-12 2.291675693775e-13
2 1 5.781446928846e-03 4.670507670722e-03 6.295447242420e-03 -3.530908015479e-10 2.152082589963e-09 -4.362259766879e-10 -1.288130591782e-07 1.046790703343e-07 -1.049320156223e-07 7.500000000000e-04 4.417864669111e-06 -8.880564340483e-14 -4.486482410627e-12 7.554728842602e-14
3 1 1.750995982785e-03 6.429057125810e-03 3.714201796645e-03 1.170851881225e-09 1.093027766922e-09 -3.474363288821e-10 5.538813735423e-06 3.612224575552e-06 5.569937957417e-06 7.500000000000e-04 4.417864669111e-06 -4.050494100389e-12 -1.493012351644e-12 6.052980508023e-13
4 1 5.572714634395e-03 4.454765788498e-03 6.859169491092e-04 -2.065087100900e-09 8.483473239054e-10 7.012867496960e-10 -1.096175709004e-06 -2.447875307735e-06 -3.779980965269e-07 7.500000000000e-04 4.417864669111e-06 3.289352219059e-12 -8.640538067562e-13 -6.849981417951e-13
5 1 1.832063259661e-03 5.552201475789e-03 6.857307209966e-04 9.672037466972e-10 -2.122228697801e-09 6.431054753955e-10 2.723186110840e-06 1.486149990463e-06 -4.704038085279e-07 7.500000000000e-04 4.417864669111e-06 -2.607744126894e-13 3.632961298888e-12 -1.486057254642e-12
6 1 5.762549209001e-03 6.860731036010e-03 2.428448531349e-03 1.245242988109e-09 1.767911200024e-09 6.949783712419e-10 -1.726200811875e-07 1.223495024047e-06 1.920932390652e-06 7.500000000000e-04 4.417864669111e-06 -2.185763801073e-12 -3.870766152987e-12 -2.492393263520e-13
7 1 2.804795363092e-03 1.969791514279e-03 2.129699820399e-03 -2.060641067716e-09 2.102813776565e-09 -6.703423037922e-11 1.722907105978e-05 -4.144950103059e-06 -1.956117867720e-06 7.500000000000e-04 4.417864669111e-06 4.843065947511e-12 -2.120971259537e-12 -9.625698022466e-13
8 1 3.746282906013e-03 6.568277544622e-03 3.209019538304e-03 1.039307277298e-178 1.752217873032e-178 -5.064066347232e-179 -1.318176451983e+01 3.034971343926e+01 -1.081675735394e+01 7.500000000000e-04 4.417864669111e-06 -1.041665124816e-179 -1.756193080994e-179 5.075555053731e-180
9 1 4.777855766151e-03 4.996358329705e-03 1.751772868895e-03 -5.805592861617e-10 4.957440036467e-09 9.495567090809e-10 -1.489235219779e-06 2.696304194172e-06 -5.277994223462e-06 7.500000000000e-04 4.417864669111e-06 1.550238042712e-14 -1.355209801092e-11 -5.155376872387e-12
10 1 5.440008751673e-03 2.545225637242e-03 3.059132606767e-03 -5.822329224752e-09 4.049989318581e-09 3.527541690535e-09 4.453571718132e-06 -2.051807212115e-05 1.025787459163e-05 7.500000000000e-04 4.417864669111e-06 1.008247048160e-11 -1.699538635647e-11 -1.143799365106e-11
11 1 5.522972885033e-03 5.478530469895e-03 2.872468435862e-03 -2.812929141492e-10 2.622080434430e-09 4.847414065533e-10 -7.492601894650e-07 -4.238445855749e-06 -3.477032224636e-06 7.500000000000e-04 4.417864669111e-06 2.668272130343e-12 -7.261067643530e-12 1.007560556012e-12
12 1 3.555398289306e-03 4.967062702773e-03 2.453449555456e-03 -1.471347371364e-10 -2.123201871157e-10 7.044607646012e-10 9.758979622221e-06 -3.334847599101e-06 8.560615376603e-06 7.500000000000e-04 4.417864669111e-06 -2.605658470275e-12 -3.558661509133e-13 -2.177340451041e-12
13 1 2.284666400249e-03 7.789189967014e-04 7.290974383692e-04 2.428910459841e-09 5.681076247577e-09 -1.989096299129e-10 7.006593321374e-06 -3.434487959634e-06 3.462743145457e-06 7.500000000000e-04 4.417864669111e-06 -5.674870113004e-12 -1.172937740088e-11 3.070741103199e-13
14 1 2.750210581954e-03 3.693045966208e-03 3.450476347863e-03 -4.724663876555e-09 2.950862894841e-09 4.159562515035e-09 -6.496242230935e-06 1.775691183972e-05 -6.067138035481e-07 7.500000000000e-04 4.417864669111e-06 9.901560857390e-12 -5.581064826097e-12 -1.021336918150e-11
15 1 6.227610191335e-03 8.938455864394e-03 4.219571349643e-03 -4.071260914492e-10 2.497531623510e-09 1.877862964676e-10 -2.594279196819e-08 -1.935368488585e-07 -1.501337082343e-06 7.500000000000e-04 4.417864669111e-06 2.231223341290e-12 -6.663236486895e-12 6.825436692113e-13
16 1 4.969165054340e-03 5.416913542196e-03 7.750625996565e-03 -1.226837190764e-09 1.152353505371e-09 -5.551798381845e-10 6.144552368933e-07 9.671002900607e-07 -3.519245528057e-07 7.500000000000e-04 4.417864669111e-06 1.234289658204e-12 -1.861604549393e-12 -1.286456073789e-13
17 1 4.164866827245e-03 7.339883395689e-03 7.816371217075e-04 -1.401424593620e-09 1.492612161557e-09 -1.927826905778e-10 3.634320219451e-06 2.362565375166e-06 -3.919345942476e-06 7.500000000000e-04 4.417864669111e-06 5.054440878441e-12 6.112263546864e-14 1.789583419973e-12
18 1 3.837065971130e-03 2.787557206533e-03 2.959345431036e-03 -4.703616799420e-09 3.121017635745e-09 -6.042844137447e-09 2.039156012359e-06 -5.203814195867e-07 -6.822257354751e-06 7.500000000000e-04 4.417864669111e-06 8.140790654744e-12 -1.505720665215e-11 8.411906099787e-13
19 1 8.240987927561e-04 1.865060908811e-03 3.456226889392e-03 -1.570955988175e-10 -1.142379216489e-09 -6.719395528263e-10 3.871271714216e-06 6.341608596186e-06 -3.351233930280e-07 7.500000000000e-04 4.417864669111e-06 1.676190331675e-14 3.294734898022e-12 1.887234382313e-12
20 1 4.623016160277e-03 5.476434272732e-03 6.302450772145e-03 -1.328534233861e-09 5.206838046988e-10 -1.824828753746e-09 -8.485189553811e-07 -1.654928296903e-06 2.496532289632e-06 7.500000000000e-04 4.417864669111e-06 1.941806330732e-12 2.489785293077e-13 4.285637283983e-12
21 1 2.436759125231e-03 6.661035205627e-03 5.893037743484e-03 1.639239338216e-10 4.463473923531e-10 6.618059977629e-10 -2.077934525781e-07 -1.363052108268e-07 1.583243236916e-06 7.500000000000e-04 4.417864669111e-06 -3.177189667621e-12 3.521272404598e-12 5.534945540567e-13
22 1 5.657632254387e-03 3.053066333827e-03 4.371992404677e-03 -8.180311214374e-09 2.470612600965e-09 4.348964570130e-09 -5.737080805047e-07 2.082467159093e-05 -2.212481409594e-06 7.500000000000e-04 4.417864669111e-06 9.736399389832e-12 -2.666733582691e-11 -1.615096461446e-11
23 1 3.093811620203e-03 2.001064816611e-03 6.996107324280e-04 5.888188985405e-09 2.414664236296e-09 -3.460577180258e-10 -3.556026659918e-06 8.766239198694e-06 -9.233347399040e-06 7.500000000000e-04 4.417864669111e-06 -1.362160947773e-11 -3.517592671864e-12 4.003820875332e-12
24 1 1.678412924944e-03 4.949247913090e-03 1.986541555396e-03 1.440029249980e-09 3.867805837903e-10 3.296448160845e-09 -7.831582231466e-06 -1.916949174318e-06 1.762780267388e-06 7.500000000000e-04 4.417864669111e-06 3.709487248476e-12 -8.550847739752e-12 -6.995756434861e-12
25 1 4.730020145155e-03 5.998592195326e-03 7.089604554359e-04 -9.995791426692e-10 2.194195773898e-09 -7.058211712113e-10 -2.945447267969e-06 -1.408852514932e-06 4.810784271933e-06 7.500000000000e-04 4.417864669111e-06 1.627281294221e-12 -5.205810440823e-12 2.708071525369e-13
26 1 2.407080691570e-03 3.294712891020e-03 7.141526912825e-04 -2.308983219578e-09 -6.698977508936e-10 -3.526261109144e-10 1.571596829391e-07 -2.528623749456e-06 2.069170541383e-05 7.500000000000e-04 4.417864669111e-06 3.889554700556e-12 2.117749498994e-12 1.171229059470e-12
27 1 6.202471628764e-03 3.749949072897e-03 2.746724175128e-03 -3.496844181614e-09 4.745868052573e-09 5.798726400977e-09 -6.222119577225e-06 8.601250661730e-06 -1.063611084398e-05 7.500000000000e-04 4.417864669111e-06 1.077537174169e-11 -3.049863098099e-12 -1.343495596346e-11
28 1 4.584513551611e-03 1.110276965358e-03 5.666010017478e-03 -6.911416436122e-10 9.214440194625e-10 -9.692350682876e-11 -5.775052719952e-07 -6.188101095270e-07 1.070116872785e-06 7.500000000000e-04 4.417864669111e-06 5.173191759672e-13 -6.221326408546e-13 2.418849805801e-12
29 1 2.698305564212e-03 3.945465985627e-03 1.983236823808e-03 1.017008462571e-09 -2.952626634856e-10 -1.244022859233e-09 3.970676095001e-06 1.544091860355e-05 -2.174448183355e-06 7.500000000000e-04 4.417864669111e-06 -8.336025489025e-12 6.373474800501e-12 3.958994915571e-12
30 1 5.976424445435e-03 4.339711116093e-03 4.904763196842e-03 -4.728384079346e-10 1.886178097723e-09 2.458344101172e-11 -2.436763787597e-07 2.181273252095e-07 -3.288470821201e-07 7.500000000000e-04 4.417864669111e-06 3.197238169639e-12 1.642593822373e-11 8.109962902322e-12
31 1 4.453105748306e-03 6.047759354396e-03 4.742118597316e-03 5.187900679733e-10 1.720732424928e-10 -2.115018469832e-09 1.130505530774e-06 -1.110197329910e-06 3.357552012612e-06 7.500000000000e-04 4.417864669111e-06 -2.488374468707e-12 -3.641083703949e-13 3.695182090400e-12
32 1 3.253067700570e-03 2.931175018098e-03 5.938217052022e-03 -2.074274309974e-07 -3.923446471151e-08 6.964873007302e-08 -1.463807450087e+03 -2.768790880232e+02 4.920859330084e+02 7.500000000000e-04 4.417864669111e-06 2.801943546418e-10 5.318076454228e-11 -9.400132859390e-11
33 1 4.042943436790e-03 4.224727735838e-03 6.886853264369e-03 -1.985599279046e-10 6.955395741388e-10 -8.658996325674e-10 -2.997135656872e-06 -2.966654978552e-06 1.394745823732e-06 7.500000000000e-04 4.417864669111e-06 1.285564533361e-12 -1.814798552116e-12 1.192160523793e-12
34 1 5.630957527586e-03 6.497159612901e-03 3.898486002508e-03 -2.076106020444e-10 2.219586598688e-09 2.929378961551e-10 7.883975187959e-07 2.661311600958e-07 -8.980765953739e-07 7.500000000000e-04 4.417864669111e-06 1.052397048094e-12 -4.629664743638e-12 -7.157572250008e-13
35 1 2.189295968848e-03 1.454848666675e-03 3.784739894931e-03 -3.684051039022e-10 5.832298190152e-10 -1.236428907316e-09 -4.444723211671e-06 -5.553265013619e-06 3.175405636123e-06 7.500000000000e-04 4.417864669111e-06 1.419893836851e-12 4.286037425600e-13 5.537743316564e-12
36 1 4.648249211464e-03 1.365762804671e-03 6.987956018163e-04 2.573132368418e-09 4.613600263288e-09 8.581372239732e-10 -5.301884908924e-06 3.777230002655e-06 -1.744912163889e-06 7.500000000000e-04 4.417864669111e-06 -6.312622388482e-12 -6.149511438405e-12 -1.229723899662e-12
37 1 4.549737061533e-03 4.634049842949e-03 5.143725146812e-03 -1.878078317157e-09 -2.659650162580e-10 -2.101840651235e-09 -5.542896616284e-07 -8.208641925183e-06 -1.711414006342e-05 7.500000000000e-04 4.417864669111e-06 1.696270417805e-12 5.256550068393e-15 4.751922471598e-12
38 1 4.805840644905e-03 3.667195079974e-03 2.332137869632e-03 -1.661487338843e-09 5.127714745440e-09 1.823559384337e-09 1.136796554055e-06 -1.357890015874e-05 8.880872851715e-06 7.500000000000e-04 4.417864669111e-06 3.814090376420e-12 -1.144111681224e-11 -6.539221587560e-12
39 1 4.070411566144e-03 4.184491495628e-03 7.183927002431e-04 6.690391744914e-10 6.838583266925e-09 -3.845226915995e-10 4.998868303669e-06 -3.325042085572e-06 6.746356718055e-06 7.500000000000e-04 4.417864669111e-06 -2.013458543078e-12 -1.640738672055e-11 2.325630284982e-12
40 1 2.581104137463e-03 3.470242768835e-03 7.191034237502e-03 -4.693136966443e-10 1.665272902066e-09 -9.749067332273e-10 -8.645102180979e-07 -5.755321710364e-07 -4.544288960627e-07 7.500000000000e-04 4.417864669111e-06 -1.074340632113e-13 1.043586609870e-12 1.661717920512e-12
41 1 4.044443227405e-03 3.540331415205e-03 4.157285688572e-03 1.059305308436e-09 -1.134511472818e-09 -4.039604325076e-09 2.622315534495e-06 -1.445072661018e-06 -9.496826080569e-06 7.500000000000e-04 4.417864669111e-06 -3.098070392017e-12 1.150147563958e-11 2.120736754670e-11
42 1 3.151730265409e-03 4.286726220320e-03 5.009698548803e-03 -1.754679870525e-09 -1.519386656692e-10 -5.849771424461e-09 -9.286985593629e-06 1.608282460173e-06 1.545638765048e-05 7.500000000000e-04 4.417864669111e-06 8.726256844636e-13 -2.356297170857e-12 1.305892099348e-11
43 1 9.913520756245e-04 3.743107373938e-03 7.326498728726e-04 -1.610352723378e-09 1.078391281205e-08 3.084078867059e-09 -6.669129646690e-06 9.702972069214e-06 -3.570213148605e-05 7.500000000000e-04 4.417864669111e-06 4.064254909235e-12 -2.427770444130e-11 -5.947441928291e-12
44 1 2.548969117405e-03 5.279527668610e-03 5.941208745714e-03 3.284661285085e-09 -3.665370814602e-10 -1.203099328103e-09 2.941493860452e-06 -3.788345643250e-06 2.543656631053e-06 7.500000000000e-04 4.417864669111e-06 -9.041700584097e-12 -8.304919982767e-12 5.303386983142e-12
45 1 1.091191675033e-03 4.392395990550e-03 6.858987317215e-03 3.032083786551e-09 9.637459854649e-10 -1.519281041710e-10 1.566319530190e-06 4.168439745807e-06 5.435104591456e-06 7.500000000000e-04 4.417864669111e-06 -7.967596208175e-12 1.739748123830e-12 -3.657563163613e-12
46 1 2.350102803670e-03 5.126645087013e-03 3.318740337996e-03 -4.845438413595e-10 3.073329021650e-10 -8.122293659593e-10 -7.972133334107e-06 2.632421495195e-06 -6.302574088167e-06 7.500000000000e-04 4.417864669111e-06 1.036715659588e-14 1.119946777627e-13 2.326764110877e-12
47 1 4.983720715966e-03 2.361588681522e-03 1.680841724459e-03 7.397592960169e-09 7.134258644584e-09 -3.736303919707e-10 2.357690810373e-06 2.664020484882e-06 -7.800852341744e-07 7.500000000000e-04 4.417864669111e-06 -2.064421151901e-11 -1.074189868980e-11 -7.390521816500e-12
48 1 5.056612954497e-03 4.488708994461e-03 3.792423652813e-03 1.248877082665e-09 5.895200266439e-11 -1.277162164833e-09 3.521934511945e-06 2.172871986421e-06 8.889111876150e-06 7.500000000000e-04 4.417864669111e-06 1.371762639793e-13 1.986898500786e-12 9.614058096043e-13
49 1 4.590232098188e-03 2.072437148501e-03 4.536370208096e-03 -6.002499595598e-09 4.546081105283e-10 9.579801894343e-10 9.391316373279e-06 -1.881514752664e-05 4.888935709442e-06 7.500000000000e-04 4.417864669111e-06 1.027269846981e-11 4.084225878277e-12 1.662592543359e-12
50 1 3.732464819523e-03 5.102320054024e-03 3.872278140675e-03 -6.960402284781e-10 -2.642954991803e-09 1.393025409843e-09 -6.632995065824e-06 3.136358589071e-06 -3.725472160338e-06 7.500000000000e-04 4.417864669111e-06 1.050044625303e-12 6.181527848783e-12 -2.210627669576e-12
51 1 4.652562267357e-03 3.195889313631e-03 5.467751086283e-03 -1.227125247118e-08 -5.485619298750e-10 3.153864845310e-09 -5.878122968478e-06 1.536016932265e-05 1.465704736611e-06 7.500000000000e-04 4.417864669111e-06 2.426465386380e-11 2.395218842649e-12 -6.822793709810e-12
52 1 1.454146542936e-03 4.165318906364e-03 4.009862927256e-03 -3.740242282408e-09 6.351813893355e-09 4.882806831195e-09 -1.048374525853e-05 -1.048758973273e-05 4.819802363050e-06 7.500000000000e-04 4.417864669111e-06 9.229233117330e-12 -1.224874403184e-11 -1.114207085718e-11
53 1 6.761954296976e-03 3.276245215659e-03 5.416743418378e-03 -5.709090525459e-10 1.591615318061e-09 -1.209457364912e-10 9.438987369382e-08 -4.130889199825e-07 -8.904628562474e-08 7.500000000000e-04 4.417864669111e-06 -5.832815071668e-13 -9.293208180289e-13 1.051233260165e-12
54 1 5.667887580580e-03 7.844111735922e-03 3.486404113965e-03 -1.974779887374e-10 2.110814754304e-09 4.779443111404e-10 -8.269075898540e-07 -8.123970479630e-07 9.482504650494e-07 7.500000000000e-04 4.417864669111e-06 -2.415388550704e-12 -5.264391898456e-12 2.292029441759e-12
55 1 3.190552069288e-03 2.364710484381e-03 4.258496236593e-03 -3.288674458200e-09 3.219707922805e-09 -4.048991900540e-09 1.917098360100e-07 5.757569776860e-06 9.765133913897e-07 7.500000000000e-04 4.417864669111e-06 3.696930138149e-12 -8.939192016944e-12 1.083837542943e-11
56 1 3.708679707314e-03 3.031563170676e-03 1.536883426537e-03 4.128549811296e-09 3.211011887505e-09 -4.984752793938e-09 -2.206720928132e-06 -1.065292506869e-05 8.631471729790e-06 7.500000000000e-04 4.417864669111e-06 -9.054138025559e-12 -6.537567907500e-12 1.307947011588e-11
57 1 2.959124437229e-03 5.979862429630e-03 4.720503901313e-03 1.517968620018e-09 1.301579619405e-09 2.301818230151e-10 -9.421643279866e-07 2.100716050226e-06 3.459156557398e-06 7.500000000000e-04 4.417864669111e-06 -3.868862720704e-12 -4.391985904052e-12 3.277534140806e-13
58 1 2.074755160749e-03 3.951699227949e-03 5.900284690425e-03 1.034233833760e-09 4.582906818570e-10 -2.094034586876e-09 -3.067037183685e-06 4.874670714215e-07 -5.660541859934e-06 7.500000000000e-04 4.417864669111e-06 -5.743836266485e-12 -1.030811124284e-11 -9.145149323438e-13
59 1 1.070844097749e-03 3.406100139944e-03 7.879224738538e-03 -1.284129114895e-09 6.382243618778e-10 3.644606034920e-10 -1.720785576808e-06 -1.079072310220e-05 -6.806869857192e-06 7.500000000000e-04 4.417864669111e-06 6.127513519398e-13 -2.236321581034e-12 2.684942639329e-12
60 1 2.608806478645e-03 5.815590905323e-03 1.136145670006e-02 -1.406486638566e-09 1.560441183132e-09 -3.585270035708e-10 -1.287872187249e-06 -8.489371084278e-07 -8.725946262512e-07 7.500000000000e-04 4.417864669111e-06 1.019985302968e-12 -3.412051922112e-12 -1.215651904752e-12
61 1 3.859552924096e-03 2.575916120325e-03 1.369506301546e-02 -1.312731372084e-09 5.483614077650e-09 1.585573197959e-09 -5.788510002569e-06 -1.402770466440e-07 7.393597044019e-06 7.500000000000e-04 4.417864669111e-06 1.544964441321e-12 -5.992972656601e-12 -2.506492278819e-12
62 1 2.497110064325e-03 4.571530997708e-03 9.726318797252e-03 -1.330268903854e-09 1.781899803342e-09 -3.846694104920e-10 -2.859650762276e-07 -1.615332056053e-07 9.141424145142e-07 7.500000000000e-04 4.417864669111e-06 1.771521924302e-12 -2.192984701902e-12 7.303937370919e-13
63 1 6.545317494462e-03 1.185595366555e-03 1.038442208422e-02 -1.744594520939e-09 2.149209837637e-09 3.109938057543e-10 1.211803787603e-06 2.024300372787e-06 1.271562445286e-06 7.500000000000e-04 4.417864669111e-06 6.427090329525e-12 -1.666657624653e-12 1.006773407277e-12
64 1 2.812553725009e-03 4.361018813865e-03 1.139744034291e-02 -1.947163698967e-09 1.709121380153e-09 4.353897730585e-10 5.363227267107e-07 -1.244383368319e-06 6.446387318809e-07 7.500000000000e-04 4.417864669111e-06 3.085314849768e-12 -1.111176369171e-12 -3.793051721593e-13
65 1 1.259301231703e-03 5.948234393897e-03 1.219839636378e-02 -1.729220201298e-09 1.766879053436e-09 -7.415706958221e-10 -9.229626406702e-07 8.152672593278e-07 7.741308479341e-07 7.500000000000e-04 4.417864669111e-06 3.892749933952e-13 -4.286633911783e-12 6.190879942300e-13
66 1 5.193925077308e-03 2.412091127881e-03 8.486004723743e-03 -6.843898883616e-10 1.919622369509e-09 -2.029592794064e-10 4.403049441541e-07 -2.042188254401e-07 -3.955939269867e-07 7.500000000000e-04 4.417864669111e-06 -2.510780217816e-13 -1.692281227085e-11 -1.101055553396e-11
67 1 4.714550707091e-03 2.199075066729e-03 1.472842808669e-02 -1.498505704672e-09 3.002488847829e-09 1.053044263724e-09 4.563194912205e-06 1.566690374720e-06 -1.413172478023e-05 7.500000000000e-04 4.417864669111e-06 3.102345898093e-12 -3.406601512855e-12 -8.896452938013e-15
68 1 2.952148672963e-03 2.207013343011e-03 9.591014481878e-03 -1.274495360755e-09 1.539372013100e-09 -4.330730822007e-10 -1.025636925062e-08 -1.093787376953e-08 -2.128613747780e-07 7.500000000000e-04 4.417864669111e-06 1.586170684580e-12 -2.178141349752e-12 1.697938691517e-12
69 1 3.627854846938e-03 5.627552557942e-03 1.462064304617e-02 -1.693571235378e-06 2.042958417313e-07 -8.993782025661e-07 -2.884458642818e-04 -2.392997581200e-03 -1.726447531205e-05 7.500000000000e-04 4.417864669111e-06 1.186586377129e-09 -1.431008212510e-10 6.274383002500e-10
70 1 1.738109244973e-03 3.209702395823e-03 1.469560382389e-02 4.295707847260e-10 7.774179452925e-10 6.255237552135e-10 1.729497868152e-06 -9.546616964089e-07 -3.940963053788e-06 7.500000000000e-04 4.417864669111e-06 -3.127217742697e-12 -2.695278492655e-12 3.371930019686e-13
71 1 5.425959300173e-03 2.023067121369e-03 1.194053010975e-02 -2.163243249806e-09 3.074865726984e-09 8.305118184984e-10 8.454014596164e-07 -1.396345138606e-06 4.442343798860e-07 7.500000000000e-04 4.417864669111e-06 1.325253038059e-12 -1.130187638586e-11 -3.460118633376e-13
72 1 5.381232137712e-03 5.726771523354e-03 1.054218957379e-02 -2.056756087539e-09 1.237558683109e-09 -6.817546071596e-10 5.540930611538e-07 -4.188639161697e-06 -2.636502454137e-07 7.500000000000e-04 4.417864669111e-06 4.021660003007e-13 -2.545314961969e-12 1.657952831442e-12
73 1 6.228561388396e-03 4.928058785386e-03 1.133768030152e-02 -2.699566797516e-09 1.498925082039e-09 7.748345583864e-10 -7.587104169172e-07 2.494748011553e-06 9.244034132342e-07 7.500000000000e-04 4.417864669111e-06 5.662086802152e-12 -2.312131399436e-12 -1.156241690025e-12
74 1 3.872529979369e-03 3.088156943563e-03 7.848074352059e-03 -1.016506503407e-09 1.831829143905e-09 4.772725517804e-11 6.469524829974e-07 -8.397008730858e-07 2.835563052267e-07 7.500000000000e-04 4.417864669111e-06 6.646801927944e-13 -2.829286119694e-12 1.184679771828e-13
75 1 1.950775536493e-03 6.154764149263e-03 8.837122731056e-03 -1.318625034559e-09 1.442243301189e-09 -1.411151166368e-10 -6.100982812866e-07 7.992167858209e-07 -2.777794791778e-07 7.500000000000e-04 4.417864669111e-06 6.942777331206e-13 -2.301820798489e-12 3.124798441729e-13
76 1 3.959758884416e-03 1.934665167046e-03 6.818953834911e-03 -9.803743071634e-09 1.201500422771e-07 6.327262512120e-08 2.704790551618e+03 -1.489905300998e+03 1.811763841503e+03 7.500000000000e-04 4.417864669111e-06 1.113801208585e-11 -1.365024128972e-10 -7.188398168456e-11
77 1 5.204606987986e-03 4.767699528022e-03 1.276168785571e-02 -1.483310618867e-08 7.556551270959e-10 7.432295040680e-09 1.312597884663e-05 -2.397489818419e-05 1.119893388846e-05 7.500000000000e-04 4.417864669111e-06 1.240332073743e-11 4.078017187988e-12 2.832068516849e-12
78 1 1.272521692040e-03 6.042887254553e-03 1.364572667052e-02 -1.468481990499e-09 7.439069233591e-10 -5.417035280645e-10 -4.981155877564e-07 2.445991264530e-06 2.978145862803e-06 7.500000000000e-04 4.417864669111e-06 -2.158414223377e-12 -2.132546049808e-12 2.100484939777e-12
79 1 5.639268111612e-03 4.301888840550e-03 1.023565913349e-02 -2.039306665845e-09 1.568106438565e-09 2.390663169183e-12 8.354554405970e-07 -2.739534294761e-06 8.932526074119e-07 7.500000000000e-04 4.417864669111e-06 2.459287033885e-12 -2.399874012826e-12 -8.914528011146e-13
80 1 2.640217138440e-03 3.351455158874e-03 1.247151479996e-02 -2.373787028425e-09 2.222933847733e-09 1.906295999997e-10 -1.251889770126e-06 -4.150058586088e-07 3.855635295768e-07 7.500000000000e-04 4.417864669111e-06 2.112707508586e-13 2.425575660777e-12 -4.305198313551e-12
81 1 3.506831178953e-03 7.294532925279e-03 1.151674743352e-02 -1.448832376149e-09 2.075372217424e-09 -7.052894932439e-10 -8.656590623081e-07 6.839475517824e-07 3.846029585087e-07 7.500000000000e-04 4.417864669111e-06 1.019223030351e-12 -6.355684934868e-13 5.181398303472e-13
82 1 4.564915667722e-03 6.918281562595e-03 8.162021094883e-03 -1.383376337202e-09 1.752129187708e-09 -1.083756446098e-10 2.016548180738e-08 -9.090812053965e-07 -6.779213204017e-07 7.500000000000e-04 4.417864669111e-06 2.432092545460e-12 -1.525845339411e-12 1.358493595792e-13
83 1 6.439928336398e-03 6.735199155383e-03 1.044164725073e-02 -1.504293723579e-09 1.391138573998e-09 4.086356040536e-10 -4.520458350601e-07 6.976842965486e-07 -1.893949319653e-09 7.500000000000e-04 4.417864669111e-06 -1.293810645756e-12 -4.569611191196e-12 -4.119348651235e-13
84 1 9.349314719753e-04 2.871763397379e-03 1.302334543387e-02 1.340544158020e-10 1.796010933850e-09 -6.847785548268e-10 3.708521487885e-08 1.172298865868e-06 3.911053510488e-07 7.500000000000e-04 4.417864669111e-06 6.535189820315e-12 -4.420000479601e-12 3.639854939684e-12
85 1 4.814824949613e-03 5.919636402762e-03 9.197234963118e-03 -9.782008137300e-10 1.656112829496e-09 -7.819638620030e-10 5.668992737378e-07 2.017660755857e-06 9.848826103610e-07 7.500000000000e-04 4.417864669111e-06 2.283228201403e-12 -2.382117144770e-12 1.767165380879e-12
86 1 4.978507667531e-03 5.464680073023e-03 1.398883860285e-02 -1.313260417955e-08 -7.135516262678e-09 2.129412523574e-08 -1.778392926935e-06 4.989456537596e-05 7.961878516401e-06 7.500000000000e-04 4.417864669111e-06 1.244987029501e-11 1.466406431464e-11 -2.073693246191e-11
87 1 1.588260030810e-04 4.019231008661e-03 1.310612864232e-02 -9.415189126343e-10 1.237182319038e-09 -2.049911307756e-10 -1.599794614853e-07 -3.064633599936e-07 1.236881399124e-06 7.500000000000e-04 4.417864669111e-06 1.346504577696e-12 -2.135881786380e-12 -6.509988785536e-13
88 1 2.637141030608e-03 3.433435462630e-03 8.827584929157e-03 -1.390795923875e-09 1.743872961197e-09 -2.389546752024e-10 2.359612533334e-07 -1.162277308176e-07 3.575081514143e-07 7.500000000000e-04 4.417864669111e-06 1.515739366382e-12 -2.151790301295e-12 1.147499607494e-12
89 1 2.082099450915e-03 3.251749746408e-03 1.017653998279e-02 -1.004049883615e-09 1.819307320843e-09 -1.090958166827e-10 -9.725041142115e-08 5.479868914086e-07 -5.535470037595e-07 7.500000000000e-04 4.417864669111e-06 1.361285017563e-12 -2.600377833277e-12 5.354542122226e-13
90 1 3.942213975377e-03 1.697230247284e-03 8.351739802464e-03 -9.538429406739e-10 1.918375605877e-09 -4.549428588903e-10 2.871189778424e-08 -5.323115983554e-08 1.834474698229e-07 7.500000000000e-04 4.417864669111e-06 3.863264053295e-13 -3.633756434632e-12 1.909809576897e-12
91 1 1.490270484493e-03 3.776525730080e-03 1.171249144952e-02 -1.825191799823e-09 1.452370077552e-09 -3.334559611150e-10 -2.651159225550e-07 -8.639897162260e-08 -1.302618965845e-07 7.500000000000e-04 4.417864669111e-06 2.133083876233e-12 -1.080963856604e-12 -4.637083162311e-13
92 1 1.638262403199e-03 4.853132070573e-03 1.085088325127e-02 -1.550515797093e-09 1.423426561697e-09 -2.924460231550e-10 1.627922478743e-07 -1.826605543397e-07 -6.515886779758e-08 7.500000000000e-04 4.417864669111e-06 2.672524532478e-12 -2.642835844185e-12 -2.124546506894e-13
93 1 1.823441870445e-03 4.291898440145e-03 1.324726079835e-02 -7.462109520541e-10 1.364484715735e-09 8.841308267124e-10 7.949727794400e-06 -4.030840196772e-06 -6.001528303720e-06 7.500000000000e-04 4.417864669111e-06 5.825145369791e-13 -3.294599836545e-12 -1.916433660816e-12
94 1 5.783353284863e-03 3.705905502460e-03 1.203088848632e-02 -2.192633369967e-09 3.657443356078e-09 3.174171785323e-09 1.552690627573e-06 -1.162478223935e-06 -3.347927001400e-06 7.500000000000e-04 4.417864669111e-06 7.011893841238e-12 -8.149669953426e-12 -4.927473527154e-12
95 1 2.965576300056e-03 3.893890746592e-03 1.435854259853e-02 -3.443563047766e-09 5.929356978306e-09 1.167796125389e-09 -7.903520640763e-06 -1.549900740069e-06 1.472544409368e-05 7.500000000000e-04 4.417864669111e-06 5.651209426364e-12 -4.687830521007e-12 -4.370246823630e-12
96 1 5.094186027121e-03 1.313541672019e-03 7.578743984099e-03 -9.265644733030e-10 1.756619143792e-09 -1.990558286525e-10 -7.004523582873e-07 1.538434498599e-08 -1.728828065825e-07 7.500000000000e-04 4.417864669111e-06 2.618290627213e-12 1.137262531521e-11 1.467256285870e-11
97 1 3.171038165187e-03 5.872199230556e-03 9.989652474385e-03 -6.930638408913e-10 9.121646743865e-10 -6.552626461850e-11 1.154770584754e-06 8.147140324622e-08 -2.042436358828e-06 7.500000000000e-04 4.417864669111e-06 5.387970547475e-13 -1.643532514035e-12 1.349498394191e-12
98 1 3.449049851223e-03 6.122021250703e-03 8.555440897398e-03 -1.195314373165e-09 1.557396790816e-09 -1.389409732662e-10 1.569120218245e-07 7.877340549934e-07 7.516192993133e-07 7.500000000000e-04 4.417864669111e-06 1.793931450126e-12 -2.747061333651e-12 2.559198199818e-13
99 1 3.735808770578e-03 6.467518060541e-03 6.715893803088e-03 -1.708198897676e-09 3.955821415582e-10 -1.185843851758e-09 1.615050796376e-06 1.847757720359e-06 -2.228444913015e-06 7.500000000000e-04 4.417864669111e-06 2.344189002499e-12 -3.354601560966e-13 3.775163993381e-12
100 1 4.364097607621e-03 4.277500936246e-03 1.464998788331e-02 -1.063983252787e-09 2.135388765993e-09 6.214819069285e-09 1.082736938995e-05 -2.538409520321e-06 -1.935003848577e-05 7.500000000000e-04 4.417864669111e-06 6.767323882251e-13 -2.126577202452e-12 -4.934104911996e-12
101 2 1.834507317927e-03 2.180471365663e-03 1.147434328696e-02 -1.103505061026e-09 1.731205905244e-09 -1.214464145562e-10 2.516076370557e-07 -6.862195991962e-07 6.218036200118e-07 1.000000000000e-03 1.047197551197e-05 4.451026289791e-12 -3.148702043420e-12 2.611262936083e-12
102 2 5.625620452930e-03 3.985886079973e-03 8.659388838628e-03 -1.054084066664e-09 1.894945696233e-09 -3.276019092126e-10 -2.021302304252e-07 9.918201662108e-07 7.096915312451e-07 1.000000000000e-03 1.047197551197e-05 -1.192939199864e-13 -1.229061973077e-11 -1.207152795708e-12
103 2 4.409428262289e-03 4.671881466496e-03 1.125465678078e-02 -2.440697102429e-09 2.232736881808e-09 -7.861478484449e-10 -2.645852860529e-06 1.769273382452e-06 1.837697180283e-07 1.000000000000e-03 1.047197551197e-05 6.203002359232e-12 -4.803321608853e-12 1.912613935856e-12
104 2 3.508815975559e-03 4.790137182231e-03 1.301786870790e-02 -1.184194448263e-08 1.729869311469e-09 -3.826433494274e-09 1.103156221534e-06 8.325342420484e-06 -9.617946365642e-06 1.000000000000e-03 1.047197551197e-05 2.428266898298e-11 -7.191259928809e-12 1.263202432390e-11
105 2 2.525363836662e-03 5.084353644008e-03 7.597503433433e-03 -1.112467620490e-09 1.830956817410e-09 -5.691106701255e-10 9.077815762696e-07 -3.752883490178e-07 8.208465570372e-07 1.000000000000e-03 1.047197551197e-05 -1.406260482040e-12 -1.137530401691e-11 -9.140234518902e-13
106 2 4.254121526920e-03 3.101144102825e-03 1.219449233834e-02 -2.500551582969e-09 3.336665704899e-09 8.101981378741e-10 7.770373918507e-07 -6.343039797329e-07 2.891740811059e-07 1.000000000000e-03 1.047197551197e-05 2.216971513474e-12 -1.179031276818e-11 -1.569773493167e-11
107 2 6.047916746771e-03 2.772995750510e-03 1.064561742413e-02 -1.922451731676e-09 2.378599508351e-09 1.062861144927e-09 -1.127412766810e-06 2.199088169141e-07 -3.312261583436e-07 1.000000000000e-03 1.047197551197e-05 6.266332311010e-12 -5.694793713419e-12 -4.007800570207e-12
108 2 2.275241909766e-03 2.121951144916e-03 1.355122077621e-02 -2.222799971251e-10 7.947580650213e-10 2.496689260264e-10 2.583298760377e-07 -2.029508322395e-06 -1.101144587001e-06 1.000000000000e-03 1.047197551197e-05 -6.709876079322e-12 -4.661328913142e-12 2.116243389102e-12
109 2 4.567024125389e-03 6.267443155980e-03 1.224962795807e-02 -3.277922483421e-09 1.116359351025e-09 -1.216408873857e-09 3.568439784930e-06 -3.249642731657e-06 -1.040515470749e-06 1.000000000000e-03 1.047197551197e-05 8.508433187698e-12 6.838719246593e-13 3.250029633979e-12
110 2 3.881127042548e-03 4.552553024700e-03 8.773226863523e-03 -1.229864875537e-09 1.670475280708e-09 3.751704099490e-11 -4.999525366381e-07 -3.141160577974e-07 -5.051431670390e-07 1.000000000000e-03 1.047197551197e-05 3.884721707306e-12 -5.055495342663e-12 -1.368640576131e-12
111 2 5.455494284325e-03 3.111695190409e-03 6.969435428170e-03 -1.819264005301e-09 2.231913194578e-09 -9.334152950121e-10 6.622819845309e-07 -5.794677776062e-07 -1.192243645089e-06 1.000000000000e-03 1.047197551197e-05 7.024131890439e-12 -7.096459492072e-12 1.021909740428e-12
112 2 4.263603396906e-03 3.175510475024e-03 1.003358157399e-02 -1.827791535872e-09 1.615982241296e-09 3.635066360550e-10 7.937989105836e-07 -8.094496532422e-07 8.778170517315e-07 1.000000000000e-03 1.047197551197e-05 7.084062526191e-12 -4.988099688748e-12 -5.793313724249e-13
113 2 2.393337736440e-03 2.023516411511e-03 7.973184334210e-03 -1.020872861161e-09 1.760117188763e-09 -6.428571320811e-10 1.951983190501e-07 -1.823910642591e-07 9.195208554628e-08 1.000000000000e-03 1.047197551197e-05 -1.371377247714e-12 -4.420799554629e-12 6.567937362352e-12
114 2 4.769832753491e-03 7.188390154377e-03 1.037262905205e-02 -1.319791320640e-09 1.512706429000e-09 -6.576710730439e-10 7.152560969158e-07 -4.568854896818e-07 -2.937927533403e-07 1.000000000000e-03 1.047197551197e-05 5.316761523559e-13 -2.892764178945e-12 6.661526484295e-13
115 2 2.591321554221e-03 1.439063396989e-02 5.807115839604e-03 -5.877029105494e-10 1.110083732951e-09 -6.235865016861e-10 -4.858944891156e-07 -4.004520399823e-08 2.162728472183e-07 1.000000000000e-03 1.047197551197e-05 3.691946983618e-12 -7.370499506418e-12 -7.273059378789e-12
116 2 3.289027373243e-03 1.309532713744e-02 3.972428963825e-03 -3.893239389450e-10 7.255541235617e-10 -3.157708331029e-10 -7.300525650836e-07 2.811046211174e-07 -8.038366754526e-07 1.000000000000e-03 1.047197551197e-05 2.108198326490e-12 -3.396313076510e-12 -1.279745880857e-12
117 2 5.010163343627e-03 1.135934472621e-02 7.140110105143e-03 -8.537636098413e-10 1.880997550055e-09 -2.398825955687e-10 -3.146378598257e-07 -3.673315689562e-07 -5.262121717166e-07 1.000000000000e-03 1.047197551197e-05 6.105606112101e-12 -1.523728728671e-11 3.366639287513e-12
118 2 2.283038610266e-03 8.033885494052e-03 8.572055614648e-04 4.719120023854e-11 1.215678124119e-10 1.953433316004e-10 -9.936993157421e-08 9.825779300758e-08 1.280805736638e-06 1.000000000000e-03 1.047197551197e-05 -2.155118340753e-13 -2.974080061914e-12 -4.995403841336e-12
119 2 3.350473994081e-03 1.054675968964e-02 2.249639742529e-03 -8.020376077301e-11 8.700969259058e-10 -4.218793643078e-10 -1.052445496280e-06 -5.841702017604e-07 6.396060900821e-07 1.000000000000e-03 1.047197551197e-05 8.501463689265e-13 -2.264284750539e-12 1.530588382593e-12
120 2 5.425346961210e-03 5.871882783346e-04 4.296817300086e-03 -1.244347416671e-09 2.342127458451e-09 -5.313349571378e-10 1.655306054760e-06 1.233063858043e-06 -1.150816267371e-07 1.000000000000e-03 1.047197551197e-05 9.382556708873e-12 -1.574733790440e-11 1.884228260657e-12
121 2 2.946476124388e-03 1.278276979852e-02 6.872388028540e-03 -6.197879861298e-10 1.416942478369e-09 -1.209309103412e-10 4.281621353187e-08 -5.497623737675e-08 -8.743771727789e-09 1.000000000000e-03 1.047197551197e-05 5.646450335097e-13 -5.107578113999e-12 -5.778532880859e-13
122 2 4.329091738092e-03 1.161581027001e-02 9.394387204657e-04 -3.027129245330e-10 3.800612238058e-10 -2.811535903969e-10 -2.835541441979e-07 -3.883649019740e-07 4.826526844014e-07 1.000000000000e-03 1.047197551197e-05 -1.138239774657e-12 -1.261415074384e-12 1.078128056727e-12
123 2 6.201055776609e-03 1.422288358127e-02 4.889080502057e-03 -2.209783753988e-10 1.499764605036e-09 -1.091911930067e-09 -1.291122418502e-06 -4.714887619938e-07 1.683860598771e-07 1.000000000000e-03 1.047197551197e-05 2.128456654346e-12 -7.407805435973e-12 6.821155049396e-12
124 2 4.303011215255e-03 1.447718613566e-02 4.814472272742e-03 -2.803078424495e-10 1.030143687847e-09 -8.968799011834e-10 3.295186459144e-07 4.785599382871e-07 6.864276402311e-07 1.000000000000e-03 1.047197551197e-05 4.723720172782e-12 -5.455704952519e-12 1.313048736702e-12
125 2 6.040066242870e-03 1.448728284668e-02 2.961665503668e-03 -2.191926017616e-09 2.187177252977e-09 -1.834791111224e-09 2.064081128622e-06 2.426410802590e-06 7.274830022150e-07 1.000000000000e-03 1.047197551197e-05 1.090777868476e-11 -1.474986099028e-11 7.026294494937e-12
126 2 1.763097884963e-03 9.387569109644e-03 1.998616598395e-03 -2.969378390986e-10 5.400255079962e-10 -1.685627351417e-10 -7.635440064016e-07 -1.506624031488e-07 -7.578749281452e-07 1.000000000000e-03 1.047197551197e-05 2.537487314161e-12 -3.364716956201e-12 -4.396038772725e-12
127 2 3.569858325268e-03 9.420639060653e-03 5.006383628467e-03 -3.571418646334e-10 1.025523668915e-09 -3.938270038727e-11 -1.600770289018e-08 -2.186453092493e-07 6.697264448049e-08 1.000000000000e-03 1.047197551197e-05 9.823523268214e-13 -4.102706064188e-12 -9.019423948552e-13
128 2 7.519306638027e-03 1.194722971921e-02 2.568735330646e-03 -3.748342995728e-10 9.729984268482e-10 -3.519741515335e-14 -4.105925621431e-07 1.397261194150e-08 4.030921870319e-07 1.000000000000e-03 1.047197551197e-05 2.119754221572e-12 -6.106584096497e-12 9.481510474389e-14
129 2 2.161577436638e-03 9.301343507973e-03 7.205739814097e-03 -5.906252257300e-10 1.209153504217e-09 1.988886617170e-12 -1.169414118539e-07 -2.791636115121e-07 -5.515320359244e-08 1.000000000000e-03 1.047197551197e-05 1.696457315406e-12 -2.660959426142e-12 1.163383471430e-12
130 2 5.902573406414e-03 2.136785457512e-04 8.360780654545e-04 6.688727047063e-10 1.840081302989e-09 5.700112178506e-10 -1.677380189073e-06 1.374856181236e-06 -2.197959371947e-06 1.000000000000e-03 1.047197551197e-05 -5.088400734023e-12 -6.957794314610e-12 -1.253135393476e-12
131 2 1.728124737709e-03 6.363703754950e-04 2.356526809482e-03 1.584151865809e-09 -3.931470874671e-10 -1.325498807428e-09 1.545709937553e-06 2.074547215228e-06 -2.548208045148e-06 1.000000000000e-03 1.047197551197e-05 -1.075669930699e-11 2.713661972844e-13 1.011462417930e-11
132 2 1.676369459635e-03 9.291460942094e-03 5.350613703111e-03 -3.769544564743e-10 1.107731607192e-09 -1.158003055408e-10 2.188449735977e-07 1.026205318472e-07 1.022795837857e-08 1.000000000000e-03 1.047197551197e-05 5.826183547339e-12 4.336155395345e-12 7.598112857885e-13
133 2 2.591257720027e-03 7.799168630656e-03 2.744085927640e-03 -1.627367524533e-10 1.523157234871e-10 1.452321295534e-10 7.429803468207e-08 -1.051286721480e-07 -2.239989887232e-06 1.000000000000e-03 1.047197551197e-05 -5.312797964656e-12 -2.462113658836e-13 -3.062196229662e-12
134 2 5.768029855955e-03 9.661736689439e-03 7.162837615832e-03 -9.768886719315e-10 1.493616086985e-09 2.838046825801e-10 1.227472977677e-07 -4.643370144845e-07 2.220319136692e-07 1.000000000000e-03 1.047197551197e-05 1.914412584457e-12 -3.091261607145e-12 2.447815195808e-12
135 2 7.207944138887e-03 1.034831475454e-02 8.610135083406e-04 -2.531111975820e-10 5.653317576973e-10 -1.898700162649e-10 -4.504416135239e-07 -2.161572814246e-07 -5.313912504113e-07 1.000000000000e-03 1.047197551197e-05 -2.146301118169e-12 -4.151266520311e-12 -8.323844546957e-13
136 2 1.416375883534e-03 1.297336397486e-02 4.390200516143e-03 -2.141961469950e-10 1.537905330839e-09 -3.953546443820e-10 6.172585735317e-07 -3.745222780042e-07 5.568532102181e-08 1.000000000000e-03 1.047197551197e-05 1.453850093009e-12 -3.019425908364e-12 5.804021710977e-13
137 2 3.052711545876e-03 6.322049476591e-03 1.568151802900e-03 1.218707334742e-10 -2.313156570440e-10 6.125720754160e-12 -4.593036479700e-07 5.350908182793e-07 3.562737149986e-06 1.000000000000e-03 1.047197551197e-05 -2.087716658215e-12 4.518616530936e-13 -7.043662503851e-13
138 2 2.126890652563e-03 1.166533095910e-02 3.234229772930e-03 -2.884684466246e-10 1.627505492247e-09 -1.083813544791e-09 -8.449894308708e-07 1.636527767466e-06 5.019815132033e-07 1.000000000000e-03 1.047197551197e-05 2.284497842390e-12 -7.362521982803e-12 1.304208223571e-11
139 2 6.142516535656e-03 1.266450741915e-02 3.770026635312e-03 -5.082797517493e-10 1.163079002090e-09 -3.678685868612e-10 7.256049695052e-07 -2.769633951237e-07 -1.218287969530e-06 1.000000000000e-03 1.047197551197e-05 2.797971981763e-12 -5.801635794536e-12 5.993687551529e-12
140 2 3.197123442191e-03 7.051910397506e-04 5.015350537599e-03 -3.597335639742e-10 5.754776838029e-10 -6.935613192709e-10 -7.194064315137e-08 -8.973327654617e-08 -6.590678204006e-07 1.000000000000e-03 1.047197551197e-05 6.156730065405e-12 -5.069861619989e-14 -1.361739926248e-12
141 2 1.527853479182e-02 7.610555641399e-03 9.555117530146e-04 6.298825931000e-11 -1.643696670827e-10 -3.137414918781e-10 3.826279944397e-07 2.005175782207e-07 -7.547675392481e-07 1.000000000000e-03 1.047197551197e-05 -5.406170882846e-13 -5.640076607130e-13 8.273747945792e-13
142 2 3.801795747965e-03 1.146153951720e-03 3.237683399184e-03 3.929666732133e-10 2.991547055060e-09 -1.048948196467e-09 -7.020858058660e-06 1.941200100635e-06 9.637009585100e-06 1.000000000000e-03 1.047197551197e-05 -7.772631637640e-12 -2.123631261327e-11 -2.673467424289e-12
143 2 9.340310532669e-04 6.032457358998e-03 7.133755797423e-03 -1.532183670702e-09 1.057143778937e-09 -3.672789907733e-10 1.778679002689e-07 -5.375568412011e-08 -7.399610802549e-08 1.000000000000e-03 1.047197551197e-05 4.589494705451e-12 -9.796488038573e-13 -2.803380567277e-12
144 2 2.588865000053e-03 7.667114540593e-03 4.602230137142e-03 -5.019940736377e-10 4.895101911886e-10 2.719569227577e-10 -2.708438855166e-07 -6.653607979938e-08 -3.407860970389e-07 1.000000000000e-03 1.047197551197e-05 -6.039202325438e-13 -6.227173297585e-13 -4.409689058346e-12
145 2 5.850059289668e-04 1.245606759955e-02 2.515834028691e-03 -1.222092266843e-09 1.156382783267e-09 3.100825708844e-10 5.349616838614e-07 1.763309493013e-07 -9.051850114193e-08 1.000000000000e-03 1.047197551197e-05 5.077052608362e-12 -8.019584190673e-12 1.284472297292e-12
146 2 2.517210732236e-03 7.156175381908e-03 7.610963731544e-03 -1.053048376377e-09 1.104133788215e-09 -1.938444106002e-10 2.124709977301e-08 -9.472691132748e-07 1.076770249035e-07 1.000000000000e-03 1.047197551197e-05 1.736343269090e-12 -3.895862820406e-12 1.711102445856e-12
147 2 2.643535441717e-04 9.499749343316e-03 7.625311407375e-04 -1.170683157525e-11 5.453121013699e-11 1.723335350766e-11 -9.213196616672e-08 1.079436051072e-07 6.658081621588e-07 1.000000000000e-03 1.047197551197e-05 2.515455900043e-12 -1.522844414014e-12 -4.551200623450e-12
148 2 5.535562387717e-03 8.332981173267e-03 9.117941240951e-04 -2.302504169680e-10 2.129883399834e-10 1.169776922541e-10 4.643805086910e-08 -2.334847697692e-07 1.712223128385e-06 1.000000000000e-03 1.047197551197e-05 -1.294102878179e-12 -4.642213943335e-13 -4.992042363456e-13
149 2 4.620372020847e-03 1.415944758164e-02 8.653863984833e-04 6.164017238271e-10 1.286005302618e-09 -2.309175885812e-10 -1.243217157203e-06 1.109819903368e-06 -1.776511937929e-07 1.000000000000e-03 1.047197551197e-05 -6.582226993796e-12 -4.241505207560e-12 8.552673768295e-12
150 2 2.721203553106e-03 1.450162855742e-02 8.436823230235e-04 7.300798634611e-10 5.799403341973e-09 5.448857315342e-10 -5.840645566534e-06 9.259061815711e-07 -4.548632128617e-06 1.000000000000e-03 1.047197551197e-05 -5.662379865512e-12 -2.512612471950e-11 1.985038610987e-12
151 2 4.359697743890e-03 1.425823508579e-02 6.677047212200e-03 -7.788724782095e-10 1.803866734256e-09 -5.467400631905e-10 -9.132781106700e-07 -7.551448031470e-07 -6.715052229947e-08 1.000000000000e-03 1.047197551197e-05 3.778322491759e-13 -4.495890402713e-12 5.021439884878e-12
152 2 2.691721565372e-03 1.311911381495e-02 2.128563651849e-03 -1.841450232977e-09 5.436390421739e-09 9.089320287032e-10 5.620728599440e-06 1.255747472909e-06 -4.192316320801e-07 1.000000000000e-03 1.047197551197e-05 1.088471409323e-11 -2.726604468399e-11 -4.614295370729e-12
153 2 4.636234290313e-03 1.143549611905e-02 3.379966578890e-03 -1.798297604395e-10 5.535702741873e-10 1.326885526772e-10 6.506920010423e-07 -3.325036673483e-07 -1.458336674507e-06 1.000000000000e-03 1.047197551197e-05 -1.349738210481e-12 6.814660332869e-14 -2.242040732289e-12
154 2 4.650949555478e-03 1.316619819927e-02 2.579208992572e-03 -6.615707199247e-10 1.082423262816e-11 -6.883676552310e-10 -1.514196846573e-06 -1.122293486644e-07 2.445169389403e-06 1.000000000000e-03 1.047197551197e-05 -2.638363267171e-12 1.927288891973e-12 7.191449492991e-12
155 2 2.192929410981e-03 1.308998897064e-03 6.317806797951e-03 -5.806948549948e-10 1.337069862229e-09 -9.204210046057e-10 -5.599767169939e-07 -2.388146612494e-07 3.027442743419e-07 1.000000000000e-03 1.047197551197e-05 -2.334611994938e-13 -2.512887744075e-12 6.150017879793e-12
156 2 5.949729003993e-03 1.315523016788e-02 6.432328874658e-03 -9.675565823358e-10 1.881297460246e-09 -5.585492323365e-10 5.440823332011e-07 -6.014087605133e-07 -1.516906834840e-07 1.000000000000e-03 1.047197551197e-05 5.622534450574e-13 -5.610997192495e-12 2.723026730193e-12
157 2 4.416776348487e-03 7.972022990140e-03 2.373093708888e-03 1.385144172313e-11 -7.651525771227e-10 1.202738101905e-10 -1.221581711432e-06 -4.562273865124e-08 1.496070893728e-06 1.000000000000e-03 1.047197551197e-05 -3.168356839063e-12 7.722222077444e-12 -2.016621625391e-12
158 2 1.799926090969e-03 1.132532439454e-02 1.025009770335e-03 3.668399818255e-82 -4.937374246873e-82 1.812219906482e-82 7.135844669915e+02 5.662723153513e+02 -6.677749503634e+02 1.000000000000e-03 1.047197551197e-05 -3.671906230418e-83 4.942093598625e-83 -1.813952103144e-83
159 2 4.819933614918e-03 9.526489806813e-03 3.470245074560e-03 -1.259275282853e-09 2.098749588232e-10 -7.730239991682e-10 2.353231820631e-07 3.309997505455e-07 2.459392019039e-07 1.000000000000e-03 1.047197551197e-05 -2.599728429169e-12 2.689134762416e-12 2.543492762682e-12
160 2 5.728763695850e-03 1.076242812263e-02 1.985859226469e-03 -3.687009540007e-10 8.179831260612e-10 -1.258163592822e-10 3.862817626911e-07 4.447111598275e-08 2.790265745780e-07 1.000000000000e-03 1.047197551197e-05 3.246737220059e-13 -6.193223129226e-12 5.053249197260e-13
161 2 3.413202400784e-03 1.061356924852e-02 6.479509899421e-03 -7.217394787161e-10 1.397623536268e-09 -1.526800140545e-10 -4.221017509678e-07 1.531946789243e-07 5.733680241765e-07 1.000000000000e-03 1.047197551197e-05 3.499577907967e-13 -6.916507142343e-12 5.500780091942e-13
162 2 4.557582660142e-03 7.778360226307e-03 4.734024406854e-03 -4.153629912000e-10 7.012813592084e-10 2.795184795604e-10 1.153302651117e-06 3.406662455437e-07 8.572737977721e-07 1.000000000000e-03 1.047197551197e-05 -1.887797132067e-12 -5.580331072671e-12 2.170769923649e-12
163 2 4.397047409646e-03 1.244317729042e-02 5.680790727200e-03 -1.040283015279e-09 1.482882702910e-09 -6.124174406430e-10 -4.187461229914e-07 7.577915494834e-07 3.785135280209e-07 1.000000000000e-03 1.047197551197e-05 -2.137666401015e-14 -2.330918396553e-12 -1.163671106305e-12
164 2 1.062384670377e-03 1.339230706744e-02 9.095999059042e-04 4.432026796370e-11 5.430833896143e-10 7.870117744301e-11 -5.861381285815e-07 -5.952155916634e-08 -2.263485261769e-06 1.000000000000e-03 1.047197551197e-05 -8.690963243311e-13 -4.334303539628e-12 1.677240517489e-13
165 2 3.274875959140e-03 1.131822502732e-02 4.683616154708e-03 -8.710748315104e-10 8.104800719342e-10 -1.749038188159e-10 6.201385257581e-08 -3.140932808630e-07 4.438523361393e-07 1.000000000000e-03 1.047197551197e-05 -4.623461079087e-12 6.363296816816e-13 -1.649967620456e-12
166 2 3.846535010176e-03 9.249033273229e-03 9.259133955473e-04 -1.562981013826e-10 -5.444259711718e-11 1.139272912488e-10 1.660424898560e-07 -6.651080685719e-09 -1.420017253184e-06 1.000000000000e-03 1.047197551197e-05 1.886273195503e-12 4.026425918297e-12 -1.431980049849e-13
167 2 2.749570619130e-03 1.494246606197e-02 3.711306777407e-03 2.014727141293e-10 1.217488279555e-09 -9.982436085654e-10 3.872712057747e-07 -1.196805567434e-06 3.871846744671e-07 1.000000000000e-03 1.047197551197e-05 -5.953691950492e-13 -1.783383634101e-12 -4.074200362647e-12
168 2 2.273441600173e-03 9.848202386686e-03 3.681159249681e-03 -1.466492005885e-10 1.357824763635e-09 -2.324295388709e-10 -3.887729275351e-08 -1.535342822861e-10 -5.020742327031e-07 1.000000000000e-03 1.047197551197e-05 3.746067662548e-12 -5.300138959322e-12 9.954319195060e-12
169 2 5.104525246359e-03 7.814957011139e-03 6.873428364163e-03 -5.737977568097e-10 1.466165464097e-09 9.496628016717e-11 -2.007134568483e-07 -1.688921826904e-07 2.639722724215e-07 1.000000000000e-03 1.047197551197e-05 -8.419008425745e-13 -8.776510650874e-12 -3.344259378088e-12
170 2 4.984114766812e-03 1.060817931235e-02 5.356704685850e-03 -4.354733344890e-10 1.202057419758e-09 1.530930002604e-10 -5.316383704891e-07 -5.438897123697e-07 -2.317639184901e-07 1.000000000000e-03 1.047197551197e-05 -1.085140218392e-12 -4.630576283112e-12 -1.087243342909e-12
171 2 5.562890455189e-03 9.632250488785e-04 2.477853711388e-03 2.097713428435e-09 4.463331031528e-09 9.886990842399e-11 5.932696458866e-07 -3.359259770858e-06 -5.514331038252e-06 1.000000000000e-03 1.047197551197e-05 -6.767946833259e-12 -3.083285237125e-11 -1.170027779825e-11
172 2 3.797976796110e-03 1.483978844276e-02 2.314282986898e-03 2.695732769212e-09 1.531455241497e-09 8.314776842139e-10 4.228223208303e-06 -1.649180262765e-06 -5.929704172257e-06 1.000000000000e-03 1.047197551197e-05 -2.615270941558e-11 -7.865642057265e-12 -4.671118511758e-12
173 2 3.336420313931e-03 8.068738644490e-03 6.261561133810e-03 -5.124013200884e-10 1.025013892446e-09 1.252755019071e-10 -2.416798898456e-07 1.579631935560e-07 -4.527337218482e-08 1.000000000000e-03 1.047197551197e-05 1.631707386153e-12 -3.133870051031e-12 -1.580261805330e-12
174 2 1.482617538296e-03 1.536307399852e-02 1.075949609349e-02 -1.005022052533e-09 1.409730832977e-09 -4.587545725480e-10 1.364809953956e-07 -4.044758408224e-07 -1.009489242396e-07 1.000000000000e-03 1.047197551197e-05 -5.488201312714e-13 -3.747322723883e-12 1.018979221325e-12
175 2 1.341725465079e-03 1.014390036456e-02 1.252379187008e-02 -7.345385523347e-10 1.263933225833e-09 -2.820519997003e-10 4.497141935498e-07 5.979984674716e-08 3.311566383781e-07 1.000000000000e-03 1.047197551197e-05 6.117190148624e-12 -4.494654713720e-12 -2.330670713345e-12
176 2 9.510751889061e-04 9.100143774835e-03 1.035431101889e-02 -1.071722920620e-09 1.631177404990e-09 -1.118034281394e-10 8.121643625387e-07 7.814876376221e-08 -1.032992785617e-07 1.000000000000e-03 1.047197551197e-05 5.289608905881e-12 -4.451497955525e-12 -1.887785687715e-12
177 2 4.007535000346e-03 9.128035280438e-03 7.895806487271e-03 -9.664477570739e-10 1.349379483256e-09 4.220622020904e-11 -2.733111078253e-07 1.003218921328e-07 -8.907140659401e-09 1.000000000000e-03 1.047197551197e-05 1.335849344535e-12 -8.087230642970e-12 1.464757783344e-12
178 2 2.314885940748e-03 1.374231587367e-02 1.138907070881e-02 -8.940454845269e-10 1.193912165817e-09 -4.801006021070e-10 3.022193529852e-07 -1.096820258535e-07 2.262459004397e-07 1.000000000000e-03 1.047197551197e-05 -3.326231237702e-12 -2.704377057600e-12 2.737446268211e-12
179 2 4.165172697890e-03 1.389614545493e-02 9.627875762872e-03 -7.852339075654e-10 1.945685958291e-09 -2.764788686414e-10 -6.756144906419e-07 2.593886050943e-07 4.669404967741e-07 1.000000000000e-03 1.047197551197e-05 -7.064348567151e-13 -6.030729594722e-12 4.926325844719e-12
180 2 4.955482643688e-03 1.522377833932e-02 1.444402880680e-02 -8.359462607051e-10 9.855424731183e-10 3.720985015089e-11 6.736368009385e-07 7.234463053518e-07 7.184213650765e-07 1.000000000000e-03 1.047197551197e-05 3.866319352440e-12 1.694174419085e-12 -2.991538616996e-12
181 2 5.054887047653e-03 1.200948462547e-02 9.930034855703e-03 -8.964580824885e-10 1.209708031105e-09 1.528879595004e-10 1.939450150713e-07 2.039460478289e-07 3.114927590592e-07 1.000000000000e-03 1.047197551197e-05 3.036212664471e-12 -1.064933976194e-11 4.016822227256e-12
182 2 3.113274585378e-03 1.073928989014e-02 1.255236177919e-02 -8.781666437603e-10 1.665482359987e-09 1.783304314749e-10 -2.732156036038e-07 -4.059054859194e-07 1.150460499943e-07 1.000000000000e-03 1.047197551197e-05 5.058531768585e-12 -2.354355326816e-12 1.888124908747e-12
183 2 1.659225742169e-03 1.410523911749e-02 1.313909833074e-02 -6.257620354719e-10 1.247832468608e-09 -3.358129845978e-10 -4.006024150919e-07 4.086203409965e-07 -5.564910841872e-07 1.000000000000e-03 1.047197551197e-05 -1.666555215675e-13 -3.849329426453e-12 2.412425405464e-12
184 2 2.789627645686e-03 8.733152769685e-03 1.116867392384e-02 -6.093373058998e-10 1.969742224888e-09 1.933406214417e-10 2.913333936447e-07 1.269286189505e-06 -1.307489702457e-06 1.000000000000e-03 1.047197551197e-05 8.682158336836e-12 -6.167190702834e-12 -5.186113444392e-12
185 2 5.506507410748e-03 9.802337504292e-03 9.256611810220e-03 -9.289442997243e-10 1.368015942038e-09 1.691224706565e-11 7.090309199861e-09 -5.746886259728e-08 2.445811461085e-07 1.000000000000e-03 1.047197551197e-05 2.387750196383e-13 -5.797191105166e-12 1.478319407553e-12
186 2 6.989174217055e-03 2.992105623335e-04 1.329808861611e-02 -2.141369294467e-09 3.324582748413e-09 1.084411450511e-09 1.518703313478e-07 8.089257136482e-07 -1.842462066231e-06 1.000000000000e-03 1.047197551197e-05 9.220991003770e-12 -2.923558241499e-12 -5.778400236626e-12
187 2 5.442484845090e-03 1.400153369453e-03 1.345531805478e-02 -3.889658453333e-09 2.680197066761e-09 2.678004274985e-10 -3.327543543317e-07 -2.079777176005e-06 3.868876979349e-06 1.000000000000e-03 1.047197551197e-05 1.234568674416e-11 -1.235258004276e-11 1.261231903593e-12
188 2 2.231036665683e-03 9.817942252282e-03 9.101542096131e-03 -8.904388154720e-10 1.707448431728e-09 -3.930687300507e-11 -3.724285727949e-07 -6.135459223017e-08 -1.236911415521e-08 1.000000000000e-03 1.047197551197e-05 1.531799285980e-12 -2.935354389454e-12 2.605387773020e-13
189 2 1.444977202887e-03 1.182930479619e-02 9.428269938364e-03 -7.155074987746e-10 1.358776557028e-09 -5.653418727143e-11 9.793582543150e-08 1.362056002550e-07 7.023348927381e-09 1.000000000000e-03 1.047197551197e-05 1.747590119003e-12 -5.634946589370e-12 -1.032108673005e-12
190 2 6.650227962858e-03 1.515277575150e-02 1.147099012179e-02 -1.126911179684e-09 2.913788178199e-09 7.164795419368e-10 -9.821094110543e-08 -1.170659877414e-06 2.160231163711e-06 1.000000000000e-03 1.047197551197e-05 3.868975337082e-12 -1.297450119957e-11 -6.427556391224e-13
191 2 4.425220116169e-03 1.069114322165e-02 1.109595084552e-02 -6.954524870912e-10 9.603775221273e-10 4.662337436423e-10 -2.806025392669e-07 -2.997743522378e-08 -1.799339576047e-07 1.000000000000e-03 1.047197551197e-05 -1.957346748809e-13 -5.725417735397e-12 2.447349827748e-14
192 2 2.837078449187e-03 1.455777419473e-02 7.757658910658e-03 -1.082536760625e-09 1.850258926627e-09 -5.631224832503e-10 3.597619663508e-07 5.639705027307e-07 4.378643323325e-07 1.000000000000e-03 1.047197551197e-05 2.626276373104e-12 -6.201836376996e-12 7.265869755637e-12
193 2 1.112780014585e-03 8.334430594184e-03 1.211733726010e-02 -5.657858152969e-10 1.203529669293e-09 -3.538855690870e-10 -3.945873161209e-07 5.983083385651e-07 -1.596522528421e-08 1.000000000000e-03 1.047197551197e-05 6.893691361551e-12 -2.701604627366e-12 -3.328487009005e-12
194 2 3.320285440380e-03 8.342930263504e-04 1.445770232951e-02 -1.184584748729e-09 2.424515275083e-10 2.513730028535e-10 3.079078424865e-07 1.120496575738e-06 3.719561747200e-07 1.000000000000e-03 1.047197551197e-05 1.588399204694e-13 -1.618903218837e-12 -1.216486432725e-12
195 2 5.473896670294e-03 1.444760576959e-02 1.279860188790e-02 -1.150858872184e-09 1.696202068535e-09 -1.239186384197e-10 4.665026244545e-08 -5.276704810171e-07 -1.989342590765e-07 1.000000000000e-03 1.047197551197e-05 7.163395619093e-12 -8.806371908753e-12 1.205630782322e-12
196 2 3.853926122538e-03 1.343075249942e-02 1.262546861183e-02 -1.048797761705e-09 1.518398695204e-09 -3.951841893054e-10 -1.839226935369e-07 3.567192633979e-08 2.409795162281e-07 1.000000000000e-03 1.047197551197e-05 5.445658500283e-12 -6.025711950460e-12 2.077895746945e-12
197 2 3.440614348010e-03 1.519857723187e-02 1.078979542106e-02 -1.127678041855e-09 1.780753603058e-09 -1.352176354794e-10 4.016549229432e-07 1.075453642024e-07 3.523569673097e-07 1.000000000000e-03 1.047197551197e-05 4.676374932953e-13 -8.538191451910e-12 2.972487326703e-12
198 2 3.986091616050e-03 1.092798370878e-02 8.756829548708e-03 -7.892263653702e-10 1.320942015062e-09 -1.062848599369e-11 -1.238149180180e-07 -6.580831386901e-08 -1.215534803349e-07 1.000000000000e-03 1.047197551197e-05 3.128602695409e-12 -6.533994882006e-12 2.180982980206e-12
199 2 3.115568454557e-03 1.261453358001e-02 8.821085185422e-03 -6.930366354737e-10 1.398887566605e-09 -5.418188058128e-11 9.082714109710e-08 -9.082837333603e-08 -4.827692512457e-08 1.000000000000e-03 1.047197551197e-05 1.499667685473e-12 -5.313372668713e-12 1.011429716722e-12
200 2 5.950463687894e-03 1.520738468906e-02 9.671593375502e-03 -1.065313427629e-09 1.594076094725e-09 5.205783475158e-11 -2.694331010230e-07 1.331087564940e-07 3.727627359444e-07 1.000000000000e-03 1.047197551197e-05 2.870895122011e-12 -6.063955869762e-12 2.814324067542e-12
201 2 3.849428484849e-03 9.382338691061e-03 9.849304440581e-03 -1.032693752423e-09 1.359190043114e-09 -1.147043590084e-10 4.756409029220e-07 -8.906942254185e-09 -4.033188758046e-07 1.000000000000e-03 1.047197551197e-05 2.349612093918e-12 -9.839260983827e-12 -2.602683025564e-12
202 2 2.315719906525e-03 1.122032522908e-02 7.850049262668e-03 -7.748998137403e-10 1.430725126589e-09 -2.026670144376e-10 1.066467211354e-08 -4.047003647090e-08 -7.131253168350e-08 1.000000000000e-03 1.047197551197e-05 1.094693025268e-12 -5.431721622033e-12 1.480195179656e-13
203 2 2.685067947489e-03 8.906983025234e-03 1.300070317704e-02 -1.000663875379e-09 1.485357011097e-09 4.859923361706e-10 3.150613236544e-07 -1.810064665029e-06 5.783907326339e-08 1.000000000000e-03 1.047197551197e-05 5.375147223550e-11 4.581306366453e-11 -5.966473666665e-11
204 2 4.691475081817e-03 1.169563812915e-02 1.277794835236e-02 -4.403376857772e-10 1.666092476523e-09 1.456580294698e-10 -6.468567568412e-07 2.155068735194e-08 -5.313436784673e-07 1.000000000000e-03 1.047197551197e-05 -1.393669598881e-12 -4.911008495215e-12 -1.565587153500e-12
205 2 6.056490677768e-03 1.044822958592e-02 1.346678932683e-02 -1.846049547452e-09 1.037577709403e-10 1.710226482316e-10 3.373318067173e-08 -8.179222822635e-07 -8.770139327868e-07 1.000000000000e-03 1.047197551197e-05 5.639918655005e-12 1.877382261864e-12 3.975055920123e-13
206 2 3.663206483513e-03 1.042020974850e-02 1.440582438918e-02 -1.028509612892e-09 -7.344283773745e-10 -2.693443308993e-11 -9.567439007922e-07 9.291229678325e-07 -1.135535978946e-06 1.000000000000e-03 1.047197551197e-05 2.298897210859e-12 1.518572483740e-12 1.400788272483e-12
207 2 6.160285651210e-03 1.118422020108e-02 1.166826029902e-02 -6.495288811426e-10 8.749004450081e-10 2.807235145974e-10 4.056997268586e-07 1.631411257461e-07 -8.855871270495e-08 1.000000000000e-03 1.047197551197e-05 3.590848859925e-12 -4.543625969932e-12 4.231068578640e-14
208 2 5.540869209053e-03 1.201298217985e-02 1.444749308210e-02 7.548869003343e-11 7.163100431841e-10 2.484111852922e-10 6.301428665632e-07 -8.482054817704e-08 -1.896795140225e-06 1.000000000000e-03 1.047197551197e-05 -8.917917795455e-14 2.981466807167e-12 1.613691037845e-13
209 2 3.256100229789e-03 1.426112087614e-02 1.441211215711e-02 -1.664594784113e-10 4.168519340531e-11 -2.852893563887e-10 2.384264435369e-07 1.375382199545e-07 9.264478594641e-07 1.000000000000e-03 1.047197551197e-05 -2.242224953452e-12 -4.037398902380e-14 1.466095919153e-12
210 2 3.422054532919e-03 7.667172732203e-03 9.188616478091e-03 -1.511115632343e-09 1.648965393255e-09 -2.151819113790e-10 -3.216554988835e-07 7.015345108680e-07 2.401863691097e-07 1.000000000000e-03 1.047197551197e-05 -1.195508736030e-13 -5.282154625972e-12 -3.074241651783e-12
211 2 2.699550479082e-03 6.589287099352e-03 1.286419199174e-02 -2.829671801894e-09 2.467494724399e-09 -7.965259883128e-10 -9.456948599794e-08 -1.418954800817e-06 1.693422199348e-08 1.000000000000e-03 1.047197551197e-05 2.610520492647e-12 -4.429291564139e-12 7.445085193747e-12
212 2 4.802488500400e-03 1.326538978902e-03 9.722202109979e-03 -1.221017139646e-09 1.611375783609e-09 -2.957372340445e-10 1.830264044243e-07 -2.884529828241e-07 -2.499736093879e-07 1.000000000000e-03 1.047197551197e-05 3.439934974246e-12 -7.182427265858e-12 2.789265824760e-12
213 2 2.177710652334e-03 1.059674802998e-02 1.084310350227e-02 -7.428163411173e-10 1.772948412843e-09 -1.261037411596e-10 2.101239213766e-07 1.743811229437e-08 -4.166250405609e-07 1.000000000000e-03 1.047197551197e-05 -1.999206077638e-12 -6.110211524737e-12 2.471033799611e-12
214 2 2.228988180036e-03 1.416506719150e-02 9.517262185739e-03 -7.649554316340e-10 1.468602601970e-09 -3.097267788931e-10 -2.111701276358e-08 -1.520773191150e-07 -1.593033352535e-08 1.000000000000e-03 1.047197551197e-05 2.718867282277e-13 -4.667963402401e-12 1.574532075039e-12
215 2 6.393544592693e-04 1.351487216313e-02 1.040422644342e-02 -8.151911246483e-10 1.300956882095e-09 -5.519248737130e-10 2.820716708670e-07 6.192460422974e-08 3.834727183539e-09 1.000000000000e-03 1.047197551197e-05 2.318529398709e-12 -1.006998931993e-11 4.767490564187e-12
216 2 4.551095378197e-03 1.529504849223e-02 8.308312064435e-03 -1.138462186606e-09 1.858831830117e-09 -3.484868290257e-10 6.999186711718e-07 -9.344323665287e-08 -1.886303096394e-07 1.000000000000e-03 1.047197551197e-05 1.988012560262e-12 -5.707551461676e-12 3.820841659885e-12
217 2 3.449710253738e-03 1.235241489312e-02 1.422671505655e-02 3.869155602896e-10 -2.039695289429e-10 -8.258150687988e-10 5.546008711171e-08 7.812506857114e-07 -4.623885246818e-07 1.000000000000e-03 1.047197551197e-05 -1.953199220965e-12 9.185785270615e-13 3.340530067056e-12
218 2 5.425069495876e-03 6.998408769854e-03 1.449550922263e-02 -2.974538989149e-09 -2.499923310568e-09 1.400470060310e-09 -3.784730976759e-06 2.940496454839e-06 -2.061489546492e-06 1.000000000000e-03 1.047197551197e-05 -3.122301649087e-14 -2.547287030826e-12 -6.868324183596e-12
219 2 4.153995571116e-03 7.751104481243e-03 1.335583894370e-02 -2.793613237864e-09 -4.116486259601e-10 1.359794997262e-09 1.089951034098e-06 -8.904445305944e-07 -2.383056893304e-06 1.000000000000e-03 1.047197551197e-05 5.273166702632e-12 8.244075309157e-12 -4.864363151997e-12
220 2 3.555818358229e-03 1.721174577536e-03 1.112136274859e-02 -8.757762154918e-10 1.994218784585e-09 -3.278234338763e-12 -5.717099981110e-07 7.264524414116e-07 -4.142465556456e-07 1.000000000000e-03 1.047197551197e-05 7.277573957064e-12 -6.211144774949e-12 5.606431236981e-12
221 2 1.916492037794e-03 1.115125337509e-02 1.411112208707e-02 -4.584073132379e-10 8.166154652214e-10 -1.871810072572e-10 -6.285374173217e-07 -4.329180925979e-07 -8.167418723342e-07 1.000000000000e-03 1.047197551197e-05 -4.467250318036e-13 -2.552933350503e-12 4.084772467178e-12
222 2 4.972912292597e-03 9.053115195543e-03 1.447164501282e-02 -1.617796360206e-09 -1.470309877363e-09 2.479702010854e-10 -1.649140850366e-06 1.601475001975e-06 9.651973874119e-08 1.000000000000e-03 1.047197551197e-05 4.428253511216e-12 3.762353103536e-12 1.379136943400e-12
223 2 1.479940869443e-03 1.323445418773e-02 8.023184607701e-03 -6.711960098571e-10 1.339594032086e-09 -2.468927153752e-10 -2.167055761482e-07 -5.113854065546e-08 9.324402107655e-08 1.000000000000e-03 1.047197551197e-05 9.232127010205e-13 -5.309720100465e-12 3.555207364773e-13
224 2 5.383514884284e-03 1.379635642914e-02 1.103591856018e-02 -7.077472498239e-10 2.010326770086e-09 -1.487466688493e-10 -2.804094378022e-08 -2.637827026361e-07 -1.399711983185e-06 1.000000000000e-03 1.047197551197e-05 3.457488607765e-12 -1.056140949879e-11 4.659068937151e-12
225 2 6.148583661757e-03 1.339874166290e-02 9.321919520365e-03 -8.974314345175e-10 1.472852852382e-09 1.227377653413e-10 1.346756124701e-07 -9.078894948164e-08 -2.375417353486e-07 1.000000000000e-03 1.047197551197e-05 8.880548009840e-14 -4.495134839147e-12 3.409492134716e-12
226 2 3.155059513757e-03 1.527446289580e-02 1.271562284278e-02 -7.612365081925e-10 1.525871919526e-09 6.773297576446e-11 9.545676067804e-07 -5.431258611162e-07 9.936210255903e-07 1.000000000000e-03 1.047197551197e-05 3.528157129205e-14 -7.707026032074e-12 7.806351175061e-13
227 2 3.311652352641e-03 1.218094466705e-02 1.123243673361e-02 -6.232285078732e-10 1.274924634462e-09 -1.986142117612e-10 -3.148227445272e-07 -3.047975622832e-07 2.121637072282e-09 1.000000000000e-03 1.047197551197e-05 -2.108378000396e-12 -3.136102056919e-12 1.534026800140e-12
228 2 4.782491847249e-03 1.299272680060e-02 8.015216832585e-03 -7.982445545708e-10 1.951202966622e-09 -9.734743571922e-11 4.908560583651e-07 1.210531083027e-07 3.239733436046e-07 1.000000000000e-03 1.047197551197e-05 1.964947837149e-12 -5.122508041142e-12 2.459747064382e-12
229 2 2.879075225026e-03 5.772274134059e-04 9.137940652731e-03 -1.106519370488e-09 1.680463212716e-09 -3.952986826222e-10 -1.624979612757e-07 -3.038134609608e-07 1.622401833137e-07 1.000000000000e-03 1.047197551197e-05 1.422671054198e-12 -4.954960723298e-12 3.858201011003e-12
230 2 4.826875257841e-03 5.121966790939e-04 1.183531883163e-02 -9.862431218997e-10 1.929897793633e-09 -2.300700540815e-10 1.763979570463e-07 2.718031636011e-07 1.762098826527e-07 1.000000000000e-03 1.047197551197e-05 6.317659837062e-12 -1.068954260595e-11 3.696095982719e-12
231 2 4.366637533091e-03 9.200532687906e-03 1.217985830376e-02 -6.689549035974e-10 9.534408190796e-10 1.514320296686e-09 -2.760205759158e-07 1.050363665061e-06 -4.400389737192e-07 1.000000000000e-03 1.047197551197e-05 3.252730133222e-12 -2.080451141193e-12 -6.092056195364e-12
232 2 1.833052465336e-03 7.405912859161e-03 1.026478882937e-02 -1.319197284605e-09 1.821006430603e-09 6.031439670012e-10 -1.086317264368e-06 -1.359658534944e-06 2.664300069937e-08 1.000000000000e-03 1.047197551197e-05 7.019680152751e-12 -7.626385394804e-12 -4.832173739119e-12
233 2 1.057618588608e-02 6.003453696865e-03 8.327795336882e-04 5.170298284985e-10 4.660953856655e-10 -9.512284954243e-11 -4.332021243150e-07 5.480063857898e-07 6.647522235272e-07 1.000000000000e-03 1.047197551197e-05 5.947807795106e-12 3.360225411313e-12 -1.020747386607e-11
234 2 8.572698155518e-03 9.542384223227e-04 3.719913745521e-03 -8.270418041587e-10 1.483195484425e-09 -2.210386290199e-10 -4.881452288659e-07 -1.527759209463e-07 3.421795819510e-07 1.000000000000e-03 1.047197551197e-05 1.927178787261e-12 -6.480145697160e-12 2.330879480039e-12
235 2 1.255061708434e-02 5.925073407077e-03 6.872239266387e-03 -8.577147867769e-10 1.316377724531e-09 1.339472206984e-10 3.571688073885e-08 -2.357487888571e-07 7.665017965665e-08 1.000000000000e-03 1.047197551197e-05 1.308848201314e-12 -5.575162471122e-12 -1.569014486981e-12
236 2 1.386440128314e-02 1.861083368949e-03 3.738843624729e-03 -5.194701614448e-10 1.065475517144e-09 3.685634941084e-11 5.406498603358e-07 -4.439376560910e-07 -3.734849836709e-07 1.000000000000e-03 1.047197551197e-05 2.591639838652e-12 -5.080648766671e-12 1.364351612067e-12
237 2 1.481984721776e-02 6.907219161956e-03 6.227709076948e-03 -1.019661239740e-09 1.394389371479e-09 -3.564931742057e-10 -3.385100696030e-07 -1.339835373121e-07 -3.752107814623e-07 1.000000000000e-03 1.047197551197e-05 5.419588228865e-12 -5.848693394735e-12 2.109648666947e-12
238 2 1.279672008686e-02 1.151037146559e-03 5.182544425360e-03 -7.715474919383e-10 1.125897030131e-09 2.137821471819e-11 -2.760130991686e-07 1.078063949469e-07 -7.277238639515e-08 1.000000000000e-03 1.047197551197e-05 2.503301003754e-12 -5.655868725070e-12 7.931475571998e-13
239 2 1.269779408920e-02 3.394102740299e-03 3.665365045653e-03 -4.716719688804e-10 1.009320102774e-09 9.254292298239e-11 -1.181490641982e-07 -1.552976588566e-07 8.628845082987e-08 1.000000000000e-03 1.047197551197e-05 9.758009687129e-13 -4.525480268225e-12 -6.089009292250e-13
240 2 1.422432222826e-02 7.105190809431e-03 4.446111558479e-03 -5.772780533365e-10 1.363660332584e-09 -1.627566386817e-10 1.901537488150e-07 1.074215476693e-07 -1.316766816098e-07 1.000000000000e-03 1.047197551197e-05 1.247954977300e-12 -8.327078621418e-12 2.320600101650e-12
241 2 1.191517419158e-03 6.672935201982e-03 2.086042476126e-03 -1.471400071427e-10 8.032301118362e-10 7.985916485211e-10 -2.429450198752e-06 -1.092229012648e-06 7.215015442684e-07 1.000000000000e-03 1.047197551197e-05 1.776637732313e-12 5.646027882282e-13 -3.347678171264e-12
242 2 3.135715924936e-04 5.139547533534e-03 2.924548871053e-03 -1.229767826071e-10 1.501642571211e-09 8.769736330462e-10 6.311647994290e-07 -1.020969814617e-06 5.143088171396e-07 1.000000000000e-03 1.047197551197e-05 -4.190026210802e-12 -9.864516917093e-12 -4.067258627078e-12
243 2 6.009256046633e-03 1.885235065022e-03 5.590961029477e-03 -6.804182394680e-10 1.609941677162e-09 -2.263314774603e-11 -3.273239763491e-07 7.279665404691e-08 -6.699401310651e-08 1.000000000000e-03 1.047197551197e-05 6.338505105575e-13 -4.969723884374e-12 5.896043703053e-12
244 2 1.451431520882e-02 3.006379732086e-03 6.705877599220e-03 -9.399680739334e-10 1.218276178727e-09 2.940218668184e-10 3.613491409987e-07 -1.818855185940e-07 -7.868021470351e-08 1.000000000000e-03 1.047197551197e-05 2.677852980918e-13 -4.513106247351e-12 -1.367863521693e-12
245 2 1.129233933428e-02 7.883711881142e-03 1.015274032931e-03 -1.025789119404e-82 2.481269964935e-81 -3.209118893491e-81 2.235618384403e+03 2.108827890374e+03 2.418188823478e+03 1.000000000000e-03 1.047197551197e-05 1.026769612160e-83 -2.483641668025e-82 3.212186305463e-82
246 2 1.447333124347e-02 3.907211252089e-03 9.308206371785e-04 -3.642807289668e-10 4.454249109332e-10 -2.505879000485e-10 -3.522495825361e-07 -2.363702955610e-07 9.237865351220e-08 1.000000000000e-03 1.047197551197e-05 1.649524850995e-12 7.897932999802e-13 1.463729642918e-12
247 2 1.042710851755e-02 1.941798029462e-03 5.286528723105e-03 -8.317482119658e-10 1.166453004808e-09 -2.456934302514e-11 3.034927629805e-08 -1.198612170859e-07 -6.250070217793e-08 1.000000000000e-03 1.047197551197e-05 2.931953256142e-12 -4.947016579155e-12 2.512443399821e-13
248 2 7.519661758583e-04 1.544042195975e-03 9.461223349866e-04 -1.195042658156e-11 7.941842444342e-10 -8.259806701940e-11 -6.860492492655e-07 -1.479367959986e-07 2.175219032271e-06 1.000000000000e-03 1.047197551197e-05 -1.809054047808e-12 -5.828966958493e-12 3.362440199721e-13
249 2 5.724414832187e-03 2.247544548943e-04 6.454324315517e-03 -7.648876206641e-10 1.638075946223e-09 8.416009072492e-11 3.960812042980e-07 -3.382667758408e-07 2.787350109406e-08 1.000000000000e-03 1.047197551197e-05 -8.275432804750e-13 -2.487792450564e-12 4.501460038074e-12
250 2 7.338114662008e-03 3.371564889251e-03 9.598940208016e-04 -9.846538412000e-10 6.167359813880e-10 -1.868339276034e-10 -4.668027421477e-07 -9.218765628621e-07 1.827254481911e-06 1.000000000000e-03 1.047197551197e-05 3.975850950518e-12 -2.120968036120e-12 1.536243904541e-12
251 2 6.824692817432e-03 1.823934852560e-03 3.792576118379e-03 -1.200338213195e-09 1.932372553286e-09 -7.640784159116e-10 -1.155236906077e-09 -1.635134895594e-08 -3.442052359176e-07 1.000000000000e-03 1.047197551197e-05 2.838881361936e-12 -9.524771198756e-12 8.586938067950e-12
252 2 1.488821150142e-02 2.404240131518e-03 2.165959388809e-03 -2.390578037728e-10 6.942273616174e-10 -4.412317995515e-10 -6.466473684005e-07 1.392274646093e-06 -2.180439829758e-07 1.000000000000e-03 1.047197551197e-05 1.546215528521e-13 -3.481033086796e-12 2.845918172110e-12
253 2 6.714061589431e-03 5.035042226629e-03 1.786445318601e-03 -1.174277313434e-09 1.968851113605e-10 5.170312378009e-10 7.084921748460e-07 2.215259697297e-06 -9.460311096697e-07 1.000000000000e-03 1.047197551197e-05 4.431798618488e-12 2.341771144561e-12 -2.808590822836e-13
254 2 1.006008571754e-02 2.131750297503e-03 7.196461396080e-03 -1.096986807189e-09 1.356115623021e-09 -9.784653507784e-11 -1.794092473209e-07 -5.093484867442e-08 2.446106540980e-08 1.000000000000e-03 1.047197551197e-05 2.128984447294e-12 -6.232177814818e-12 -1.196588808976e-14
255 2 5.876210009816e-03 6.445280176831e-03 5.612429913293e-03 -9.044290114036e-10 1.715817057543e-09 -4.896269813354e-10 3.260153798762e-08 -8.098480566743e-07 -1.920385658253e-07 1.000000000000e-03 1.047197551197e-05 9.479164682860e-13 -6.271847110573e-12 5.544783899961e-13
256 2 1.094371552393e-02 3.540873952578e-03 4.426310948294e-03 -6.285082103881e-10 1.195481896389e-09 -7.387476615977e-11 -1.566336607152e-07 -1.299314284805e-07 -2.298593948981e-08 1.000000000000e-03 1.047197551197e-05 3.259806045798e-13 -3.888903256998e-12 -6.167239743479e-13
257 2 6.992383141616e-03 4.403078936230e-03 7.410882521699e-03 -1.111563120406e-09 1.754602097824e-09 -3.089109915541e-10 -1.416373921936e-07 -8.180947703411e-07 -5.799953581101e-07 1.000000000000e-03 1.047197551197e-05 2.469501464494e-12 -2.120592235728e-11 -4.090494392123e-12
258 2 9.502574322210e-03 6.770937595390e-03 4.049190503003e-03 -5.880248275873e-10 1.556414847869e-09 -4.294148557901e-10 -1.915296245092e-08 3.080913892486e-07 1.279098793657e-07 1.000000000000e-03 1.047197551197e-05 -6.132657669417e-12 6.570061482694e-13 6.387163513855e-12
259 2 1.194711638258e-02 4.614402780594e-03 8.323777176734e-04 1.900406127894e-10 6.367672520588e-10 1.988037486495e-11 -5.551482569579e-07 1.397461674133e-07 -7.562050225640e-07 1.000000000000e-03 1.047197551197e-05 1.149221622775e-12 -1.789495629811e-12 -5.978114556161e-12
260 2 1.021250194920e-02 4.287806162708e-03 6.099147065898e-03 -8.885890042213e-10 1.366332608600e-09 -1.459313015562e-10 9.364306321353e-08 -2.548172704639e-07 -3.371578583235e-08 1.000000000000e-03 1.047197551197e-05 5.655960686260e-13 -5.514102621228e-12 1.033047709048e-12
261 2 1.673099422252e-03 2.627248397209e-03 4.969411748635e-03 -1.275351611975e-09 9.312682276560e-10 -7.601676715361e-10 9.516784788554e-07 -4.347972716743e-07 1.132202901849e-06 1.000000000000e-03 1.047197551197e-05 6.567479601308e-12 1.194726681130e-11 1.592504112821e-11
262 2 1.112965861191e-02 3.011224440807e-03 2.552279354483e-03 -4.138036611286e-10 1.062162608144e-09 -2.968445773174e-11 -1.252495976793e-08 -7.896182523534e-08 -1.337218300775e-07 1.000000000000e-03 1.047197551197e-05 -1.000911161302e-12 -3.939616504404e-12 -6.642831956123e-13
263 2 7.323000892739e-03 2.609901652115e-03 6.855073621509e-03 -1.303264239787e-09 1.546904900081e-09 -8.524854777716e-12 1.522284406711e-07 -4.943790303269e-07 2.011705420641e-07 1.000000000000e-03 1.047197551197e-05 -4.211203902111e-12 9.849526954648e-12 6.119787380246e-12
264 2 7.335758450621e-04 2.178446548106e-03 6.995962644257e-03 -8.650200556025e-10 1.136340378070e-09 -6.543493543694e-10 5.069067586148e-07 6.482005871632e-07 2.464450576056e-07 1.000000000000e-03 1.047197551197e-05 -3.442669618008e-12 -3.312562757605e-12 6.833231311429e-12
265 2 8.230854746169e-03 5.019931212288e-03 2.887628255141e-03 -1.466155389315e-10 7.471716726821e-10 -5.166356366142e-10 -1.120426995991e-06 -4.524953161840e-07 7.458732666540e-07 1.000000000000e-03 1.047197551197e-05 -4.488417266974e-12 -3.763743339299e-12 8.355025082747e-12
266 2 1.187798915251e-02 4.791434052528e-03 2.657044862863e-03 -1.227913793220e-10 1.040905833643e-09 1.305854627344e-10 1.591234276584e-07 -3.516694238968e-07 -1.515659985746e-07 1.000000000000e-03 1.047197551197e-05 -2.192936937472e-12 -3.382846401256e-12 -2.772574414983e-13
267 2 7.191579698515e-03 4.066495620344e-04 5.077605575739e-03 -9.815204067624e-10 1.671251280370e-09 -1.150877290206e-09 5.054533369374e-07 -5.994265243007e-07 3.173935075126e-07 1.000000000000e-03 1.047197551197e-05 6.817866243326e-12 -1.019826405960e-11 6.836965822348e-12
268 2 8.929824589208e-03 5.550897741754e-03 7.482139721284e-03 -9.637212101811e-10 1.285621428940e-09 -6.715418275639e-11 -6.538582722103e-09 -2.848322726360e-07 -7.743888679332e-08 1.000000000000e-03 1.047197551197e-05 1.056153036105e-12 -7.453254114221e-12 2.064888869266e-13
269 2 1.406912677002e-02 4.938031079316e-03 3.975596504947e-03 -3.213855244196e-10 8.767852374082e-10 1.579935995420e-10 5.320715042058e-07 5.771097586353e-07 -4.103607206918e-07 1.000000000000e-03 1.047197551197e-05 9.891820748948e-13 -5.171971914701e-12 -1.788887911378e-12
270 2 1.083775798362e-02 5.400615783591e-03 7.507732332812e-03 -9.616564674829e-10 1.225685769517e-09 1.452051696895e-11 4.724745060685e-08 9.883403067136e-08 1.354771696674e-08 1.000000000000e-03 1.047197551197e-05 1.039094279949e-12 -6.293602057966e-12 -1.364011327475e-13
271 2 1.266042770577e-02 6.256730990953e-03 5.044826138134e-03 -5.315648653171e-10 1.340345509493e-09 1.958385798686e-10 3.122502301003e-08 1.040494133295e-08 -3.139839944316e-08 1.000000000000e-03 1.047197551197e-05 -2.200279876734e-12 -7.505825609995e-12 -5.582770846014e-13
272 2 1.520257323686e-02 2.050372538014e-03 5.125945465969e-03 -8.941527266377e-10 6.611908548373e-10 1.449220859879e-10 3.946038814829e-07 1.401920485406e-07 5.289835934876e-07 1.000000000000e-03 1.047197551197e-05 2.175309950643e-12 -1.269825863611e-12 -2.703770960250e-12
273 2 7.735433706307e-03 4.530394707455e-03 5.709352153481e-03 -5.080025119986e-10 1.481868151441e-09 -1.751915174430e-10 -2.203518678215e-08 2.415004544255e-07 -4.771323431330e-08 1.000000000000e-03 1.047197551197e-05 9.149186057740e-13 -9.598291956549e-12 5.092449433015e-13
274 2 3.088030127168e-04 3.939797614111e-03 5.475614041287e-03 -5.301609813032e-10 8.362738487037e-10 5.195149564204e-10 4.250209415254e-07 9.313999858198e-07 -1.455989001079e-06 1.000000000000e-03 1.047197551197e-05 4.780394193067e-13 6.671851894011e-13 -1.768966988700e-12
275 2 1.372377206510e-03 2.944034883658e-03 2.220716583379e-03 1.089292148034e-10 1.111068806757e-09 1.192393369735e-09 2.377464189272e-07 -4.821619934167e-06 -1.213090926590e-07 1.000000000000e-03 1.047197551197e-05 -2.933036257582e-12 -5.706673722328e-12 -7.329172780888e-12
276 2 7.916760327220e-03 1.929863234500e-03 2.143959377154e-03 -5.690557195514e-10 1.278481242132e-09 -1.410790807639e-10 4.500764674115e-07 -1.974892796997e-07 -2.533570360798e-07 1.000000000000e-03 1.047197551197e-05 8.195713668978e-13 -6.275116168237e-12 2.197341083913e-12
277 2 1.417494765702e-02 5.110376395425e-03 5.904225100894e-03 -4.420565789264e-10 1.130839188495e-09 2.766939288575e-10 -7.373939557736e-07 -8.394107648978e-07 8.952930369435e-07 1.000000000000e-03 1.047197551197e-05 -2.698762756033e-12 -5.659119288462e-12 1.157654226279e-12
278 2 1.428952333733e-02 5.861210472507e-03 7.717060403030e-03 -1.092359493440e-09 1.585258192810e-09 -2.944611684501e-11 6.757790465769e-08 2.443004724216e-07 -5.224044338940e-09 1.000000000000e-03 1.047197551197e-05 2.927229495535e-12 -6.516197434305e-12 2.898307506610e-12
279 2 1.361472648023e-02 1.528559788739e-02 9.209236386788e-04 -4.492081500574e-10 8.478286310514e-11 1.396872500200e-11 1.031082939647e-07 -3.741897156934e-07 6.966610932817e-07 1.000000000000e-03 1.047197551197e-05 1.157372673722e-12 2.892545992931e-13 1.725925588612e-13
280 2 1.335750935168e-02 6.001933441356e-03 1.124864475588e-03 7.880796651774e-08 2.536621890817e-08 1.856482775170e-08 1.338738151334e+03 8.283553893554e+02 -1.507969813919e+03 1.000000000000e-03 1.047197551197e-05 -2.022018737663e-10 -6.508350250230e-11 -4.763279067152e-11
281 2 9.128990147818e-03 2.828328778593e-03 3.449075147620e-03 -4.589897300334e-10 1.243641213518e-09 -1.767408727410e-10 1.681591589717e-07 -2.169969241346e-07 -5.927397383103e-08 1.000000000000e-03 1.047197551197e-05 7.401092280629e-13 -6.534495270449e-12 -1.249302864761e-12
282 2 6.944414515245e-03 5.513918512034e-03 4.252496935512e-03 -5.410835180056e-10 1.386566443598e-09 -2.861697794965e-10 -3.016278382925e-07 1.692962841734e-07 -9.560507845404e-08 1.000000000000e-03 1.047197551197e-05 -1.712216054589e-12 -7.882286067159e-12 2.063857329120e-12
283 2 1.104434128698e-02 5.549009757485e-03 4.196721427260e-03 -4.471186323788e-10 1.385500594495e-09 -7.440319643518e-12 -1.664769303227e-07 -1.733894699356e-07 -1.672844111748e-07 1.000000000000e-03 1.047197551197e-05 -1.333939881334e-12 -4.155452011926e-12 1.016707439856e-13
284 2 1.205819201883e-02 4.592996766248e-03 5.564056285847e-03 -7.179784494029e-10 1.330133962631e-09 6.326417627537e-11 4.053097305451e-08 -4.775534199219e-08 -8.366732501943e-08 1.000000000000e-03 1.047197551197e-05 9.648164553612e-13 -1.870087281079e-12 -1.421533012299e-12
285 2 1.289514464084e-02 6.240322983396e-03 3.151014560977e-03 -3.225277919914e-10 1.064971351703e-09 4.147464440918e-10 -2.481618845188e-07 -1.281712572233e-07 1.685251595291e-07 1.000000000000e-03 1.047197551197e-05 -9.692666814892e-13 -7.635958005765e-12 -1.538171412140e-12
286 2 9.261433181864e-03 4.903500032279e-03 4.533880736041e-03 -5.004873303548e-10 1.537735770701e-09 -2.309887511587e-10 7.600196350791e-08 -1.706153110061e-07 -9.931971000852e-08 1.000000000000e-03 1.047197551197e-05 -1.159440513625e-12 -6.495650622495e-12 3.721348667927e-12
287 2 7.256947810595e-03 7.300888418350e-03 3.757392092175e-03 -7.533250674275e-11 1.352176906126e-09 -3.983891928641e-10 5.517588478996e-07 1.833737500619e-06 -1.058246756301e-06 1.000000000000e-03 1.047197551197e-05 -5.835369111591e-15 -8.915464608711e-12 1.894277423889e-13
288 2 1.320587131768e-02 3.050062371988e-03 5.399091393963e-03 -8.019551435033e-10 1.297900694063e-09 1.812905938050e-10 -1.780131565047e-07 -7.680060155662e-08 -4.189473213499e-08 1.000000000000e-03 1.047197551197e-05 6.026468881060e-13 -5.079237494933e-12 -3.565611150252e-13
289 2 1.479970602929e-04 5.501390575474e-03 9.843913783073e-04 8.514958557674e-10 -9.985348477612e-11 5.145405376458e-10 6.104344656464e-07 -1.195251535140e-06 -1.541389725247e-06 1.000000000000e-03 1.047197551197e-05 -5.220782301900e-12 3.261124245830e-13 -5.780488210095e-12
290 2 1.209459770757e-02 1.536276064416e-03 1.884973895309e-03 -9.721506925720e-10 9.235966486230e-10 -1.839433465924e-10 1.111220300401e-07 3.987123710483e-07 -3.073713281686e-07 1.000000000000e-03 1.047197551197e-05 3.967258559204e-12 -3.678767316629e-12 3.159866500396e-14
291 2 7.417889112735e-03 3.640768645006e-03 3.920590514624e-03 -7.240008055290e-11 1.484986822318e-09 3.038967464080e-11 2.698191210112e-07 2.259032572254e-07 -6.651827927745e-07 1.000000000000e-03 1.047197551197e-05 -1.527862153656e-12 -7.564230542363e-12 -5.086963792599e-13
292 2 1.070760025150e-02 1.904758764285e-04 4.540623860781e-03 -8.321346023877e-10 1.050716551707e-09 -1.065696757716e-11 9.602855644165e-10 -9.712005757556e-08 -7.582953882014e-08 1.000000000000e-03 1.047197551197e-05 4.335866208335e-12 -4.702880836189e-12 8.524597977118e-13
293 2 8.359003808222e-03 7.036248935853e-03 1.511960701202e-03 -7.369271907490e-11 2.484958214571e-10 -3.354108503249e-10 6.683991142512e-07 5.369429756666e-07 1.269402734730e-06 1.000000000000e-03 1.047197551197e-05 -1.505790073881e-12 -9.088208814862e-12 1.296193428565e-11
294 2 1.168190987345e-02 1.711994361072e-03 3.824322125423e-03 -7.046240151139e-10 9.967628389423e-10 8.727651639177e-12 -3.027117068311e-08 -6.735289478964e-08 -1.666230836862e-07 1.000000000000e-03 1.047197551197e-05 1.584012349483e-12 -4.201032199980e-12 9.116787141859e-13
295 2 1.291908355532e-02 7.867727068588e-03 2.230338346809e-03 -6.986377662513e-10 7.740072385276e-10 1.256478945441e-10 -1.918980228733e-07 3.407656592985e-07 9.735222645100e-08 1.000000000000e-03 1.047197551197e-05 -2.031890770347e-12 -3.315960126213e-12 1.157617861713e-12
296 2 1.305466247020e-02 2.095566698071e-03 7.581811704249e-03 -1.032433589640e-09 1.354486626377e-09 8.386067060299e-11 6.331441362728e-08 4.856893220732e-08 -9.439491931650e-08 1.000000000000e-03 1.047197551197e-05 2.605489864458e-12 -4.624564082687e-12 -6.550764628874e-14
297 2 6.517990494662e-03 6.685163916651e-03 9.051344089760e-04 1.954344592922e-11 5.813641404943e-10 3.937254999970e-10 -7.116067800643e-07 1.222133829679e-07 -1.536992278332e-06 1.000000000000e-03 1.047197551197e-05 2.062232784735e-12 -3.486544821081e-12 4.949212065048e-13
298 2 9.998197499751e-03 4.373564452646e-03 2.795799570092e-03 -2.308643757849e-10 1.217094103705e-09 6.906330437900e-11 3.107816028567e-08 1.641296304912e-07 -1.041565459846e-07 1.000000000000e-03 1.047197551197e-05 -4.100706198339e-12 -1.134909890369e-12 6.560889323120e-12
299 2 1.529848563731e-02 3.409319753631e-03 3.703096703334e-03 -3.512723065082e-10 1.203228525464e-09 -5.119255360801e-11 3.885363298680e-08 -1.519377535424e-06 4.032937913345e-07 1.000000000000e-03 1.047197551197e-05 -5.795663116949e-13 -6.854390838940e-12 2.752821125077e-13
300 2 8.658038283694e-03 1.386108036434e-03 5.639914420607e-03 -1.007380128201e-09 1.455299249671e-09 -1.845270969749e-10 1.005500671898e-07 -8.995389930410e-08 -3.183247609392e-07 1.000000000000e-03 1.047197551197e-05 3.239599541527e-12 -8.713249729901e-12 -4.995519255687e-13
301 2 9.033090809974e-04 5.820599461593e-03 5.145242901024e-03 -1.060802216546e-08 8.007553982693e-08 -3.024430716728e-08 -3.827568104101e+02 -3.437345279006e+02 5.856901402542e+02 1.000000000000e-03 1.047197551197e-05 2.738470059118e-11 -2.067158043033e-10 7.807596648718e-11
302 2 1.162639565668e-02 3.037976558214e-03 6.568797598173e-03 -9.672238900246e-10 1.371993110571e-09 -2.624161241830e-13 -6.925296309308e-09 -1.442331544113e-07 6.371574480114e-09 1.000000000000e-03 1.047197551197e-05 3.602681227979e-12 -2.850242728633e-12 -1.277825340295e-12
303 2 9.739238725843e-03 6.092723663821e-03 2.404524809500e-03 8.666449404880e-11 9.675975933623e-10 -2.042845780148e-10 -4.019772635158e-07 -9.567260186056e-07 -1.913071186792e-07 1.000000000000e-03 1.047197551197e-05 -5.281704611325e-12 3.055551335625e-13 2.344886376125e-12
304 2 8.916098504488e-03 3.155159043846e-03 5.327309607513e-03 -6.761834499815e-10 1.385867276061e-09 -2.373435803573e-10 -1.650643531998e-07 1.016482532752e-08 -1.957358230330e-08 1.000000000000e-03 1.047197551197e-05 1.272632320894e-12 -7.096024238263e-12 -2.178014826328e-13
305 2 1.365625861562e-02 1.813708741582e-03 8.803455333367e-04 -7.485498114538e-10 2.743208811512e-10 1.022411472613e-10 -2.016517614346e-07 -7.673140982470e-07 -3.099297601516e-07 1.000000000000e-03 1.047197551197e-05 2.403663921316e-12 1.102356580524e-13 -1.266934974213e-12
306 2 1.291251099709e-02 3.309091356217e-03 1.830703561583e-03 -4.521107575677e-10 6.797849891378e-10 -4.838801232958e-11 5.745669239241e-08 2.526669423434e-07 -3.063460836728e-07 1.000000000000e-03 1.047197551197e-05 1.836943692614e-12 -1.510687802132e-12 -3.540950919290e-13
307 2 1.307052913284e-02 4.135564043680e-03 7.146990264611e-03 -9.461252485796e-10 1.284277535913e-09 1.617176166294e-10 -5.725288663095e-08 -1.971164461046e-07 -1.675461130216e-07 1.000000000000e-03 1.047197551197e-05 2.563259116187e-12 -3.592155843490e-12 -1.094646030863e-12
308 2 8.775871927290e-03 5.092939238426e-03 9.816836573192e-04 2.987862872640e-10 1.285610472844e-10 -1.981916570491e-10 -9.511946038319e-08 2.275023420284e-07 4.744844419874e-07 1.000000000000e-03 1.047197551197e-05 -3.987510992147e-12 1.221067290733e-12 7.780536975368e-12
309 2 1.166091913198e-02 1.157325210803e-03 6.711299372752e-03 -9.392178789774e-10 1.414458131867e-09 6.625233654923e-11 -5.623124069986e-08 -1.343844285838e-07 5.640263044521e-08 1.000000000000e-03 1.047197551197e-05 1.503818476710e-12 -5.678953882286e-12 2.506168580508e-13
310 2 1.017854618009e-02 1.446072079749e-03 2.708682970507e-03 -6.693048344148e-10 1.185924707399e-09 -1.268147904266e-10 -4.483910562132e-08 -1.011237984150e-07 -2.097710508485e-07 1.000000000000e-03 1.047197551197e-05 2.213367076149e-12 -4.990334494502e-12 2.094335783553e-13
311 2 9.641413218142e-03 2.720232888728e-03 1.248110021425e-03 1.319190511358e-70 3.974644740575e-70 1.874296308144e-69 -1.152664526382e+03 4.090879621960e+02 -1.137567531874e+03 1.000000000000e-03 1.047197551197e-05 -1.320451449610e-71 -3.978443874626e-71 -1.876087840064e-70
312 2 1.319140559878e-02 2.351313427631e-04 2.844174608580e-03 -9.113190648728e-10 1.107707393134e-09 -1.705033904852e-10 -5.118019898943e-07 -2.704912483548e-08 6.780639647726e-09 1.000000000000e-03 1.047197551197e-05 2.536366238642e-12 -5.857939816244e-12 1.509588065968e-12
313 2 7.780118761632e-03 8.417373363633e-04 7.159263094360e-03 -1.131717715181e-09 1.548072691160e-09 -1.482487366414e-10 9.055495977144e-09 7.918039839349e-08 2.244387682862e-08 1.000000000000e-03 1.047197551197e-05 -4.235858651601e-13 -3.787442106084e-12 -8.067266667787e-13
314 2 6.546134501891e-03 4.876700741798e-03 1.439778053109e-02 1.811011575762e-09 3.041018553149e-09 -2.718848373079e-09 6.215685208133e-08 -3.238622572162e-06 -1.294587309354e-05 1.000000000000e-03 1.047197551197e-05 -2.117919399859e-12 -6.690695536195e-12 9.131189531535e-12
315 2 1.421467536733e-02 4.379747717246e-03 1.443935273258e-02 -5.558678814523e-11 2.347841423813e-10 -1.089931079021e-11 3.965417037339e-07 -2.114293555631e-08 2.815232689633e-06 1.000000000000e-03 1.047197551197e-05 -3.429047756083e-12 -4.867647734094e-12 1.509593648145e-12
316 2 7.027525680077e-03 1.668859086242e-03 1.194987008269e-02 -2.082326069570e-09 2.755953669457e-09 4.309655710711e-10 -8.193034199522e-07 1.490005023250e-06 -8.997085885962e-07 1.000000000000e-03 1.047197551197e-05 8.695842906034e-12 -7.455092856309e-12 9.190568276247e-13
317 2 1.255849920694e-02 1.358093100289e-03 1.034506854235e-02 -1.333766199851e-09 1.230628252856e-09 -1.503969743727e-10 6.008232686438e-07 5.278397306864e-07 5.159493621353e-07 1.000000000000e-03 1.047197551197e-05 4.900017987891e-12 -8.449525346204e-13 4.650896893930e-12
318 2 1.053871507561e-02 3.664876497749e-03 8.265328779314e-03 -1.223547027822e-09 1.229358376831e-09 -1.248233387773e-10 6.647069568223e-08 -4.144785974446e-07 -1.547484826797e-07 1.000000000000e-03 1.047197551197e-05 1.046128263596e-12 -3.829105990760e-12 9.851388391880e-13
319 2 9.894551161901e-03 3.796149148119e-03 1.326051780959e-02 -1.048008580511e-09 6.453648266260e-10 -1.282657149091e-09 1.406535787376e-06 -1.226098397544e-06 -1.052707291446e-06 1.000000000000e-03 1.047197551197e-05 -2.382359411165e-13 -7.991198775346e-13 4.872409199163e-12
320 2 9.480294816734e-03 4.974336520889e-03 1.458847070491e-02 -3.006339647136e-10 4.265807157080e-10 -2.104271457136e-10 3.156066462619e-07 -3.150865145142e-07 -2.686931668548e-06 1.000000000000e-03 1.047197551197e-05 -3.113818137846e-12 -1.943038841817e-12 1.270411567261e-12
321 2 8.124475043655e-03 3.702299948395e-03 1.441780436008e-02 2.185760585071e-10 -1.500595939772e-09 -8.652580660232e-11 -7.566839563263e-07 1.271043714713e-07 5.693621918901e-06 1.000000000000e-03 1.047197551197e-05 -7.437387583265e-12 4.974459685124e-12 -2.272375377534e-14
322 2 6.457692052617e-03 6.244686670466e-03 7.472784640722e-03 -1.277169664899e-09 1.625318925007e-09 -4.578939149997e-10 2.725354152715e-07 1.800646618276e-07 6.286060349129e-07 1.000000000000e-03 1.047197551197e-05 9.129244771373e-13 -1.007914131429e-11 1.066796514263e-12
323 2 8.696109421281e-06 2.469120522517e-03 1.177499554108e-02 -1.129218381642e-09 1.428241135955e-09 -9.208754333064e-11 -1.787702894125e-07 4.724718757892e-07 -1.276424071112e-07 1.000000000000e-03 1.047197551197e-05 6.754551816661e-12 -5.986988135107e-12 1.863799798767e-12
324 2 5.474412785274e-03 3.371557102789e-03 1.370707601074e-02 -3.492280962866e-09 1.518064953959e-09 2.282800414594e-09 -2.801343327957e-06 3.620534470208e-06 9.891171457544e-06 1.000000000000e-03 1.047197551197e-05 9.894261970397e-12 -4.530967172421e-12 -3.438487780034e-12
325 2 7.675525994830e-03 4.281736734127e-03 1.075318466830e-02 -2.519950421795e-09 2.286743037906e-09 4.371722973750e-10 -4.612653370996e-07 -1.209472031942e-06 6.710771521675e-07 1.000000000000e-03 1.047197551197e-05 2.832391899377e-12 -9.132007959723e-12 6.998813459524e-13
326 2 1.173238626485e-02 3.272335901332e-03 1.275934770708e-02 -1.055599438563e-09 4.596017423858e-10 -1.217374639069e-09 8.870800629377e-07 4.585521776998e-07 1.799667836055e-07 1.000000000000e-03 1.047197551197e-05 9.423316277739e-12 -2.663520152225e-12 -2.280567016525e-12
327 2 1.374375195869e-02 4.490532322346e-03 1.215457266393e-02 -1.280433387640e-09 9.482464941285e-10 1.510767245492e-10 -5.365380187741e-08 -2.821726549278e-07 1.886193970060e-07 1.000000000000e-03 1.047197551197e-05 5.679758715304e-12 -8.320352949878e-12 -2.919712163913e-12
328 2 1.456432940427e-02 6.717857852852e-03 9.418518557863e-03 -9.245202055650e-10 1.551140044791e-09 1.136564925600e-10 1.112259668845e-07 -8.531186290745e-08 -1.571247196569e-07 1.000000000000e-03 1.047197551197e-05 -4.216467208205e-13 -6.311954980334e-12 -5.093757384953e-13
329 2 1.105450819616e-02 6.125327323604e-03 1.061929172802e-02 -1.367718539297e-09 1.258289832248e-09 -1.050698248173e-10 5.189944936204e-07 -9.589475695519e-08 -4.444570901446e-07 1.000000000000e-03 1.047197551197e-05 8.588014563252e-12 -2.789820579881e-12 3.520824547682e-12
330 2 1.144129526021e-02 4.588713170055e-03 9.674778971981e-03 -1.589218413657e-09 1.328081173887e-09 -9.963215950731e-11 -3.765399528432e-07 -7.097488550814e-08 2.066974457065e-08 1.000000000000e-03 1.047197551197e-05 7.824358139905e-12 -3.638638449003e-12 3.086631800423e-12
331 2 8.158333011084e-03 1.603329212488e-03 1.028126040679e-02 -2.040362393886e-09 1.545394124492e-09 -9.126529488122e-10 4.207963286493e-07 1.027244890337e-07 -1.292112263004e-06 1.000000000000e-03 1.047197551197e-05 1.404809209508e-12 -6.214471472062e-12 1.022423253096e-11
332 2 9.402724333675e-03 6.217220084123e-03 1.165180403893e-02 -1.259122269554e-09 1.376076722663e-09 -1.395661753598e-10 5.086219261186e-07 -8.966655638833e-09 -2.508940353176e-07 1.000000000000e-03 1.047197551197e-05 4.258665265409e-12 -5.281153021307e-12 1.013245069462e-12
333 2 1.475356551379e-02 1.419814172354e-03 8.177872316905e-03 -1.049091399952e-09 1.574342002100e-09 -3.490564783479e-12 5.940316785211e-07 -1.481341097011e-07 5.735247985546e-07 1.000000000000e-03 1.047197551197e-05 1.938249442265e-12 -6.182722655458e-12 9.400376858025e-13
334 2 1.413428207295e-02 2.432448154170e-03 9.722309304172e-03 -1.030154019552e-09 1.720119655738e-09 1.988075110435e-10 2.534502955003e-07 -2.377905298970e-07 2.449372635687e-07 1.000000000000e-03 1.047197551197e-05 -2.575382096134e-14 -5.386775034570e-12 3.148280813099e-12
335 2 1.442111060793e-02 4.930468788436e-03 1.003114599021e-02 -1.188331144452e-09 1.592448504468e-09 -6.789740637855e-11 1.396245526244e-07 3.221858546754e-07 -2.567400376091e-07 1.000000000000e-03 1.047197551197e-05 2.130058464862e-12 -4.939714436748e-12 4.546241176006e-12
336 2 9.777799527537e-03 5.493102975717e-03 9.330069845624e-03 -1.421605273050e-09 1.604418504553e-09 -2.217675031407e-10 -2.284243145374e-07 1.123859160690e-07 2.597535018110e-07 1.000000000000e-03 1.047197551197e-05 4.584652579799e-12 -5.855283320106e-12 1.901848640938e-12
337 2 7.213836803604e-03 2.987983542093e-03 9.196399821593e-03 -1.706510848052e-09 1.586482001464e-09 2.763667976952e-10 2.196840580085e-07 1.473861908996e-07 3.367123086459e-07 1.000000000000e-03 1.047197551197e-05 9.358962796400e-14 -6.356105682894e-12 -3.813894650689e-15
338 2 1.527815656912e-02 5.152234447552e-04 1.449245352853e-02 2.282918767000e-10 -1.075322843133e-10 1.058835340491e-10 -5.086527766273e-08 -9.295488596928e-08 2.945567453699e-06 1.000000000000e-03 1.047197551197e-05 -1.715605269306e-12 3.138471801030e-12 -1.109662736705e-12
339 2 8.833129747818e-03 3.649772952316e-03 7.330242667863e-03 -1.169309079902e-09 1.446955676250e-09 1.697965955590e-11 2.362704728129e-08 5.022826459171e-07 -1.601198703270e-07 1.000000000000e-03 1.047197551197e-05 2.084875447099e-12 -6.273400455809e-12 9.468233049080e-13
340 2 1.204412817838e-02 1.666687555910e-03 1.380578594903e-02 -2.693173998437e-12 1.480880758347e-09 5.945741737123e-11 -2.613435964706e-06 6.712813533882e-07 3.569000823905e-07 1.000000000000e-03 1.047197551197e-05 8.710851925832e-13 -2.284556579232e-12 -4.417852701712e-12
341 2 6.538853482938e-03 5.509906819909e-03 9.285254651812e-03 -1.461875406104e-09 2.011074184090e-09 -1.240273771894e-10 8.696348854943e-07 -3.122401681067e-07 2.046503766465e-08 1.000000000000e-03 1.047197551197e-05 -1.316268300800e-11 -1.413548966543e-11 -6.372833854584e-12
342 2 1.625031428815e-04 4.802899136509e-03 1.162427230010e-02 -1.515543726365e-09 1.263952688211e-09 5.607005295195e-11 2.619999424269e-07 3.942648935008e-07 4.392214582836e-08 1.000000000000e-03 1.047197551197e-05 7.544890011259e-12 -4.343884577511e-12 -7.240284966820e-12
343 2 1.280723859023e-02 3.517388683169e-03 8.845243389667e-03 -1.230888572632e-09 1.395254175754e-09 1.711980286828e-10 -7.191504908556e-08 -8.184667334652e-08 3.154628495411e-07 1.000000000000e-03 1.047197551197e-05 2.947895424329e-12 -8.780949775549e-12 -6.933830833964e-13
344 2 1.096388529579e-02 5.224121516926e-03 1.356249787030e-02 -4.247970195202e-10 5.478889038291e-12 1.024530796198e-10 4.506201978437e-07 7.131321901085e-07 8.121572025375e-07 1.000000000000e-03 1.047197551197e-05 -3.927151783530e-12 -1.409769000446e-12 1.150453631250e-12
345 2 1.300187116788e-02 6.027054256469e-03 1.343666941890e-02 -1.559427815361e-09 1.005065120595e-09 7.042242874342e-11 1.645626174281e-08 1.292532904599e-07 -6.382571181149e-08 1.000000000000e-03 1.047197551197e-05 2.226622307502e-12 -2.152130482216e-12 3.888549102854e-12
346 2 1.098252935849e-02 2.857170866184e-03 1.040885599789e-02 -1.546219626291e-09 1.146029878388e-09 -3.755943474182e-10 9.465156546604e-07 2.662433700343e-07 1.126238591518e-07 1.000000000000e-03 1.047197551197e-05 3.537281753596e-12 -1.323255759998e-12 2.136742588919e-12
347 2 7.100541254230e-04 4.725048627910e-03 1.448304721898e-02 -4.135543818484e-10 6.593882808101e-10 -3.119824470999e-11 4.806565191825e-07 2.046236870141e-07 -2.264032584721e-06 1.000000000000e-03 1.047197551197e-05 -2.066691719654e-12 -3.169102076616e-12 -1.354113088756e-12
348 2 7.527106293751e-04 5.918977751022e-03 9.996965691349e-03 -1.049469566865e-09 1.489572493534e-09 2.363645338554e-11 5.067570974031e-07 -2.730052833325e-07 1.572749979640e-07 1.000000000000e-03 1.047197551197e-05 1.270547927339e-12 -4.856714935019e-12 -3.205859988102e-13
349 2 7.328436979980e-03 3.658304865719e-03 1.253694294892e-02 -6.561168426819e-10 8.347244474592e-10 9.558477335682e-10 1.850713613729e-06 3.412038773458e-06 9.337600859712e-07 1.000000000000e-03 1.047197551197e-05 9.124811834449e-12 -1.331662353773e-11 1.697531174721e-12
350 2 1.145105076369e-02 1.819405562497e-03 8.744835100790e-03 -3.780856655553e-08 -1.688706914341e-08 -6.268337771827e-08 -2.605804396451e+01 -5.147614429171e+00 2.044631636979e+01 1.000000000000e-03 1.047197551197e-05 9.239122492115e-11 4.126621582799e-11 1.531767713702e-10
351 2 6.496600239619e-03 1.325462790387e-03 8.495118240194e-03 -1.181205380899e-09 1.609833250724e-09 -1.147334089682e-10 1.212197355259e-07 -2.782591145965e-07 -1.475524446049e-07 1.000000000000e-03 1.047197551197e-05 2.357141926126e-12 -8.712955674287e-12 2.907027021021e-12
352 2 1.465409967868e-02 4.037148913546e-03 8.330471439491e-03 -1.267386882634e-09 1.491168741293e-09 1.992729529792e-10 -4.923165348521e-07 -1.543443635007e-07 8.132137613078e-08 1.000000000000e-03 1.047197551197e-05 2.187451138960e-12 -5.664579354815e-12 1.410642682076e-13
353 2 1.233797285901e-02 4.464447102212e-03 1.449226487552e-02 -1.770655767019e-10 -7.286666978252e-10 -1.635141209630e-10 -7.390164314417e-07 4.025232229470e-08 -1.820724049703e-06 1.000000000000e-03 1.047197551197e-05 -4.566906632514e-12 2.454672797759e-12 4.594096412341e-12
354 2 9.152164202903e-03 3.255865726956e-03 9.919088920630e-03 -1.791453633995e-09 1.216405982514e-09 2.510602620209e-10 8.454595526366e-07 -2.706805003542e-09 5.405799654965e-07 1.000000000000e-03 1.047197551197e-05 3.141737597450e-12 -2.803531825720e-12 -2.578760653980e-12
355 2 8.630802838859e-03 2.055074793570e-03 8.436078701792e-03 -1.359603250748e-09 1.651653992947e-09 -1.836530628066e-10 5.445802371465e-08 -2.537131611671e-07 -1.065483693434e-07 1.000000000000e-03 1.047197551197e-05 1.527097739876e-12 -7.336994200691e-12 8.935806480794e-13
356 2 8.527214607369e-03 5.072222519240e-03 1.291567128533e-02 -5.789185330979e-10 1.305759855807e-09 -2.616907065152e-10 3.096444461067e-08 9.855571243608e-07 2.966396462224e-07 1.000000000000e-03 1.047197551197e-05 1.304420752042e-12 -8.758911098728e-12 2.722275029306e-12
357 2 7.071107755203e-03 2.254190795875e-03 1.385576545649e-02 -2.268358273770e-09 1.238539232138e-10 7.530485714297e-10 -1.471233869525e-07 9.148417754522e-07 -8.444258872573e-06 1.000000000000e-03 1.047197551197e-05 3.215778197490e-12 -5.170216118052e-12 -3.354561798718e-12
358 2 1.270050041448e-02 3.722341395587e-03 1.066947173418e-02 -1.688583460489e-09 1.276274838503e-09 2.622493375550e-10 2.510486850025e-07 -3.198604921969e-07 6.237037457166e-08 1.000000000000e-03 1.047197551197e-05 3.077231436350e-12 -8.217032709290e-13 2.543373555382e-12
359 2 1.355025977676e-02 2.443965201975e-03 1.154797383961e-02 -1.481891823727e-09 1.156903438194e-09 1.891409425598e-10 2.318031388146e-07 -1.015877495599e-07 4.012807080932e-07 1.000000000000e-03 1.047197551197e-05 4.217246150373e-14 -8.607171752652e-12 -1.047174410392e-11
360 2 1.010811472104e-02 4.469882416947e-03 1.113488027903e-02 -1.549834516253e-09 1.209848717873e-09 9.822321057378e-11 -7.400379671905e-07 1.868533265309e-07 -2.017869126696e-07 1.000000000000e-03 1.047197551197e-05 3.098561013170e-12 -7.963570532563e-13 -6.038277184928e-13
361 2 1.379070066521e-02 2.918569441887e-03 1.324901857957e-02 8.109506336163e-10 4.622351227131e-10 -5.165510231894e-11 5.050292128989e-07 2.709168816880e-06 4.328796562828e-07 1.000000000000e-03 1.047197551197e-05 5.966046842190e-13 -1.066792684178e-11 2.608703928891e-11
362 2 8.572215033430e-05 2.863824540775e-03 1.444372084980e-02 4.442817986720e-10 6.942095024646e-11 -1.471110348973e-10 -1.996665673076e-07 -1.605861587701e-07 3.569146410985e-06 1.000000000000e-03 1.047197551197e-05 1.893840172216e-12 -1.046352789478e-12 -2.477625912238e-12
363 2 1.384408816173e-02 1.784421252834e-03 1.458920832967e-02 4.985545652407e-10 8.227099775511e-12 -2.366673487674e-10 -4.134816380313e-08 -4.793859709888e-07 -3.346567009613e-06 1.000000000000e-03 1.047197551197e-05 -8.699227176987e-15 -1.377249286913e-12 -4.070967855555e-12
364 2 1.312799548633e-02 5.917513421571e-03 1.095997202457e-02 -1.116348277849e-09 1.298428146808e-09 2.466716749185e-10 3.904098397084e-07 -3.462283500038e-07 1.970731343681e-07 1.000000000000e-03 1.047197551197e-05 3.613203150679e-14 -3.445048170971e-12 -2.899573090320e-12
365 2 3.382505223179e-04 3.562628647528e-03 1.020261722828e-02 -1.244565341887e-09 1.542122711114e-09 -2.077369728402e-10 8.082793152379e-08 -3.397765131984e-07 3.470351077974e-07 1.000000000000e-03 1.047197551197e-05 2.807137506934e-12 -5.612057939833e-12 7.882984309921e-13
366 2 8.116277035976e-03 6.137027250324e-03 1.016190297270e-02 -1.281415187105e-09 1.449343472023e-09 1.379663036463e-10 3.683203748008e-07 3.138892997361e-07 -1.386861203433e-07 1.000000000000e-03 1.047197551197e-05 1.454211996589e-11 1.674100666887e-13 5.889139750996e-12
367 2 1.492228326528e-02 5.649910029717e-03 1.323274633672e-02 -1.698817307248e-09 1.163231428644e-09 5.117713773042e-10 -1.615249110381e-07 -5.980650652116e-07 4.632246637893e-08 1.000000000000e-03 1.047197551197e-05 3.774446122509e-12 1.360186805215e-12 -3.779941806036e-12
368 2 1.302767203000e-02 1.532639757727e-02 1.439651533740e-02 -4.014583470534e-10 4.526347104547e-10 -7.172491221800e-11 4.140384437230e-07 3.963048739947e-07 -9.132822259927e-07 1.000000000000e-03 1.047197551197e-05 -1.447034309371e-12 -3.204552267583e-12 4.312958065260e-13
369 2 1.192123105026e-02 5.056479318277e-03 1.202586111416e-02 -1.239571874597e-09 9.528097545634e-10 -2.331700196155e-10 2.546026399879e-07 5.004887712800e-08 -1.340567963196e-07 1.000000000000e-03 1.047197551197e-05 3.987658572439e-12 -8.028442988199e-12 -5.193439358414e-13
370 2 1.099594379621e-03 4.640286787940e-03 8.801795604520e-03 -1.284793429194e-09 1.442993474690e-09 -4.402440876663e-10 -2.097254271579e-07 3.731629443954e-07 -5.546799084264e-07 1.000000000000e-03 1.047197551197e-05 3.125602649758e-12 -6.465559957038e-12 4.381862794191e-12
371 2 8.166625672335e-03 4.609553936429e-03 8.922141811834e-03 -1.624809571898e-09 1.577912284800e-09 1.492034676575e-10 -3.920955918413e-07 -5.244217106033e-08 -4.635448038657e-07 1.000000000000e-03 1.047197551197e-05 7.714546911514e-12 -3.299740195870e-12 -5.233355531752e-13
372 2 1.365955106339e-02 9.909364447055e-04 1.284718625346e-02 -7.105462894943e-10 7.710804004156e-10 -1.111429599890e-10 2.911388744117e-07 5.066237888770e-07 2.526020764000e-07 1.000000000000e-03 1.047197551197e-05 1.446164269188e-12 -6.176515576799e-12 -1.810706660986e-12
373 2 1.022951604092e-02 7.854501443996e-03 2.754436271405e-03 9.189767527136e-10 7.001052374950e-10 -1.008073905349e-09 -1.195503277228e-06 -1.655716005995e-06 -9.946047945577e-07 1.000000000000e-03 1.047197551197e-05 -1.940932042566e-11 -1.161227973393e-11 1.589194813359e-11
374 2 8.410500516294e-03 8.827594250125e-03 8.702427832760e-04 -7.022521115693e-10 2.935117039771e-10 9.272606756644e-11 -2.573233955830e-07 -6.278654608104e-07 -6.369551201485e-07 1.000000000000e-03 1.047197551197e-05 3.061390180654e-12 -4.288594742886e-12 -1.157537724529e-12
375 2 9.329663080384e-03 1.251745234028e-02 2.668053961972e-03 -5.830478176834e-10 1.537421745708e-09 6.672233434320e-11 7.276791754325e-07 -1.645145678673e-08 3.788073146356e-07 1.000000000000e-03 1.047197551197e-05 -2.061669057412e-13 -8.227131616431e-12 4.230507882918e-13
376 2 1.482409273000e-02 1.289841153535e-02 4.420984679768e-03 -5.332995189726e-10 1.244210543932e-09 -2.306059453296e-10 -4.166554757784e-07 1.563269965668e-07 6.905819347455e-08 1.000000000000e-03 1.047197551197e-05 -8.587415667332e-14 -5.561225018873e-12 9.787491205150e-13
377 2 1.101782151279e-02 9.823605633799e-03 4.666868738751e-03 -5.373924939445e-10 1.282222589997e-09 3.976984282191e-11 2.449524983790e-07 -2.159931840872e-07 2.917105155779e-08 1.000000000000e-03 1.047197551197e-05 1.667746139371e-12 -4.941762665551e-12 4.878549003940e-13
378 2 1.513223404714e-02 6.071001277541e-04 2.971998917469e-03 -1.152419891384e-09 4.696360713773e-10 4.319592307901e-10 -4.110179991249e-07 -6.167856788660e-07 -7.190488880721e-07 1.000000000000e-03 1.047197551197e-05 2.563155799214e-12 -1.616926013348e-12 -7.363131629535e-13
379 2 9.551852347134e-03 9.420528400738e-03 2.254527593781e-03 -6.179003985744e-10 2.441531438799e-10 -2.424908698341e-10 1.910056990523e-06 2.069753700498e-06 2.751375980142e-06 1.000000000000e-03 1.047197551197e-05 4.636288383554e-14 -1.640211234949e-12 2.042135694748e-12
380 2 9.152903950101e-03 5.448865186705e-04 1.456820083250e-03 -8.598170727791e-10 9.212191433398e-10 4.682277360874e-11 -5.629086951771e-07 7.094288081600e-08 -1.085476386269e-07 1.000000000000e-03 1.047197551197e-05 3.586044144677e-12 -2.937172890274e-12 4.334891767584e-13
381 2 1.531405413368e-02 9.721224315518e-03 2.450864870441e-03 -3.593366097095e-10 9.873966275554e-10 -1.400806200717e-10 -9.903165546165e-07 -3.754416086167e-07 6.214374599388e-07 1.000000000000e-03 1.047197551197e-05 5.068085535738e-11 1.486522489628e-11 -4.809711398397e-11
382 2 1.026751491973e-02 1.116045750408e-02 3.591395853227e-03 -3.334644422945e-10 1.319483517942e-09 -7.432738237069e-11 -2.777029804278e-07 -6.492652556280e-08 -8.729810577298e-08 1.000000000000e-03 1.047197551197e-05 -9.834114013917e-14 -6.567144777404e-12 1.461717068655e-12
383 2 5.654030583559e-04 3.543549413694e-04 6.909789210171e-03 -5.071882273954e-10 1.146325478965e-09 -7.296904059425e-10 -4.181800251222e-07 -2.435175401675e-07 1.896758004340e-07 1.000000000000e-03 1.047197551197e-05 -2.100322471534e-12 -3.260085620040e-12 3.564187222636e-12
384 2 1.465282264461e-02 6.766621061193e-03 2.579725046811e-03 -3.772091222000e-10 8.572045217030e-10 -1.678429836543e-11 -1.089833414323e-06 -2.475577620171e-08 9.935405065375e-08 1.000000000000e-03 1.047197551197e-05 -1.254892775761e-13 -5.056239631826e-12 1.719381142042e-13
385 2 1.115462713897e-02 2.494806785088e-04 8.307348409845e-04 -7.044822243986e-10 5.877955206406e-10 -7.371906073547e-11 -5.752479126556e-07 -7.317306351297e-07 4.300136274823e-07 1.000000000000e-03 1.047197551197e-05 4.670497181588e-12 -2.023997240356e-12 -1.044355028374e-13
386 2 6.905922585023e-03 1.185848118210e-02 5.449970812063e-03 -9.311274694685e-10 1.740605195906e-09 -3.621242980236e-10 1.662769105167e-08 -5.480910229819e-07 -5.911531148467e-07 1.000000000000e-03 1.047197551197e-05 2.683022385441e-12 -7.928321971157e-12 2.162955907134e-12
387 2 1.416872348595e-02 9.461514998087e-04 6.432627055366e-03 -7.697505987926e-10 1.461137868195e-09 -1.907344294829e-11 -2.415459128951e-07 2.062026766031e-08 2.337351557669e-07 1.000000000000e-03 1.047197551197e-05 4.364091153007e-12 -7.396151228417e-12 1.635621581036e-13
388 2 6.299390189197e-03 1.075881533712e-02 4.056668820852e-03 -3.931065198695e-10 6.958275736612e-10 1.532217305764e-10 -1.115746795939e-06 4.117902206284e-07 1.192856645063e-06 1.000000000000e-03 1.047197551197e-05 -5.263736320770e-13 -4.362652963724e-12 2.681678024381e-13
389 2 8.208092230025e-03 1.267534213770e-02 4.264181091362e-03 -3.924802503976e-10 1.036371958850e-09 6.394345879569e-11 1.585138000872e-07 6.134371901687e-08 -4.717499102717e-07 1.000000000000e-03 1.047197551197e-05 1.323918111570e-12 -4.451125509258e-12 -1.399604938945e-13
390 2 1.156860264260e-03 7.735462845402e-03 6.248960765950e-03 -8.043267138181e-10 8.591889943280e-10 -2.425108090410e-10 -1.629130879550e-07 -4.960503722902e-07 -4.044064378525e-07 1.000000000000e-03 1.047197551197e-05 -1.578748457151e-13 -8.219529373590e-12 7.321675860028e-12
391 2 1.163470012082e-02 1.232313085302e-02 2.902545102259e-03 -5.817051507834e-10 1.315461013591e-09 1.315683458062e-10 1.936939087167e-07 -1.318067911224e-07 2.692228692738e-07 1.000000000000e-03 1.047197551197e-05 9.278578784652e-13 -5.271342942239e-12 9.904342162836e-13
392 2 1.201194379113e-03 1.422262587628e-02 2.928807073732e-03 -6.727982790290e-11 1.011916017298e-09 -6.493011375575e-10 -1.255056289748e-06 1.143850414695e-06 -8.286496258725e-07 1.000000000000e-03 1.047197551197e-05 1.383469020017e-12 -5.248725370128e-12 2.143052973712e-12
393 2 1.231344893226e-02 1.145240728644e-02 1.149126013628e-03 -5.439306774493e-10 5.536620364456e-10 -5.276794822207e-11 2.069604162611e-07 7.926950331753e-07 -1.002488940974e-06 1.000000000000e-03 1.047197551197e-05 -1.552997558570e-12 -2.587436750856e-12 -7.610749585746e-13
394 2 8.750273152709e-03 1.470753360441e-02 4.774415757852e-03 -5.200769815167e-10 1.763055307095e-09 1.865227790532e-10 -1.391624479004e-07 2.918683321943e-07 -5.365768402319e-07 1.000000000000e-03 1.047197551197e-05 -2.517258792385e-12 -5.523087567804e-12 3.084054147022e-13
395 2 8.513490259593e-03 1.306730178817e-02 9.569087551565e-04 -4.214749512220e-10 6.767091395998e-10 3.087867482773e-10 -5.002687817506e-07 -3.263855136046e-07 1.204533391465e-06 1.000000000000e-03 1.047197551197e-05 9.637399644192e-13 -3.942666206071e-12 -3.433731444917e-13
396 2 1.007287179275e-02 2.595129325404e-04 6.251083536323e-03 -9.406991737579e-10 1.315717054506e-09 8.169996810664e-11 -2.637840737941e-07 1.465270720178e-08 6.849260696587e-08 1.000000000000e-03 1.047197551197e-05 2.910063283512e-12 -6.133865764398e-12 -7.875437011391e-13
397 2 7.664689986687e-03 1.502934725997e-02 8.641755503635e-04 -4.824167168805e-10 2.865364525382e-10 1.389067975627e-10 -3.709792002250e-07 -5.582796352995e-07 3.652642004358e-07 1.000000000000e-03 1.047197551197e-05 1.548566519588e-14 5.081800317737e-13 3.277386056003e-12
398 2 1.510347409209e-02 1.447215491959e-02 1.752130598156e-03 -1.617428789213e-10 9.443033975818e-10 2.725460161369e-11 1.167689572780e-06 -5.361871122961e-07 1.061589182498e-06 1.000000000000e-03 1.047197551197e-05 -1.638209766755e-12 -6.092603071655e-12 -2.543869911864e-12
399 2 1.217313470045e-02 1.441798891084e-02 3.995453070285e-03 -7.094823940194e-10 1.184658485954e-09 -1.619370560137e-10 2.204493595279e-07 -7.517678308806e-08 2.917331998010e-07 1.000000000000e-03 1.047197551197e-05 3.186766319022e-12 -4.615719373201e-12 5.968355310832e-13
400 2 7.632950878920e-03 1.251701713001e-02 7.119352577372e-03 -1.068960105572e-09 1.478027804529e-09 -1.064581308734e-10 -2.186335172856e-08 3.346420189291e-08 -7.921191483137e-08 1.000000000000e-03 1.047197551197e-05 2.309211567823e-12 -5.721123876087e-12 1.619025506566e-12
401 3 9.798107614148e-03 1.106841789066e-02 1.103727597532e-03 -1.575612540626e-09 9.756861351446e-10 3.110984731938e-10 -7.246667297248e-07 -1.212179794666e-06 -1.571080557632e-06 1.250000000000e-03 2.045307717181e-05 9.282073653757e-12 -6.470490855624e-12 6.074491740028e-12
402 3 8.282934540681e-03 1.032590651315e-02 3.669287914770e-03 -1.780400657290e-10 1.494800160145e-09 -1.492619195918e-10 2.491412738798e-07 -5.887202382953e-09 -2.743729120952e-08 1.250000000000e-03 2.045307717181e-05 -2.823541364897e-12 -1.674705264616e-11 -2.586842622246e-12
403 3 1.197539332389e-04 1.090671515026e-02 4.108374139438e-03 -6.677193080704e-10 1.369818333447e-09 -3.689283103784e-10 3.726345548630e-07 3.057351400397e-07 -1.300169479656e-08 1.250000000000e-03 2.045307717181e-05 3.804327856942e-12 -1.304602201306e-11 6.760767012940e-13
404 3 1.450281362893e-02 1.167702663832e-02 1.195039511665e-03 -6.069127104032e-10 4.796757044346e-10 -1.116748131677e-10 -3.463357756034e-07 -5.507024988812e-07 8.340185230541e-07 1.250000000000e-03 2.045307717181e-05 3.337247753100e-12 -4.136128059910e-12 3.148880772513e-12
405 3 9.163541048432e-03 8.686256176505e-03 5.002540700891e-03 -4.769332718870e-10 1.362267226356e-09 -2.000387726927e-10 -1.221738859722e-09 -7.064123912475e-08 -1.047269526206e-07 1.250000000000e-03 2.045307717181e-05 6.108437273406e-13 -1.127019218773e-11 2.891869382788e-12
406 3 8.224390679817e-03 1.432319613549e-02 2.750898500085e-03 -1.105795999345e-09 1.242240908213e-09 4.725551182514e-10 -3.027811772902e-07 1.873302920755e-07 3.903702186985e-08 1.250000000000e-03 2.045307717181e-05 1.691130419722e-13 -1.032297569160e-11 -1.350365117505e-12
407 3 6.600337045526e-04 8.094102545497e-03 3.715078949552e-03 -3.645455152648e-10 1.293538607707e-09 9.080740780850e-11 7.112179654476e-07 -9.891995911299e-08 -9.191655867144e-08 1.250000000000e-03 2.045307717181e-05 4.209182545825e-12 -9.808286673448e-12 -6.551580797824e-12
408 3 1.423403422804e-03 1.142009974639e-02 5.974744371416e-03 -5.836319678701e-10 1.199595089359e-09 -3.508152651756e-10 -1.729392736663e-07 -1.480823938296e-07 6.837812106234e-08 1.250000000000e-03 2.045307717181e-05 1.197342107797e-13 -1.268877544923e-11 3.486950224143e-12
409 3 6.930642111765e-03 8.921680265069e-03 2.406571037469e-03 -5.960116711414e-10 1.499902164440e-09 9.032861007430e-11 -3.804577379299e-07 3.203430252054e-07 -1.751525765841e-07 1.250000000000e-03 2.045307717181e-05 4.212756843528e-12 -2.091606073547e-11 -4.211778361012e-12
410 3 1.088015066012e-02 1.312115655021e-02 1.088609288984e-03 -4.362771070532e-10 5.958483660800e-10 2.601259496612e-11 -3.988248199830e-07 -3.274456340446e-07 6.300565157941e-07 1.250000000000e-03 2.045307717181e-05 1.835927907029e-12 -4.665578182628e-12 2.668275383673e-12
411 3 1.060428572151e-02 1.479179660890e-02 2.618891639428e-03 -9.849181883061e-10 1.037381198296e-09 -7.577701848856e-11 6.938170832524e-09 2.144405541511e-07 -1.033008625226e-07 1.250000000000e-03 2.045307717181e-05 1.232640052390e-11 -7.693378822213e-12 1.487745730334e-12
412 3 1.036316035854e-02 1.327596812658e-02 4.427842276370e-03 -7.421391077172e-10 1.201509987529e-09 7.586879473697e-11 -1.718984454917e-07 9.883820181511e-08 -6.327567048837e-08 1.250000000000e-03 2.045307717181e-05 6.370519280434e-12 -1.036900008041e-11 -9.180872193852e-14
413 3 6.914092630871e-03 8.382793516954e-03 5.928097111423e-03 -6.663573993596e-10 1.649442185826e-09 2.346305594105e-11 2.601712006215e-07 2.018995093064e-07 -1.264384557245e-07 1.250000000000e-03 2.045307717181e-05 4.636686178854e-12 -2.366775348925e-11 -8.045436624427e-13
414 3 1.353183353991e-02 1.332780956012e-02 2.684947414686e-03 -4.898095605081e-10 6.710481559198e-10 -1.983603574706e-10 -6.142931455331e-07 1.300126808472e-07 -5.981130617706e-07 1.250000000000e-03 2.045307717181e-05 5.917862829751e-13 -3.854352273347e-12 1.428348174041e-12
415 3 1.245679443817e-02 1.309770447631e-02 5.640533670071e-03 -7.395957193187e-10 1.282735436082e-09 -4.191462813486e-11 -2.234849646346e-07 -4.312994031576e-09 -3.909510427121e-08 1.250000000000e-03 2.045307717181e-05 5.015175740917e-12 -8.378882655933e-12 1.021831586943e-12
416 3 6.235242145497e-03 1.277505099273e-02 1.139157120097e-03 -9.762848202071e-11 4.683018909470e-10 -1.310409333129e-10 -2.614981647691e-07 -6.335195402548e-08 -5.752296498856e-07 1.250000000000e-03 2.045307717181e-05 -1.702049778654e-12 -5.844452124526e-12 4.729995263228e-12
417 3 1.412870400731e-02 1.489064403851e-02 4.731298807480e-03 -6.847645053429e-10 1.237465941296e-09 -2.099946707633e-10 2.384333749206e-07 2.473857292462e-07 4.520484091594e-08 1.250000000000e-03 2.045307717181e-05 1.088846159833e-12 -1.217721555571e-11 5.853016396300e-12
418 3 1.352656331970e-02 9.506700895357e-03 1.113026048264e-03 -2.925673188657e-10 2.461460098862e-10 -6.274245508645e-11 -1.377871345249e-07 -2.602242694661e-07 -5.656755885863e-07 1.250000000000e-03 2.045307717181e-05 -3.233063975917e-13 1.897337704678e-13 -3.379639755068e-13
419 3 9.958283650222e-03 1.139670802754e-02 5.813138083292e-03 -7.010920449662e-10 1.308582319836e-09 1.828105236284e-10 1.337336350810e-08 7.124384844713e-08 -2.663051018519e-08 1.250000000000e-03 2.045307717181e-05 2.572016694797e-12 -1.162029844409e-11 1.909802679595e-13
420 3 1.166828818428e-02 9.866829113106e-03 2.564794555985e-03 -5.277074265345e-10 9.683907036919e-10 -9.944347414638e-12 -2.306205544350e-08 2.242188781404e-07 -7.946412787436e-08 1.250000000000e-03 2.045307717181e-05 5.054273898561e-12 -8.802910515108e-12 -1.140373923876e-12
421 3 1.384348103726e-02 9.112414157327e-03 3.808483646407e-03 -5.266608760970e-10 1.282435826628e-09 -1.256975581277e-10 -2.060849846329e-07 -9.289815319225e-08 9.897588079643e-08 1.250000000000e-03 2.045307717181e-05 -4.786194563780e-11 -3.205265573150e-11 4.461184293292e-11
422 3 9.294090366274e-03 1.366822158784e-02 6.557893907627e-03 -8.331625281480e-10 1.412802875158e-09 1.220328210390e-10 1.167937079079e-07 -1.744604939165e-07 -2.261273276236e-08 1.250000000000e-03 2.045307717181e-05 4.409064175504e-12 -1.204566974759e-11 -6.089656841600e-13
423 3 1.183660154155e-02 7.931229396814e-03 4.086733192064e-03 -4.051457587103e-10 1.184699774468e-09 1.378259651585e-10 -2.563780048934e-07 -1.073458996685e-08 3.928324152079e-08 1.250000000000e-03 2.045307717181e-05 -7.285673063769e-13 -1.218573648101e-11 2.038189926580e-12
424 3 5.255521241202e-04 1.366273168101e-02 6.171539940469e-03 -5.234162274834e-10 1.195115652842e-09 -3.852879863207e-10 6.883063540377e-08 -4.282452699503e-08 -2.077735226338e-07 1.250000000000e-03 2.045307717181e-05 3.004336336880e-12 -1.126688734329e-11 1.730969726580e-12
425 3 1.038169069355e-03 2.408951808804e-04 4.792570547812e-03 -6.376278370992e-10 9.918505580458e-10 -8.801832305921e-10 1.401068663527e-07 3.827707194687e-07 -1.283267594130e-07 1.250000000000e-03 2.045307717181e-05 7.900876294735e-12 -7.777216127422e-12 5.817451294295e-12
426 3 1.303696883824e-02 1.130548874367e-02 4.187937920156e-03 -6.850920565622e-10 1.269925964935e-09 -3.992312503279e-11 2.684752137537e-07 -1.132521417190e-07 2.185479919238e-08 1.250000000000e-03 2.045307717181e-05 7.338210880202e-13 -1.022647938323e-11 1.289910929191e-12
427 3 7.977894509865e-03 1.034993693236e-02 6.819985363214e-03 -7.652469697854e-10 1.559331543572e-09 1.986960342455e-10 -1.363032310565e-07 -2.562085078920e-07 2.359265033988e-07 1.250000000000e-03 2.045307717181e-05 5.539813871431e-13 -1.613343244585e-11 1.601116339039e-12
428 3 1.455233957419e-02 1.435839579505e-02 1.305975982405e-02 -5.295086999449e-10 9.994315946232e-10 -1.488118152680e-10 -2.078711566590e-07 -4.718836804881e-07 1.016504973548e-08 1.250000000000e-03 2.045307717181e-05 4.182838859512e-13 -7.808319322380e-12 7.038065868322e-12
429 3 9.498550039001e-03 1.095279613698e-02 1.082330245906e-02 -1.165066539763e-09 1.403694310101e-09 1.136348602958e-10 -5.395413026226e-07 2.999617422087e-08 -3.033073752760e-07 1.250000000000e-03 2.045307717181e-05 1.408225345211e-11 -1.423857017920e-11 4.435490894183e-12
430 3 1.445032679492e-02 7.645493697543e-03 1.401440595002e-02 -1.439680129775e-09 1.272366433173e-09 -3.287970754355e-10 -2.592336384872e-07 -9.107832054403e-07 -7.928644229426e-07 1.250000000000e-03 2.045307717181e-05 7.183694195852e-12 -4.673081738037e-12 1.003789079687e-11
431 3 1.279437608555e-02 1.131849209542e-02 1.226587792581e-02 -7.802626694511e-10 1.421278808893e-09 2.163961524424e-11 3.290971444255e-07 2.695684946919e-07 -2.293218330167e-07 1.250000000000e-03 2.045307717181e-05 7.260115524109e-13 -8.318209993550e-12 -5.170874615523e-13
432 3 8.243187696902e-03 6.687028689166e-03 1.434941719426e-02 -4.539869976814e-10 3.434481727177e-10 -1.645736131897e-10 2.029900595821e-07 1.606607880017e-07 8.602322070885e-07 1.250000000000e-03 2.045307717181e-05 2.945544520747e-12 -3.432113148916e-12 -3.435237371808e-14
433 3 6.959651509134e-03 1.445015669909e-02 7.757013946046e-03 -9.660328707522e-10 1.511374480121e-09 -3.053730177215e-11 -5.453187394607e-08 2.055380400918e-07 3.385523188366e-08 1.250000000000e-03 2.045307717181e-05 4.126113459284e-12 -1.078135785394e-11 1.280664020431e-12
434 3 1.503407846920e-02 1.099662197893e-02 1.025938319079e-02 -8.879919508016e-10 1.332874930389e-09 -1.540249646963e-11 1.377674138725e-07 -6.007931530242e-08 -1.845705997124e-07 1.250000000000e-03 2.045307717181e-05 3.773443932307e-12 -1.119646768314e-11 -2.244432266576e-12
435 3 6.999422650011e-04 7.797994412507e-03 8.385165999011e-03 -9.587471166498e-10 1.233830209346e-09 -2.695903362271e-10 -4.281950344761e-08 5.015966071090e-07 -2.404144991747e-07 1.250000000000e-03 2.045307717181e-05 2.515288907883e-12 -7.960820875596e-12 7.595710261983e-13
436 3 9.632147318715e-03 1.259411696750e-02 1.417503113058e-02 -6.630011939867e-10 8.020639555954e-10 3.036958454935e-11 -3.662572591819e-07 -3.156593606374e-07 4.604812767071e-07 1.250000000000e-03 2.045307717181e-05 6.338129812054e-12 -7.329638544289e-12 -8.895559167188e-13
437 3 7.514220990746e-03 1.237788966516e-02 1.056070074536e-02 -9.359722000285e-10 1.262476645978e-09 -4.586657234289e-11 -7.722781216287e-09 2.624072196320e-07 1.346022745648e-07 1.250000000000e-03 2.045307717181e-05 6.872871966523e-12 -1.034335627374e-11 5.996954691492e-13
438 3 9.374829449136e-03 9.289071035582e-03 9.129584252437e-03 -1.213650972093e-09 1.101801459140e-09 1.493550186993e-10 5.693826088882e-08 -5.102074289605e-08 4.764353128512e-08 1.250000000000e-03 2.045307717181e-05 5.402723362230e-12 -1.066496834539e-11 5.733728745074e-13
439 3 8.299092327505e-03 6.524978535791e-03 5.666425901148e-03 -5.959060695171e-10 1.467662634599e-09 -2.898489960814e-10 2.256211937966e-08 -1.457548602463e-07 4.815370260743e-08 1.250000000000e-03 2.045307717181e-05 5.150173150930e-13 -1.507409338336e-11 3.346490145229e-12
440 3 1.252339756319e-02 1.279795669064e-02 8.609290830737e-03 -9.112259618997e-10 1.266140371718e-09 -7.625299537467e-11 8.527231758017e-08 -9.153560736689e-08 5.103152801576e-09 1.250000000000e-03 2.045307717181e-05 4.166914691098e-12 -9.922680356104e-12 2.278469226101e-12
441 3 9.129753663129e-04 6.826759625709e-04 1.267264004750e-02 -5.864114534047e-10 1.342354441175e-09 -3.748455216570e-10 -3.734635854944e-08 6.683889363720e-07 9.947213955219e-08 1.250000000000e-03 2.045307717181e-05 3.298806562372e-12 -6.087291742678e-12 3.593642732669e-12
442 3 1.147418041601e-02 1.449796324070e-02 7.379404124183e-03 -8.470167791217e-10 1.421230440234e-09 8.882814865867e-11 8.062386067080e-08 1.305802382864e-07 -2.903831870612e-08 1.250000000000e-03 2.045307717181e-05 4.078498783657e-12 -1.084602855722e-11 -4.500028325976e-13
443 3 8.845932835277e-03 7.620259856351e-05 1.200692251718e-02 -1.528758866177e-09 1.358018177886e-09 3.416789381272e-11 -6.948947139940e-07 1.191933869605e-07 2.234405427485e-07 1.250000000000e-03 2.045307717181e-05 7.703726318635e-12 -1.028591983580e-11 1.442723801544e-12
444 3 1.494176896470e-02 9.277080927605e-03 6.002087143041e-03 -6.365732297685e-10 1.281517163769e-09 -2.580606393854e-10 1.873802594159e-07 8.559288467473e-08 1.983704637442e-08 1.250000000000e-03 2.045307717181e-05 -1.260614886364e-12 -1.048016642084e-11 1.533397043091e-12
445 3 6.592725734257e-03 1.143390774349e-02 8.528279059235e-03 -1.067397759223e-09 1.475849190815e-09 1.507562556141e-11 6.144370388302e-08 2.371578559259e-08 -6.097182976432e-08 1.250000000000e-03 2.045307717181e-05 2.503936731835e-12 -5.036077246214e-12 1.632280084568e-12
446 3 8.066003421424e-03 1.462040804864e-02 9.942761855675e-03 -1.443455855482e-09 1.309824472489e-09 -9.121799301439e-12 5.590993231262e-07 -2.088302678862e-07 -1.202459637010e-07 1.250000000000e-03 2.045307717181e-05 1.616436884059e-12 -6.201518378075e-12 4.209157780823e-12
447 3 6.152823779724e-03 7.875641258538e-03 8.847302161381e-03 -1.033704053741e-09 1.369217152078e-09 -1.300856546772e-10 1.270531072662e-07 8.250329164333e-08 -4.217195624493e-07 1.250000000000e-03 2.045307717181e-05 5.640674466645e-12 -1.312855237479e-11 4.140129754306e-12
448 3 1.219834164348e-02 1.320643533666e-02 1.374521010062e-02 -2.104829227554e-10 9.847406688511e-10 1.195460666461e-09 5.824470786742e-07 3.036749206309e-07 -3.083007353828e-08 1.250000000000e-03 2.045307717181e-05 1.220583383979e-12 -7.541717733105e-12 -3.408037834206e-12
449 3 6.162762163467e-03 8.384389173220e-03 1.143800422230e-02 -1.230851106138e-09 8.920317144748e-10 1.692628408159e-10 2.450656851380e-07 2.702058387409e-07 4.516432893999e-08 1.250000000000e-03 2.045307717181e-05 4.816128166010e-12 -1.119566031343e-11 -1.212669271839e-12
450 3 1.386533673016e-02 1.152933217955e-02 1.426252068912e-02 -1.912339067066e-10 5.411680595865e-10 1.004021479512e-10 3.068498360083e-07 5.095190509384e-08 -7.423043428992e-08 1.250000000000e-03 2.045307717181e-05 2.547280289579e-12 -5.041751165866e-12 -8.413181537024e-13
451 3 8.344792814230e-04 1.214814845793e-02 1.205155874173e-02 -7.191401389440e-10 1.323824214222e-09 -3.316918209912e-10 -4.157580512981e-07 1.426499676531e-07 -2.447106121833e-07 1.250000000000e-03 2.045307717181e-05 6.930053328051e-12 -9.397508622342e-12 -3.764227236018e-12
452 3 1.399709207759e-02 1.301740251737e-02 1.099386895185e-02 -8.264389517121e-10 1.363624681944e-09 -4.429316903240e-10 -5.157724717555e-07 -2.740998376264e-08 1.094686689875e-07 1.250000000000e-03 2.045307717181e-05 -3.151906456203e-12 -1.047873660395e-11 -5.916607735008e-13
453 3 1.121168141753e-02 7.022098776568e-03 1.258412589249e-02 -1.343783523264e-09 8.815620213649e-10 6.873722101612e-11 -8.347800618672e-08 -1.129853122696e-07 3.611560618143e-08 1.250000000000e-03 2.045307717181e-05 4.711436054468e-12 -5.689619257209e-12 1.620720535123e-12
454 3 1.437158968398e-02 1.168968449892e-02 6.239692918633e-03 -6.576870902985e-10 1.251738796859e-09 -1.494530986386e-10 -1.453145342648e-07 2.576195414700e-07 -2.527952007146e-08 1.250000000000e-03 2.045307717181e-05 2.127025947800e-12 -1.244486524526e-11 2.133380019627e-12
455 3 1.212995793167e-02 8.543385991253e-03 1.419905571275e-02 -1.219896308488e-09 8.336188397272e-10 3.098092080080e-11 6.464092042904e-07 1.005645995844e-06 7.688263083705e-07 1.250000000000e-03 2.045307717181e-05 4.435501442536e-12 -4.196096593863e-12 1.151717080002e-13
456 3 1.257226199815e-02 1.002844230884e-02 1.036877372488e-02 -1.153752504021e-09 1.368271537742e-09 -1.055183992669e-10 -2.481189857990e-07 -7.023085894184e-08 4.156676240794e-08 1.250000000000e-03 2.045307717181e-05 1.474860731560e-12 -8.830083746664e-12 2.982937351570e-12
457 3 1.464968002161e-02 6.256884635163e-04 1.087657099104e-02 -1.140024607850e-09 1.494110807194e-09 -7.073395505906e-11 1.923547420954e-07 -1.601476729577e-07 -6.316264827561e-08 1.250000000000e-03 2.045307717181e-05 5.799518637382e-12 -1.118682394952e-11 4.555305415782e-12
458 3 1.548735506273e-03 7.822440558656e-03 1.428343566968e-02 -1.664372597982e-09 9.135630202146e-10 -3.012741491594e-10 8.197030627805e-07 1.231188502393e-06 -4.927109707951e-07 1.250000000000e-03 2.045307717181e-05 -5.671898713904e-11 -6.295171545144e-11 7.537432515095e-11
459 3 6.758335540077e-03 6.285333527145e-03 1.253207603494e-02 -1.505892345754e-09 4.656467203893e-10 -4.880824916888e-11 2.428299517396e-07 8.588638637677e-07 -2.441169884179e-07 1.250000000000e-03 2.045307717181e-05 1.187061756554e-11 -5.974397593534e-12 8.403230222734e-12
460 3 1.431526003711e-02 8.770606473775e-03 9.647698476443e-03 -8.977381124872e-10 1.465887259130e-09 6.602441602358e-11 -1.816317817295e-07 4.010170649049e-08 2.278255464010e-07 1.250000000000e-03 2.045307717181e-05 -1.491469438146e-12 -1.006074875428e-11 -3.043666528559e-12
461 3 2.552530181586e-04 1.487903256132e-02 8.821110904457e-03 -7.953662608128e-10 1.497709321602e-09 -4.412745791121e-10 8.603896839922e-09 -1.082868200810e-07 2.394901145457e-08 1.250000000000e-03 2.045307717181e-05 1.248583205634e-12 -8.406125543570e-12 1.858067992543e-12
462 3 1.490907453115e-02 1.260635181655e-02 8.546690804447e-03 -7.327315194644e-10 1.305132790751e-09 -1.020493952637e-10 -2.736891306088e-07 2.980713260388e-08 2.495774394957e-08 1.250000000000e-03 2.045307717181e-05 4.596170153690e-12 -1.041466629594e-11 8.848278035763e-13
463 3 1.159338677615e-02 1.279654797600e-02 1.092204703609e-02 -8.150487624243e-10 1.204009099507e-09 -2.557887088476e-10 -9.392345453128e-07 5.099458130271e-08 -4.587556555934e-08 1.250000000000e-03 2.045307717181e-05 2.749608249050e-12 -5.851625403670e-12 6.160224040340e-12
464 3 9.461889058341e-03 1.085859362743e-04 8.245634962667e-03 -1.133366094531e-09 1.671841013001e-09 1.531575761825e-10 -1.961773222156e-07 -1.717970105404e-07 1.191496654124e-07 1.250000000000e-03 2.045307717181e-05 3.281471892337e-14 -1.185104266721e-11 -6.586407648429e-12
465 3 1.085027266084e-02 1.518747668214e-02 1.379280659434e-02 -9.747267335875e-11 1.355432361234e-09 6.708996995341e-10 2.577781207183e-07 -2.300929855165e-06 -2.501469629865e-07 1.250000000000e-03 2.045307717181e-05 2.748321819163e-12 -1.167297828116e-11 -5.258280918519e-12
466 3 1.304093043014e-02 8.096497146038e-03 1.177251078449e-02 -1.188030180456e-09 1.356559117348e-09 2.467027140713e-10 1.621571853309e-07 -8.621378346899e-08 1.487280480653e-07 1.250000000000e-03 2.045307717181e-05 3.259704817840e-12 -1.062423643184e-11 1.439102985741e-12
467 3 1.049522575671e-02 1.476512660963e-02 1.025683077723e-02 -1.070426339881e-09 1.082337226056e-09 -1.255712008011e-10 8.540431998910e-07 3.325757414853e-07 6.001272168759e-08 1.250000000000e-03 2.045307717181e-05 6.318338408890e-12 -7.528129035112e-12 7.442158741712e-12
468 3 1.261298125239e-02 1.486980525148e-02 1.168125684268e-02 -9.032049966814e-10 1.157216716844e-09 -5.080233409855e-11 5.722411852907e-07 5.735080240293e-07 1.669478036877e-07 1.250000000000e-03 2.045307717181e-05 1.737542237790e-12 -1.083320795536e-11 -1.292412509153e-12
469 3 1.503345061741e-02 6.918972338935e-03 1.152084590177e-02 -1.145515238597e-09 1.249607904179e-09 2.367988547252e-10 3.622397786054e-08 8.143627898195e-09 -2.677195520589e-07 1.250000000000e-03 2.045307717181e-05 1.631537722981e-12 -8.235524064830e-12 1.969866290881e-12
470 3 1.384441534493e-02 1.427409595036e-02 7.152030763470e-03 -6.616761606554e-10 1.276068652950e-09 -1.154170125536e-10 2.832280002710e-07 3.650690083496e-08 -3.505392028750e-08 1.250000000000e-03 2.045307717181e-05 5.076828916617e-12 -8.806982530963e-12 2.108278824786e-12
471 3 1.219084916662e-02 1.044037604628e-02 6.342217333319e-03 -6.951359035803e-10 1.262650894087e-09 -1.643342511314e-11 -2.290067455717e-07 1.512794064902e-07 -1.506196130622e-08 1.250000000000e-03 2.045307717181e-05 1.044648781801e-12 -9.658979814026e-12 1.347571823925e-12
472 3 9.097546838326e-03 1.240137047916e-02 8.653079711319e-03 -1.147153585798e-09 1.260478946522e-09 -2.902231460445e-11 3.215907122762e-08 -1.090960257809e-07 -1.475295012928e-07 1.250000000000e-03 2.045307717181e-05 3.553600944878e-12 -1.042883053579e-11 3.236239790539e-14
473 3 6.863351802081e-03 8.443223871351e-03 1.371681235216e-02 -1.955200332735e-09 -7.044607386442e-10 8.898913174524e-11 1.107402647319e-06 -1.136627990682e-06 8.853672296651e-07 1.250000000000e-03 2.045307717181e-05 9.690090014025e-12 -3.183586281269e-12 -2.285716844386e-13
474 3 9.421998556627e-03 1.315242130206e-02 1.181017996155e-02 -7.343542439231e-10 1.187202182754e-09 -7.343417721934e-11 6.893075442587e-07 1.598972096043e-07 2.873951230557e-07 1.250000000000e-03 2.045307717181e-05 1.584213493924e-11 -1.086092230492e-11 -4.813379772726e-12
475 3 1.140361956611e-02 1.092921545805e-02 1.422301062544e-02 -4.337940052714e-10 8.349797240557e-10 1.262695037008e-10 5.638988479461e-07 2.612353274208e-07 -3.343559634511e-07 1.250000000000e-03 2.045307717181e-05 1.524836492802e-13 -5.014831252153e-12 -2.829629958774e-13
476 3 1.072196583695e-02 6.886470511665e-03 5.922920831857e-03 -6.995639817057e-10 1.401146749909e-09 7.208387446353e-11 1.481771454657e-07 -2.163295989393e-07 -1.082847839930e-07 1.250000000000e-03 2.045307717181e-05 -1.121127612478e-12 -9.376676046402e-12 -3.010551808998e-12
477 3 1.009381626000e-03 1.695581531090e-03 9.535928211039e-03 -9.077840593821e-10 1.585513307417e-09 -3.210289936620e-10 1.496230353737e-08 3.819566060323e-07 -2.100706434441e-08 1.250000000000e-03 2.045307717181e-05 1.025258254090e-12 -7.745752830084e-12 5.984831237265e-12
478 3 7.366653560257e-03 1.000757539775e-02 1.024371462624e-02 -1.172787482225e-09 1.186189585084e-09 6.467172478548e-11 8.745413166287e-08 -1.971044864560e-08 -2.069620365906e-07 1.250000000000e-03 2.045307717181e-05 6.116620007904e-12 -9.709230922940e-12 -1.961736379495e-13
479 3 8.535346894891e-03 8.088449041050e-03 1.096233768977e-02 -1.252919597199e-09 1.313450962599e-09 1.841413167984e-10 -2.214538380306e-07 -1.504371115155e-07 2.115526587722e-07 1.250000000000e-03 2.045307717181e-05 7.999975881120e-12 -7.130349536837e-12 -1.513058167979e-12
480 3 6.664794364941e-03 1.387192847928e-02 1.436303182522e-02 -6.342717215074e-10 1.679650898497e-09 -2.260805740528e-10 1.284062987713e-06 3.388329619379e-07 2.064875116359e-06 1.250000000000e-03 2.045307717181e-05 2.769715023617e-12 -1.217533299552e-11 -2.739229432672e-12
481 3 9.334847013412e-03 8.267549994910e-03 1.315574017025e-02 -1.231404466012e-09 1.142033433999e-09 2.849964604566e-10 4.655001838475e-07 1.694168986356e-07 -1.914946607920e-07 1.250000000000e-03 2.045307717181e-05 5.775599292730e-12 -4.752775951174e-12 -5.146178322034e-12
482 3 8.802131794708e-03 9.852389751812e-04 1.423549000801e-02 -7.521428752282e-10 1.259430504319e-09 3.061913313485e-11 1.021815559134e-06 7.753408280591e-07 1.317451023546e-07 1.250000000000e-03 2.045307717181e-05 4.176960907289e-12 -1.325112306096e-11 -5.541904578637e-13
483 3 1.109601551276e-02 8.194029397380e-03 1.040580916692e-02 -1.121519900049e-09 1.259812408139e-09 2.161860196204e-10 -1.383608502628e-07 4.121685593166e-08 8.403582297446e-08 1.250000000000e-03 2.045307717181e-05 1.203974186366e-12 -9.275627400558e-12 -5.006839843943e-13
484 3 1.284062142639e-02 8.066839534128e-03 6.390478198506e-03 -6.894204591286e-10 1.261770829890e-09 1.028230726124e-10 -3.744687277231e-08 2.531457961430e-07 -6.771748490947e-08 1.250000000000e-03 2.045307717181e-05 1.238559141650e-12 -1.007402408283e-11 -2.316923725321e-12
485 3 8.273506927491e-03 7.580877487079e-03 7.813448893189e-03 -9.759325211227e-10 1.199086976296e-09 -1.358360474895e-10 1.646780882346e-07 -1.906510226239e-07 3.745598226074e-08 1.250000000000e-03 2.045307717181e-05 2.935767888011e-12 -1.419792697458e-11 3.510713406284e-12
486 3 1.349979470293e-02 1.063922000616e-02 8.263852497849e-03 -8.036027101709e-10 1.291442737086e-09 -1.052274197119e-10 1.353597848796e-07 -1.989192250755e-07 -7.618706148213e-08 1.250000000000e-03 2.045307717181e-05 1.962290310259e-12 -1.041370502590e-11 1.028117735657e-12
487 3 1.102227692677e-02 9.696182421673e-03 1.223682927117e-02 -1.101288772397e-09 1.466356657483e-09 1.042847621754e-10 -3.566324159776e-09 2.091823891964e-07 5.663816087572e-08 1.250000000000e-03 2.045307717181e-05 -7.283766424724e-12 -3.369859897405e-12 -2.702478739372e-12
488 3 7.483560127980e-03 1.231537863862e-02 1.297040850771e-02 -5.876711204389e-10 2.108569645991e-09 -4.967290264870e-10 -7.453860561339e-07 -4.755140836370e-10 -1.443719988194e-06 1.250000000000e-03 2.045307717181e-05 -3.685379701933e-14 -9.271725115291e-12 -8.458329717365e-12
489 3 1.101518575621e-02 1.106243027559e-02 9.015874473467e-03 -1.198336156411e-09 1.084339550606e-09 -1.085496287220e-10 5.684422710136e-08 1.569663308661e-07 2.471374240530e-08 1.250000000000e-03 2.045307717181e-05 4.477637402490e-12 -1.402322649074e-11 7.173528941529e-12
490 3 1.062859638130e-02 7.427457327561e-03 8.262655356608e-03 -1.063566185116e-09 1.140795738286e-09 1.687560551693e-10 6.988065866961e-08 -1.268764601632e-07 -3.991359136067e-08 1.250000000000e-03 2.045307717181e-05 4.772768123067e-12 -9.862875722265e-12 -1.178516332053e-12
491 3 4.981752741260e-04 1.278973932765e-02 1.430721911084e-02 -3.179816584989e-10 9.618534267793e-10 -1.400451410449e-10 6.975934846961e-07 2.233496390594e-07 4.021295244143e-07 1.250000000000e-03 2.045307717181e-05 3.729776606328e-12 -8.637513351870e-12 -4.035918767896e-12
492 3 1.254610185183e-02 6.294271498019e-03 8.957384695287e-03 -9.512961969547e-10 1.326372919029e-09 2.203688905192e-10 -9.757610420097e-08 1.240462299102e-07 3.018527128045e-07 1.250000000000e-03 2.045307717181e-05 3.525226862427e-13 -9.185982012205e-12 -3.450111793025e-12
493 3 9.016996498158e-03 2.405634263264e-03 1.211494487158e-02 -1.313958431604e-09 1.487191895700e-09 -1.935161140093e-09 -1.004819753272e-06 4.567000504427e-08 -3.871203683304e-07 1.250000000000e-03 2.045307717181e-05 -3.481651269044e-13 -8.143067797183e-12 1.561600495650e-11
494 3 1.317689421471e-02 1.497567266629e-02 9.317214134696e-03 -9.932614372852e-10 1.421726892818e-09 -2.708385602566e-10 -4.029535618348e-07 -3.489002983561e-07 -7.766009696176e-08 1.250000000000e-03 2.045307717181e-05 9.376572924204e-12 -7.050670151833e-12 5.163694791045e-12
495 3 1.099764390311e-02 1.221123735659e-03 1.180174782222e-02 -1.390717264548e-09 1.035497570399e-09 -1.181692852659e-10 -8.980262129694e-07 -4.968111493967e-07 1.862511905847e-07 1.250000000000e-03 2.045307717181e-05 2.449683665242e-12 -8.608164556854e-12 2.652501662721e-12
496 3 4.113227767221e-04 1.022435471407e-02 8.091298041013e-03 -7.879624131672e-10 1.318782947497e-09 -1.395085677790e-10 -4.012409165051e-08 5.536701699245e-08 1.148309432798e-07 1.250000000000e-03 2.045307717181e-05 5.558352524368e-13 -9.646901228320e-12 3.222495500467e-13
497 3 1.464086969142e-02 9.708022975051e-03 1.213116390312e-02 -9.426157027869e-10 1.226198423621e-09 8.104514143724e-11 3.267172099202e-08 3.727361876274e-07 -2.946775222796e-07 1.250000000000e-03 2.045307717181e-05 6.123847427287e-12 -1.271753354503e-11 -2.375592553207e-12
498 3 1.018271865511e-02 9.299871385379e-03 6.934685275653e-03 -7.963793483358e-10 1.270216687189e-09 1.340359054185e-10 4.531392830551e-08 -2.570577447218e-07 3.365417611101e-08 1.250000000000e-03 2.045307717181e-05 3.284507300899e-12 -1.093790597679e-11 9.438389816844e-13
499 3 1.498290414230e-04 9.830173529298e-03 1.428003172695e-02 -3.824379999040e-10 6.118760036282e-10 -9.107082851597e-11 2.022336786685e-07 1.275830819887e-07 -1.237464869784e-07 1.250000000000e-03 2.045307717181e-05 1.870477555942e-12 -9.887960266167e-12 3.480139880897e-14
500 3 8.095797773364e-03 1.015785957554e-02 1.258470399405e-02 -1.658288713623e-09 1.001420955756e-09 6.638839389963e-10 -3.086204385685e-07 -1.294546237515e-07 4.010943465661e-07 1.250000000000e-03 2.045307717181e-05 7.865744277595e-12 -7.645159690290e-12 1.527248738182e-12
