ITEM: TIMESTEP
200000
ITEM: NUMBER OF ATOMS
500
ITEM: BOX BOUNDS pp pp ff
0.0000000000000000e+00 1.5370634520482899e-02
0.0000000000000000e+00 1.5370634520482899e-02
0.0000000000000000e+00 1.5370634520482899e-02
ITEM: ATOMS id type x y z vx vy vz omegax omegay omegaz radius mass fx fy fz
1 1 3.669442045312e-03 4.709309511253e-04 6.666650909204e-03 -1.455907372432e-11 8.170815835749e-11 3.022239790614e-11 -8.848318683020e-08 1.041762081024e-09 4.145233200349e-08 7.500000000000e-04 4.417864669111e-06 7.390586045760e-14 -7.933390987926e-14 6.645038519679e-14
2 1 5.781446925509e-03 4.670507678342e-03 6.295447240762e-03 -4.120884923016e-11 4.553262086617e-11 -1.131525589519e-11 -1.895973542331e-08 1.157934972243e-08 -2.692489918930e-09 7.500000000000e-04 4.417864669111e-06 9.918046147055e-15 -3.462172163678e-14 7.465122357800e-14
3 1 1.750995984186e-03 6.429057129795e-03 3.714201796352e-03 -1.683761773038e-11 2.819507569990e-11 8.661627509228e-12 4.320598742043e-08 2.801675852189e-08 4.498455582012e-08 7.500000000000e-04 4.417864669111e-06 9.313263190993e-15 -1.595646454942e-14 -9.035516987640e-15
4 1 5.572714627305e-03 4.454765791482e-03 6.859169510394e-04 -4.271228756346e-11 2.115686373626e-11 7.800904795359e-12 -2.756754939959e-08 -5.206078137239e-08 -1.268671574833e-08 7.500000000000e-04 4.417864669111e-06 5.882534010779e-14 -6.512696434400e-14 3.735431135927e-15
5 1 1.832063261562e-03 5.552201470669e-03 6.857307230101e-04 2.509576585787e-13 -8.771219370208e-12 1.119083886941e-11 9.550097849066e-09 6.115347896547e-09 -6.254470033648e-09 7.500000000000e-04 4.417864669111e-06 7.075346889297e-14 8.972126632914e-15 -1.088051744620e-13
6 1 5.762549210920e-03 6.860731041763e-03 2.428448533265e-03 -8.249273230353e-12 3.252879750583e-11 8.931029033750e-12 -2.801142572216e-09 1.682569044208e-08 2.250434636296e-08 7.500000000000e-04 4.417864669111e-06 7.897427863576e-16 -9.273151960346e-15 7.137592346434e-15
7 1 2.804795356185e-03 1.969791520454e-03 2.129699820230e-03 -3.582665541304e-11 2.385364724555e-11 -1.263209710517e-12 1.523197109278e-07 -5.307684024708e-08 -8.312327409131e-09 7.500000000000e-04 4.417864669111e-06 -1.040053085207e-14 -5.860870579123e-14 1.633484383427e-14
8 1 3.746282906013e-03 6.568277544622e-03 3.209019538304e-03 1.106707046684e-321 1.106707046684e-321 -1.106707046684e-321 -1.318176451983e+01 3.034971343926e+01 -1.081675735394e+01 7.500000000000e-04 4.417864669111e-06 -1.086944420851e-322 -1.086944420851e-322 1.086944420851e-322
9 1 4.777855762645e-03 4.996358344046e-03 1.751772871529e-03 -3.364691636026e-11 6.173888957620e-11 1.110501556031e-11 -1.715925284866e-09 5.148456739181e-08 -3.598445795833e-08 7.500000000000e-04 4.417864669111e-06 -1.312536768589e-13 -5.530105977737e-15 -3.157502521058e-14
10 1 5.440008733927e-03 2.545225649024e-03 3.059132616416e-03 -7.639522707997e-11 4.879423177416e-11 3.135649907849e-11 4.485458756154e-08 -1.956180024686e-07 1.001804754065e-07 7.500000000000e-04 4.417864669111e-06 -1.051662535989e-13 1.066153404904e-14 -4.082911145604e-14
11 1 5.522972882554e-03 5.478530478002e-03 2.872468437283e-03 -2.509257407768e-11 4.119927055281e-11 5.422642080908e-12 -1.239549731559e-08 -5.536609245399e-08 -3.844889703976e-08 7.500000000000e-04 4.417864669111e-06 -9.721863024485e-15 2.311677581381e-14 5.782721844425e-15
12 1 3.555398286863e-03 4.967062702895e-03 2.453449557460e-03 -3.384255046999e-11 1.084131595136e-11 8.309138020891e-12 9.530336355844e-08 -6.033388941595e-08 6.020258660142e-08 7.500000000000e-04 4.417864669111e-06 1.399657068705e-14 9.807227837293e-15 -1.346090578669e-13
13 1 2.284666406599e-03 7.789190123268e-04 7.290974378715e-04 1.970967147296e-11 5.661875366658e-11 -1.731166823172e-12 7.143121895984e-08 -3.385720748929e-08 1.344688529212e-08 7.500000000000e-04 4.417864669111e-06 -1.127263114817e-13 -1.104412420663e-13 4.198335167507e-14
14 1 2.750210567365e-03 3.693045975260e-03 3.450476358393e-03 -7.028946337973e-11 4.279579027301e-11 2.364177969449e-11 -5.465803121234e-08 1.454595629040e-07 6.152222842759e-09 7.500000000000e-04 4.417864669111e-06 -2.212106465811e-15 -9.630666130106e-14 1.037530657319e-13
15 1 6.227610188426e-03 8.938455872782e-03 4.219571350249e-03 -2.909655020472e-11 5.066806018898e-11 6.483811048289e-12 -9.959046530586e-09 -3.709276253620e-09 -4.175839462267e-09 7.500000000000e-04 4.417864669111e-06 2.999868676053e-14 2.373128795836e-14 -1.179203643144e-14
16 1 4.969165048639e-03 5.416913546479e-03 7.750625995110e-03 -4.989192107280e-11 2.945686991780e-11 -5.124244801163e-12 2.137196626648e-10 1.772845182430e-08 6.953579195627e-09 7.500000000000e-04 4.417864669111e-06 -5.020997584213e-14 3.243478903053e-14 1.495431056172e-13
17 1 4.164866821996e-03 7.339883400823e-03 7.816371210797e-04 -3.408141964055e-11 3.285862722227e-11 -2.076484117540e-12 5.249753746390e-08 4.854021061149e-08 -6.413972227042e-08 7.500000000000e-04 4.417864669111e-06 5.438665395897e-15 3.611374125632e-15 -4.786674320383e-14
18 1 3.837065956619e-03 2.787557216000e-03 2.959345414626e-03 -6.919472528600e-11 4.439056298134e-11 -5.738066594613e-11 1.334939041618e-08 -1.319285072783e-08 -5.835006225138e-08 7.500000000000e-04 4.417864669111e-06 1.243633906519e-13 3.995137036414e-14 3.383753617172e-15
19 1 8.240987910898e-04 1.865060906131e-03 3.456226887732e-03 -1.953957823908e-11 -5.020859360408e-12 -6.217111216427e-12 2.570294792736e-08 6.802120505138e-08 -8.704719199833e-09 7.500000000000e-04 4.417864669111e-06 9.680157322506e-14 -1.385913527360e-14 1.279793171757e-13
20 1 4.623016154059e-03 5.476434275571e-03 6.302450766921e-03 -5.375182082486e-11 2.819120636981e-11 -1.970816649562e-11 2.479523607232e-09 -1.492767963989e-08 2.924983184920e-08 7.500000000000e-04 4.417864669111e-06 -7.780932443236e-14 4.958497708177e-15 9.246266506437e-14
21 1 2.436759124045e-03 6.661035208261e-03 5.893037746183e-03 -2.201579087751e-11 2.820168761156e-11 2.161180146554e-11 -3.811800493777e-09 1.584923998770e-09 2.903420090803e-08 7.500000000000e-04 4.417864669111e-06 -7.292642210307e-14 -2.159519778504e-14 -1.056192449209e-13
22 1 5.657632229820e-03 3.053066341630e-03 4.371992416572e-03 -1.059607373144e-10 3.973886199236e-11 3.695189870464e-11 -1.754491775297e-08 1.907806384587e-07 -2.350843349047e-08 7.500000000000e-04 4.417864669111e-06 -9.671701906336e-14 9.935692044437e-15 -1.687819434572e-13
23 1 3.093811635788e-03 2.001064823321e-03 6.996107316365e-04 4.862242329888e-11 2.626238535370e-11 -1.339626739187e-12 -3.774184930268e-08 7.457028406578e-08 -6.136847603253e-08 7.500000000000e-04 4.417864669111e-06 -2.304743999036e-14 -3.950831652825e-14 7.247119781276e-15
24 1 1.678412927296e-03 4.949247914699e-03 1.986541564504e-03 -8.849171713147e-12 1.097903065646e-11 3.509501607447e-11 -4.678468433112e-08 -1.253032749541e-08 -9.206673125604e-09 7.500000000000e-04 4.417864669111e-06 1.594141977447e-13 -1.552627207824e-14 -6.484839337623e-14
25 1 4.730020140397e-03 5.998592202018e-03 7.089604535094e-04 -4.119855532530e-11 3.261847455544e-11 -5.788697339990e-12 -4.297719703069e-08 -5.485062498719e-08 5.406431141546e-08 7.500000000000e-04 4.417864669111e-06 3.421510454833e-14 -2.474292243752e-14 4.133780397174e-14
26 1 2.407080684616e-03 3.294712889147e-03 7.141526901209e-04 -3.271552045648e-11 -5.864106778343e-12 -7.868976702453e-12 1.934612298985e-09 -3.753937108345e-08 1.762986584232e-07 7.500000000000e-04 4.417864669111e-06 1.233010944412e-13 2.618896926344e-14 2.990427919490e-14
27 1 6.202471617462e-03 3.749949086631e-03 2.746724191362e-03 -5.556973894013e-11 5.534081613211e-11 5.599551603226e-11 -6.386664972593e-08 7.218855344105e-08 -9.474331954822e-08 7.500000000000e-04 4.417864669111e-06 -6.462012777111e-14 -1.297187406626e-14 6.879225165121e-14
28 1 4.584513547721e-03 1.110276969121e-03 5.666010017640e-03 -3.686465811588e-11 2.831572841180e-11 4.031565089729e-12 -1.277727721402e-08 -7.442485710847e-09 1.723737480586e-08 7.500000000000e-04 4.417864669111e-06 -1.738858055927e-14 -6.281881046487e-14 6.656298707430e-14
29 1 2.698305565358e-03 3.945465985333e-03 1.983236820000e-03 -1.409798755846e-11 6.187152824203e-12 -2.013628704673e-11 2.585068317659e-08 1.436107907935e-07 3.622409479189e-09 7.500000000000e-04 4.417864669111e-06 -3.356217971819e-15 -7.228835919513e-14 5.025753425914e-14
30 1 5.976424441892e-03 4.339711122465e-03 4.904763196686e-03 -4.005674780240e-11 3.686213678648e-11 -4.082451973906e-12 6.606673247218e-09 -7.627288548630e-09 2.255545422983e-09 7.500000000000e-04 4.417864669111e-06 5.618354366449e-14 7.181512993043e-15 -1.265025097714e-13
31 1 4.453105747602e-03 6.047759356294e-03 4.742118591161e-03 -2.537057826941e-11 2.586658439606e-11 -2.703524484798e-11 1.776730039792e-08 -7.999154457995e-09 3.181995628400e-08 7.500000000000e-04 4.417864669111e-06 7.859132212020e-14 -1.107787796475e-13 1.984918453929e-13
32 1 3.253066807983e-03 2.931174849282e-03 5.938217351969e-03 -6.903300539546e-09 -1.305758054908e-09 2.320811830246e-09 -1.463807451153e+03 -2.768790803143e+02 4.920859341739e+02 7.500000000000e-04 4.417864669111e-06 3.159700705044e-12 5.897218845690e-13 -1.035390230818e-12
33 1 4.042943436252e-03 4.224727737824e-03 6.886853261227e-03 -6.037268330533e-12 1.057952990370e-11 -1.939258790692e-11 -1.630413006746e-07 -3.250162335160e-07 2.048167421090e-07 7.500000000000e-04 4.417864669111e-06 1.862927679562e-13 -5.483143973299e-14 -4.113229232233e-14
34 1 5.630957525073e-03 6.497159620186e-03 3.898486003254e-03 -2.903267960676e-11 4.119875020621e-11 3.312830656586e-12 8.562864575116e-09 1.214000619548e-09 -9.170341003437e-09 7.500000000000e-04 4.417864669111e-06 3.172362896122e-14 4.047156897379e-15 -3.602446713974e-14
35 1 2.189295966420e-03 1.454848669086e-03 3.784739891723e-03 -2.453633168024e-11 1.933962203721e-11 -9.972269563990e-12 -5.794580461838e-08 -6.055896361883e-08 3.526441544503e-08 7.500000000000e-04 4.417864669111e-06 -7.804454392284e-15 5.109343831702e-14 -1.999075077819e-14
36 1 4.648249218090e-03 1.365762817418e-03 6.987956040221e-04 1.932727916920e-11 4.605292563235e-11 6.248805110992e-12 -5.316873056987e-08 2.928634140459e-08 -1.071370944713e-08 7.500000000000e-04 4.417864669111e-06 -2.896916929036e-14 -9.113774974563e-14 1.352834998061e-14
37 1 4.549737053785e-03 4.634049843587e-03 5.143725140700e-03 -5.851799750469e-11 2.042782475126e-11 -2.744172163071e-11 -1.056331573072e-08 -7.787674418041e-08 -1.692174283699e-07 7.500000000000e-04 4.417864669111e-06 -9.616720265264e-15 -9.474982567153e-14 -3.974652775980e-14
38 1 4.805840638869e-03 3.667195094671e-03 2.332137874453e-03 -3.588416727302e-11 5.839288256497e-11 1.374323243781e-11 6.470718647739e-09 -1.252294670560e-07 7.304778605989e-08 7.500000000000e-04 4.417864669111e-06 -8.089018616378e-14 -3.243598972931e-14 6.874760069693e-14
39 1 4.070411566866e-03 4.184491514438e-03 7.183926991373e-04 -8.969515823928e-12 7.060853597939e-11 -4.394283704366e-12 4.377662684709e-08 -5.334601344524e-08 8.657697827897e-08 7.500000000000e-04 4.417864669111e-06 -1.894202216358e-14 -6.519445629342e-14 -3.154412675522e-14
40 1 2.581104134205e-03 3.470242775676e-03 7.191034234712e-03 -3.283272326973e-11 5.344626202025e-11 -1.309823771768e-11 -1.921605736508e-08 -1.545303720769e-08 -1.014923171916e-08 7.500000000000e-04 4.417864669111e-06 2.567935982834e-14 -1.229705540957e-13 1.013637647738e-14
41 1 4.044443228132e-03 3.540331413366e-03 4.157285677380e-03 -2.321273700498e-11 1.076624413955e-11 -4.372406890417e-11 2.194345348401e-08 -1.108976654347e-08 -8.914096473551e-08 7.500000000000e-04 4.417864669111e-06 -9.591862297979e-15 -1.000210871674e-13 4.669510451375e-14
42 1 3.151730257910e-03 4.286726221350e-03 5.009698532008e-03 -5.653801674760e-11 2.206752926692e-11 -6.822952810832e-11 -9.351661652152e-08 3.671239877691e-09 1.523131767829e-07 7.500000000000e-04 4.417864669111e-06 -1.740264332331e-14 -2.029789144681e-14 2.007638413128e-13
43 1 9.913520707604e-04 3.743107403138e-03 7.326498811119e-04 -2.388730906371e-11 1.024400918979e-10 2.820375883313e-11 -4.686936636147e-08 1.059063585990e-07 -3.194716077451e-07 7.500000000000e-04 4.417864669111e-06 -4.316809432302e-14 -3.263971389440e-13 -1.817246985265e-14
44 1 2.548969124422e-03 5.279527668913e-03 5.941208742374e-03 5.894923350309e-12 1.882167895809e-11 -1.022803856158e-11 4.818286277633e-08 -4.792359843328e-08 8.132941204872e-09 7.500000000000e-04 4.417864669111e-06 -1.020578832559e-13 4.477048282255e-13 3.445027680890e-14
45 1 1.091191681914e-03 4.392395994325e-03 6.858987317596e-03 9.287890213535e-13 3.170707294019e-11 8.171369374816e-12 9.063300425687e-09 5.087225311144e-08 7.169653317477e-08 7.500000000000e-04 4.417864669111e-06 -1.481007845161e-13 -1.342180623075e-13 1.450887047004e-13
46 1 2.350102800080e-03 5.126645088807e-03 3.318740335873e-03 -4.040721559905e-11 1.951580750666e-11 -6.694053027288e-12 -5.840690608276e-08 4.673811977792e-08 -5.773342417381e-08 7.500000000000e-04 4.417864669111e-06 -5.797749198517e-15 1.292504716376e-14 3.576575320693e-14
47 1 4.983720734954e-03 2.361588701577e-03 1.680841723321e-03 5.053574972266e-11 7.495048765102e-11 -6.288717906569e-12 2.369967991220e-08 2.635198995152e-08 6.421224271890e-09 7.500000000000e-04 4.417864669111e-06 1.034508529186e-13 -8.553063377867e-14 -4.070104307203e-16
48 1 5.056612955603e-03 4.488708995817e-03 3.792423649226e-03 -2.385481687485e-11 2.183546354447e-11 -1.625385457168e-11 3.608452023343e-08 1.382233594364e-08 8.469458163162e-08 7.500000000000e-04 4.417864669111e-06 -1.479847750443e-14 -1.662292601571e-14 -1.281926591175e-14
49 1 4.590232079584e-03 2.072437150778e-03 4.536370211203e-03 -8.721454250045e-11 2.062312695961e-11 1.182212725055e-11 8.271502167406e-08 -1.750260927724e-07 5.100453896201e-08 7.500000000000e-04 4.417864669111e-06 7.215448418250e-14 2.602282241751e-16 1.602709129756e-13
50 1 3.732464815176e-03 5.102320047831e-03 3.872278144663e-03 -4.440949870641e-11 -6.448496357220e-12 1.617570052773e-11 -7.552276428650e-08 4.960769338094e-08 -2.907711037574e-08 7.500000000000e-04 4.417864669111e-06 -7.480922195027e-15 2.865745754279e-14 -1.694436120802e-14
51 1 4.652562230823e-03 3.195889313672e-03 5.467751095033e-03 -1.536517975720e-10 2.049091336798e-11 2.812207092444e-11 -6.066112781808e-08 1.471965418290e-07 2.444590899750e-08 7.500000000000e-04 4.417864669111e-06 3.341964814734e-13 1.895890560467e-13 -2.435342460877e-14
52 1 1.454146531278e-03 4.165318924016e-03 4.009862940905e-03 -5.663926911392e-11 6.224985088044e-11 5.074661481594e-11 -6.395095423657e-08 -5.968737430459e-08 3.273552777463e-08 7.500000000000e-04 4.417864669111e-06 2.733096887721e-14 1.375808044507e-13 -4.089182580018e-14
53 1 6.761954293191e-03 3.276245221555e-03 5.416743418502e-03 -4.118942439141e-11 3.809717192892e-11 4.533668171643e-12 -9.628631360570e-09 -2.042432515458e-08 5.992841600983e-10 7.500000000000e-04 4.417864669111e-06 -4.594118270106e-14 -5.573521614652e-14 -6.635448874022e-14
54 1 5.667887578488e-03 7.844111742958e-03 3.486404115480e-03 -2.386350109001e-11 3.932817182674e-11 9.769565516336e-12 -6.304947148253e-09 -1.252616679092e-08 4.269195941187e-09 7.500000000000e-04 4.417864669111e-06 -2.027071383783e-14 -4.498736995091e-14 -3.761259906770e-14
55 1 3.190552058263e-03 2.364710494571e-03 4.258496225511e-03 -6.112914937852e-11 5.469518481954e-11 -4.051487013948e-11 -1.338055528215e-08 3.800078121193e-08 1.106584253881e-08 7.500000000000e-04 4.417864669111e-06 2.659373488131e-14 2.455901236233e-14 1.665274580275e-13
56 1 3.708679717293e-03 3.031563179901e-03 1.536883413108e-03 2.062711692102e-11 3.920711315217e-11 -4.820130963885e-11 -2.464492324264e-08 -9.895813641525e-08 6.667868319394e-08 7.500000000000e-04 4.417864669111e-06 -9.709252216301e-15 -1.048067020937e-13 2.181292394063e-13
57 1 2.959124439517e-03 5.979862434721e-03 4.720503902438e-03 -1.150773374555e-11 3.703262301415e-11 1.199143321544e-11 -1.293162773179e-08 3.624907971570e-08 3.340674284615e-08 7.500000000000e-04 4.417864669111e-06 -2.511199914703e-14 5.084295777022e-14 -4.569380354962e-14
58 1 2.074755161318e-03 3.951699230636e-03 5.900284684412e-03 -2.502940312789e-11 2.927058346111e-11 -2.665913553789e-11 -3.641689439267e-08 2.326683219079e-08 -5.011270651187e-08 7.500000000000e-04 4.417864669111e-06 2.097319253374e-14 4.143875297856e-14 1.423379836205e-13
59 1 1.070844091140e-03 3.406100142838e-03 7.879224740712e-03 -6.129197512882e-11 2.794705752047e-11 2.168254699730e-11 -1.704181420142e-08 -1.499582354951e-07 -8.636337659526e-08 7.500000000000e-04 4.417864669111e-06 -6.151900437369e-13 -2.464134981756e-13 3.895685350264e-14
60 1 2.608806470819e-03 5.815590912422e-03 1.136145669901e-02 -7.736814764457e-11 6.285830772628e-11 -4.107950233194e-12 -7.027855276276e-08 -3.929706929311e-08 -3.685563188868e-08 7.500000000000e-04 4.417864669111e-06 7.414000039865e-14 -1.354741112879e-13 -1.289542370287e-13
61 1 3.859552916982e-03 2.575916147540e-03 1.369506302409e-02 -6.352583831602e-11 2.414672491789e-10 8.516563732988e-11 -2.896844323610e-07 9.273036683304e-09 3.845110487139e-07 7.500000000000e-04 4.417864669111e-06 7.423643670666e-13 -4.576275863638e-13 7.439941508518e-14
62 1 2.497110057578e-03 4.571531005591e-03 9.726318796558e-03 -6.314908060264e-11 6.804626280207e-11 3.720934586379e-12 -1.579896031041e-08 -1.890154249183e-09 4.278335785393e-08 7.500000000000e-04 4.417864669111e-06 -2.370285099918e-13 2.527488848066e-13 -1.588556653503e-13
63 1 6.545317485348e-03 1.185595376436e-03 1.038442208678e-02 -8.303389811877e-11 8.246943076691e-11 3.033952569514e-11 5.476434596227e-08 9.500688369734e-08 6.729782415523e-08 7.500000000000e-04 4.417864669111e-06 -3.362386760101e-13 -3.032744656962e-14 -2.141085645868e-14
64 1 2.812553714407e-03 4.361018821565e-03 1.139744034626e-02 -9.849679013898e-11 6.575924933751e-11 2.819985310783e-11 4.901409393718e-08 -6.200366328173e-08 3.373952409188e-08 7.500000000000e-04 4.417864669111e-06 -1.646618856275e-14 -2.681892529685e-13 -4.289808181689e-13
65 1 1.259301222101e-03 5.948234402244e-03 1.219839636024e-02 -9.363990113710e-11 7.151263645760e-11 -2.949802829773e-11 -4.828282525313e-08 3.485771649089e-08 4.261173198709e-08 7.500000000000e-04 4.417864669111e-06 2.160749509850e-13 5.235654926378e-14 -1.762033804955e-14
66 1 5.193925073201e-03 2.412091135536e-03 8.486004724065e-03 -4.150120730604e-11 5.516091724544e-11 1.173756989742e-11 1.301217748462e-08 -2.455869293271e-09 -1.175143933542e-08 7.500000000000e-04 4.417864669111e-06 -1.391801419487e-13 -3.088273098200e-14 2.178046405963e-14
67 1 4.714550699326e-03 2.199075081451e-03 1.472842809259e-02 -6.796499465629e-11 1.328314394216e-10 5.641262705065e-11 2.098715522878e-07 6.698551022851e-08 -7.155681262089e-07 7.500000000000e-04 4.417864669111e-06 3.420484617381e-13 -9.303633802344e-14 6.031313660965e-14
68 1 2.952148666197e-03 2.207013349509e-03 9.591014480813e-03 -6.581795749576e-11 5.249667493664e-11 -4.190706946615e-12 -1.576058906215e-09 7.295000883800e-09 -9.165774239315e-09 7.500000000000e-04 4.417864669111e-06 9.992930282175e-14 2.706175305274e-14 7.345800855997e-14
69 1 3.627842621371e-03 5.627554032544e-03 1.462063653458e-02 -1.939776469865e-07 2.339268507906e-08 -1.036992461002e-07 -3.272940486294e-05 -2.714324083686e-04 -1.011990542594e-06 7.500000000000e-04 4.417864669111e-06 6.615011481810e-11 -7.962375231845e-12 3.533936287234e-11
70 1 1.738109247426e-03 3.209702398623e-03 1.469560382750e-02 2.935612296722e-11 1.464580571435e-11 3.894445219638e-11 5.934602709459e-08 -6.116850227713e-08 -2.278417942471e-07 7.500000000000e-04 4.417864669111e-06 2.107649846144e-13 4.081098308335e-13 4.561750706585e-14
71 1 5.425959288855e-03 2.023067136419e-03 1.194053011493e-02 -1.062297088644e-10 1.353703795566e-10 5.637140488786e-11 4.079499729714e-08 -6.739098901688e-08 9.641869376015e-09 7.500000000000e-04 4.417864669111e-06 -2.034598063853e-15 -1.530351719134e-13 1.759827688734e-14
72 1 5.381232126394e-03 5.726771528415e-03 1.054218957054e-02 -1.084169422117e-10 3.742852559679e-11 -3.023249993949e-11 2.907731185701e-08 -2.177950759391e-07 -1.765620302575e-08 7.500000000000e-04 4.417864669111e-06 1.942068309385e-13 -1.137354253685e-13 7.497265525345e-14
73 1 6.228561373793e-03 4.928058791961e-03 1.133768030628e-02 -1.381277878193e-10 5.410610913870e-11 4.770497343641e-11 -4.359338434372e-08 1.302252936196e-07 5.652941527247e-08 7.500000000000e-04 4.417864669111e-06 1.668501462235e-13 -1.749731433108e-13 -1.188632061904e-14
74 1 3.872529973972e-03 3.088156951048e-03 7.848074353614e-03 -4.992740665131e-11 5.888521405946e-11 2.420514507006e-11 2.752285521815e-08 -3.293830519990e-08 1.361500247235e-08 7.500000000000e-04 4.417864669111e-06 2.197454850465e-13 -1.648622184609e-13 9.483321858413e-14
75 1 1.950775529492e-03 6.154764155518e-03 8.837122730956e-03 -6.569544873827e-11 5.203973584360e-11 4.359552809362e-12 -4.028846964125e-08 2.657869377414e-08 6.229727201354e-09 7.500000000000e-04 4.417864669111e-06 1.229245475400e-13 -4.069596941555e-14 -1.523049791879e-13
76 1 3.959758835392e-03 1.934665767859e-03 6.818954151307e-03 -4.736948098722e-10 5.805368683312e-09 3.057186225382e-09 2.704772015924e+03 -1.489900346950e+03 1.811751562129e+03 7.500000000000e-04 4.417864669111e-06 2.014417813530e-13 -2.468771040286e-12 -1.300088408294e-12
77 1 5.204606905966e-03 4.767699531216e-03 1.276168789766e-02 -8.165270550699e-10 2.513327508679e-11 4.307156064929e-10 7.307546422885e-07 -1.329090531635e-06 6.382623215585e-07 7.500000000000e-04 4.417864669111e-06 1.441209982046e-13 1.025665078237e-12 -3.561473514727e-13
78 1 1.272521683792e-03 6.042887258008e-03 1.364572666795e-02 -7.797039315460e-11 2.800035166446e-11 -2.168693047486e-11 -1.464419755748e-08 1.191296059699e-07 1.473272230531e-07 7.500000000000e-04 4.417864669111e-06 3.956338529267e-13 -2.366217153771e-13 -6.555713596773e-14
79 1 5.639268100452e-03 4.301888847221e-03 1.023565913444e-02 -1.070342914885e-10 4.987109718830e-11 1.333399477505e-11 3.353748091706e-08 -1.351838123324e-07 4.314846034910e-08 7.500000000000e-04 4.417864669111e-06 -2.494857092036e-13 -1.478733010968e-14 1.984914554105e-13
80 1 2.640217125674e-03 3.351455168955e-03 1.247151480170e-02 -1.298652180497e-10 9.633938626167e-11 1.467202564941e-11 -9.109108775976e-08 -3.065471126077e-08 -6.772182119879e-09 7.500000000000e-04 4.417864669111e-06 -4.909344832813e-13 -1.133111030240e-12 2.231730613158e-13
81 1 3.506831170981e-03 7.294532935066e-03 1.151674743023e-02 -7.969320387098e-11 8.883451737824e-11 -2.961952218391e-11 -5.458345872600e-08 3.181690441131e-08 2.532485668202e-08 7.500000000000e-04 4.417864669111e-06 1.169498987679e-13 1.687450761166e-13 8.355509017793e-14
82 1 4.564915660245e-03 6.918281570239e-03 8.162021094638e-03 -7.155835099960e-11 6.466048629260e-11 -4.060882313343e-12 1.210378691342e-09 -4.094710151469e-08 -3.369537737736e-08 7.500000000000e-04 4.417864669111e-06 -1.684050309552e-14 5.039925149187e-15 1.357508906658e-13
83 1 6.439928328199e-03 6.735199161051e-03 1.044164725337e-02 -7.591270584176e-11 4.550457556669e-11 2.828855555402e-11 -2.944585391210e-08 3.133002130990e-08 3.854659263469e-10 7.500000000000e-04 4.417864669111e-06 6.150596418162e-15 -2.196306458291e-14 8.981877311908e-14
84 1 9.349314727316e-04 2.871763405392e-03 1.302334543086e-02 1.367371506533e-11 6.890445590963e-11 -2.305922519685e-11 -1.677231134110e-08 5.597624185073e-08 7.805039086686e-10 7.500000000000e-04 4.417864669111e-06 6.086488642699e-13 5.884883451924e-13 -2.567202500190e-13
85 1 4.814824944328e-03 5.919636409951e-03 9.197234959361e-03 -4.912542780117e-11 6.216546283499e-11 -3.326930266776e-11 2.368675858619e-08 9.954998179368e-08 5.261825658487e-08 7.500000000000e-04 4.417864669111e-06 2.358562328923e-13 -5.124609538470e-13 3.305481530382e-13
86 1 4.978507593846e-03 5.464680032419e-03 1.398883872204e-02 -7.450873834986e-10 -4.149416711071e-10 1.196341178900e-09 -9.913536424440e-08 2.773759613692e-06 4.815878907293e-07 7.500000000000e-04 4.417864669111e-06 9.855403559858e-13 3.150865271107e-12 4.394954388662e-13
87 1 1.588259984076e-04 4.019231014025e-03 1.310612864148e-02 -4.051201689046e-11 4.349279501096e-11 -4.379452407878e-12 -2.014219189778e-09 -1.212976880604e-08 8.172271837750e-08 7.500000000000e-04 4.417864669111e-06 2.858473153927e-13 -2.275364478244e-13 8.619965809440e-14
88 1 2.637141023360e-03 3.433435470102e-03 8.827584929091e-03 -6.906429121654e-11 6.179922893760e-11 8.091708082059e-12 1.070579036378e-08 -6.479869282212e-09 1.084097770161e-08 7.500000000000e-04 4.417864669111e-06 6.611307716838e-14 -1.413529852202e-14 2.422174304980e-13
89 1 2.082099445472e-03 3.251749754541e-03 1.017653998332e-02 -5.236143052636e-11 7.067744566143e-11 1.301476470072e-11 -1.297268719678e-09 2.343759415180e-08 -3.483813637716e-08 7.500000000000e-04 4.417864669111e-06 -8.110676727713e-14 7.568495671983e-14 -1.292537360223e-14
90 1 3.942213970173e-03 1.697230255090e-03 8.351739801710e-03 -4.996660227377e-11 5.899069763130e-11 4.760926903679e-12 1.717582089782e-09 2.693838726684e-09 -1.725372407134e-09 7.500000000000e-04 4.417864669111e-06 1.366907859711e-13 1.951363171243e-13 4.804132056030e-14
91 1 1.490270474475e-03 3.776525736369e-03 1.171249144868e-02 -9.290952172052e-11 5.546837524424e-11 -7.475624566804e-12 -1.907686287042e-08 1.052976911506e-08 -1.123250623798e-08 7.500000000000e-04 4.417864669111e-06 -6.402996485700e-15 -4.932473548055e-13 -1.769808528268e-13
92 1 1.638262394913e-03 4.853132076763e-03 1.085088325072e-02 -7.846133684293e-11 5.341011940333e-11 -1.785330867966e-12 1.231953168980e-08 -1.508204052706e-08 -1.150766239577e-10 7.500000000000e-04 4.417864669111e-06 -9.047761780905e-15 3.690342641989e-13 -4.245017348276e-13
93 1 1.823441866227e-03 4.291898446222e-03 1.324726080308e-02 -4.646111102136e-11 7.004059516871e-11 3.577103367724e-11 3.810713884034e-07 -1.666741816088e-07 -2.533880408013e-07 7.500000000000e-04 4.417864669111e-06 -7.694944787698e-13 2.879264182959e-13 -3.988408944558e-13
94 1 5.783353273136e-03 3.705905521381e-03 1.203088850468e-02 -1.109689875820e-10 1.783356613335e-10 1.866977912076e-10 7.247886861760e-08 -5.318188190741e-08 -1.884722434907e-07 7.500000000000e-04 4.417864669111e-06 -1.484421733634e-13 1.278871501999e-13 6.738535046315e-14
95 1 2.965576281139e-03 3.893890777868e-03 1.435854260514e-02 -1.860037357031e-10 2.980273735775e-10 6.499948255237e-11 -4.501241391123e-07 -9.759771812300e-08 8.395707136794e-07 7.500000000000e-04 4.417864669111e-06 3.041007451925e-13 -2.983041543158e-13 -7.895087261261e-14
96 1 5.094186021885e-03 1.313541679030e-03 7.578743984129e-03 -5.035011370713e-11 4.981603373512e-11 6.202273924106e-12 -1.767466253378e-08 2.573643905146e-09 -2.892341800584e-09 7.500000000000e-04 4.417864669111e-06 -2.156937880272e-13 2.639488060416e-14 8.817175769672e-15
97 1 3.171038161205e-03 5.872199234087e-03 9.989652474730e-03 -3.899222838396e-11 2.793891847319e-11 1.144172067164e-11 4.872362148629e-08 -3.470554035775e-09 -9.143143732184e-08 7.500000000000e-04 4.417864669111e-06 2.522706065839e-13 1.935110141481e-13 6.157236438738e-14
98 1 3.449049844711e-03 6.122021257402e-03 8.555440897031e-03 -6.159727822460e-11 5.420699215289e-11 -4.426309194713e-13 5.039980878231e-09 4.041393694670e-08 3.813832454400e-08 7.500000000000e-04 4.417864669111e-06 1.340459741439e-13 -9.439587860555e-14 1.456508287991e-13
99 1 3.735808763307e-03 6.467518063062e-03 6.715893800333e-03 -5.635906509970e-11 2.819058310282e-11 -2.686246341044e-13 1.713264748744e-08 2.619575468268e-08 -2.968925225229e-08 7.500000000000e-04 4.417864669111e-06 6.089289167228e-14 7.535265613611e-14 -2.098012709295e-14
100 1 4.364097601886e-03 4.277500946993e-03 1.464998791809e-02 -5.535916265371e-11 9.983698240798e-11 3.508261978704e-10 5.827724892441e-07 -1.464762069895e-07 -1.082581251123e-06 7.500000000000e-04 4.417864669111e-06 8.032335937843e-14 1.325863122292e-13 1.866182760813e-13
101 2 1.834507311858e-03 2.180471373356e-03 1.147434328716e-02 -5.839386255972e-11 6.678185391482e-11 5.209578830439e-12 1.297265762479e-08 -3.266040276711e-08 3.644020400690e-08 1.000000000000e-03 1.047197551197e-05 -7.487260190202e-13 -6.696039174610e-13 1.347019327166e-13
102 2 5.625620447361e-03 3.985886087796e-03 8.659388838223e-03 -5.148951322442e-11 5.854562100407e-11 4.339551184953e-12 -1.045746706784e-08 3.966629475973e-08 2.309701299675e-08 1.000000000000e-03 1.047197551197e-05 -2.981986173749e-13 -7.802036219371e-15 -2.552844560554e-14
103 2 4.409428248998e-03 4.671881477161e-03 1.125465677725e-02 -1.266959960105e-10 9.523969954775e-11 -3.035706426731e-11 -1.515619688174e-07 8.827571525513e-08 1.420361345799e-08 1.000000000000e-03 1.047197551197e-05 -8.968395025373e-13 -5.639487614048e-13 1.259503583742e-14
104 2 3.508815910131e-03 4.790137190442e-03 1.301786868736e-02 -6.471180948857e-10 6.906770292996e-11 -2.038389289184e-10 6.916838526179e-08 4.507093515579e-07 -5.338296638172e-07 1.000000000000e-03 1.047197551197e-05 4.434343208335e-13 3.521069348441e-13 1.918705682337e-13
105 2 2.525363830804e-03 5.084353651092e-03 7.597503432092e-03 -5.448586242152e-11 5.421638008256e-11 1.073950359413e-12 2.667722380796e-08 -2.244684018341e-09 2.647652524897e-08 1.000000000000e-03 1.047197551197e-05 3.409630517175e-13 1.567717738382e-13 -1.302512331361e-13
106 2 4.254121513681e-03 3.101144119364e-03 1.219449234342e-02 -1.276493144610e-10 1.489315255287e-10 5.672327775009e-11 5.120805801098e-08 -4.418832772999e-08 2.888000702002e-08 1.000000000000e-03 1.047197551197e-05 -1.386295840066e-12 -1.420398217189e-12 1.272555288692e-12
107 2 6.047916736582e-03 2.772995761778e-03 1.064561743069e-02 -9.660113418726e-11 9.676691840271e-11 6.835744688545e-11 -5.632854104887e-08 1.347332396872e-08 -1.177427789476e-08 1.000000000000e-03 1.047197551197e-05 -3.813575858335e-13 -4.888445193470e-14 -1.119384889513e-13
108 2 2.275241908179e-03 2.121951147484e-03 1.355122077806e-02 -1.108405227741e-11 5.430555976811e-12 2.572821922532e-11 2.491701253209e-08 -1.025035978637e-07 -6.135222666576e-08 1.000000000000e-03 1.047197551197e-05 8.253648768960e-13 1.862911311407e-12 -2.258676259766e-12
109 2 4.567024107243e-03 6.267443160703e-03 1.224962795207e-02 -1.760128248322e-10 3.901893751307e-11 -5.645710223501e-11 1.965762483799e-07 -1.672858641438e-07 -5.743345254574e-08 1.000000000000e-03 1.047197551197e-05 4.686989527958e-13 -7.525766212737e-13 -4.533629369905e-14
110 2 3.881127036250e-03 4.552553031729e-03 8.773226864665e-03 -5.707698383903e-11 5.850598308233e-11 1.719749229214e-11 -3.092667296174e-08 -1.414758950860e-08 -2.259086784210e-08 1.000000000000e-03 1.047197551197e-05 6.396847919505e-14 -9.262606469361e-14 1.391190074800e-13
111 2 5.455494276051e-03 3.111695198572e-03 6.969435425940e-03 -6.730602363409e-11 5.228804613010e-11 -5.786964785709e-12 7.874757956339e-09 -1.937615445590e-08 -1.703548047961e-08 1.000000000000e-03 1.047197551197e-05 -5.750183612958e-14 3.280638808664e-13 -2.646596176477e-13
112 2 4.263603387253e-03 3.175510481974e-03 1.003358157702e-02 -8.941234000626e-11 5.539785400832e-11 3.613688639751e-11 4.430973721929e-08 -4.394021258711e-08 4.106604905943e-08 1.000000000000e-03 1.047197551197e-05 -3.275774433630e-14 -3.653014535200e-13 1.121048385211e-13
113 2 2.393337731013e-03 2.023516418656e-03 7.973184332425e-03 -4.917841764574e-11 5.671101079924e-11 -7.270687061438e-12 3.374978248371e-09 -1.659711358878e-08 5.702951041660e-09 1.000000000000e-03 1.047197551197e-05 -1.676949365898e-13 1.730144603743e-13 1.116490890422e-12
114 2 4.769832746190e-03 7.188390160838e-03 1.037262904884e-02 -6.952565201927e-11 5.432323029679e-11 -2.892940458339e-11 3.640783085348e-08 -2.063864372647e-08 -1.568431108022e-08 1.000000000000e-03 1.047197551197e-05 -1.532015259131e-14 7.480036385461e-13 4.059844805902e-13
115 2 2.591321550621e-03 1.439063397419e-02 5.807115838086e-03 -3.578029493961e-11 3.103713056649e-11 -5.406581154138e-13 -1.178938850133e-08 8.085928381078e-10 -3.576626448638e-10 1.000000000000e-03 1.047197551197e-05 -3.970108287773e-15 1.274371508219e-14 -9.346105486204e-14
116 2 3.289027370459e-03 1.309532714035e-02 3.972428963033e-03 -3.065513733443e-11 2.168345099250e-11 -1.503159582881e-12 -8.380163378029e-09 4.217831417654e-10 -1.064194506971e-08 1.000000000000e-03 1.047197551197e-05 2.151660750334e-13 -1.969377471100e-14 2.531422988524e-13
117 2 5.010163339024e-03 1.135934473343e-02 7.140110105056e-03 -4.394216746052e-11 5.030183166696e-11 6.500799789817e-12 -4.055775550921e-09 -4.967988768066e-09 -4.950524735996e-09 1.000000000000e-03 1.047197551197e-05 1.606456692602e-13 -3.072547597157e-13 3.873937887762e-14
118 2 2.283038609734e-03 8.033885494698e-03 8.572055621376e-04 -9.826870413482e-12 6.613656858287e-12 4.095245590916e-12 -5.876097947786e-09 -8.423850955406e-09 1.180537924683e-08 1.000000000000e-03 1.047197551197e-05 -8.034496179045e-14 -2.168173875177e-13 4.593278819136e-14
119 2 3.350473992758e-03 1.054675969279e-02 2.249639741436e-03 -2.027241559855e-11 2.168292440505e-11 -3.103343714323e-12 -1.320853877752e-08 -1.040602519670e-08 9.809384557480e-09 1.000000000000e-03 1.047197551197e-05 1.967827282138e-13 4.422999507791e-14 1.573571257473e-13
120 2 5.425346955947e-03 5.871882858576e-04 4.296817299020e-03 -4.017274503628e-11 3.965248836720e-11 2.168582998408e-12 1.576889539001e-08 1.098433217978e-08 -3.088028873310e-10 1.000000000000e-03 1.047197551197e-05 -1.472745346460e-13 -1.941349768527e-13 8.381537077690e-16
121 2 2.946476120563e-03 1.278276980427e-02 6.872388028766e-03 -3.964109066303e-11 4.511340039362e-11 9.358210214039e-12 -7.231424862659e-10 1.118457695417e-09 7.783672596361e-10 1.000000000000e-03 1.047197551197e-05 -1.781088309496e-13 -2.822982687688e-13 -2.382733847489e-13
122 2 4.329091736548e-03 1.161581027160e-02 9.394387196434e-04 -1.395045275346e-11 1.299371413061e-11 -3.941114639923e-12 -1.194287655858e-08 -1.379109717243e-08 4.263393228898e-09 1.000000000000e-03 1.047197551197e-05 4.626562535902e-14 -4.319530917985e-14 1.501167718349e-13
123 2 6.201055774274e-03 1.422288358653e-02 4.889080499611e-03 -3.084237662370e-11 3.036450193138e-11 -2.090110862466e-12 -1.275244027783e-08 -5.796574136505e-09 2.437950143970e-09 1.000000000000e-03 1.047197551197e-05 2.572448697664e-13 -9.167115982905e-14 -1.904069386415e-13
124 2 4.303011212739e-03 1.447718613936e-02 4.814472270526e-03 -2.961985616669e-11 2.344682777203e-11 -3.422185059594e-12 5.596728744779e-09 1.810375619524e-09 7.382050903316e-09 1.000000000000e-03 1.047197551197e-05 -9.807698484841e-14 -1.175210807166e-13 2.498645087356e-13
125 2 6.040066235542e-03 1.448728285358e-02 2.961665499222e-03 -4.120114025499e-11 3.685530336588e-11 -6.314564031151e-12 1.993256646730e-08 1.507120140442e-08 8.132120100031e-09 1.000000000000e-03 1.047197551197e-05 2.747156364641e-14 -2.331901283959e-13 -9.018187253000e-14
126 2 1.763097883196e-03 9.387569111833e-03 1.998616597904e-03 -2.059493325127e-11 1.672953914587e-11 -2.651304810250e-12 -7.823574646539e-09 -4.026157222427e-09 -6.702954242649e-09 1.000000000000e-03 1.047197551197e-05 -1.958897657416e-13 -1.369801441183e-13 -2.851463000332e-13
127 2 3.569858322703e-03 9.420639064978e-03 5.006383628945e-03 -2.927843816295e-11 3.426386085237e-11 1.084379406141e-11 -3.373751804091e-09 -8.091577456418e-09 3.448055830063e-09 1.000000000000e-03 1.047197551197e-05 5.077709210565e-14 -2.120488314559e-13 6.420847010572e-15
128 2 7.519306635699e-03 1.194722972285e-02 2.568735331188e-03 -2.385133840448e-11 2.533701777735e-11 9.718688544961e-12 -9.471922534712e-09 2.200560308113e-09 -4.358072872970e-09 1.000000000000e-03 1.047197551197e-05 5.608595923998e-15 -7.425398525210e-14 -6.179478415614e-14
129 2 2.161577432761e-03 9.301343513204e-03 7.205739814508e-03 -4.108724503767e-11 4.253089028908e-11 6.857136374941e-12 -3.789359476853e-09 -6.863748013022e-09 4.944856483686e-11 1.000000000000e-03 1.047197551197e-05 1.578725415015e-13 -1.072682744722e-13 1.332863890198e-13
130 2 5.902573407938e-03 2.136785509890e-04 8.360780670361e-04 1.523181064310e-12 1.943517569586e-11 6.045929843222e-12 -1.521677801755e-08 1.212439336233e-08 -2.405936330716e-08 1.000000000000e-03 1.047197551197e-05 -5.906025960478e-14 1.396439749649e-13 2.959466817005e-14
131 2 1.728124741215e-03 6.363703748746e-04 2.356526805944e-03 2.576806599294e-12 3.298061439816e-12 -1.147391100979e-11 1.655790047683e-08 1.363010903413e-08 -3.361148327304e-08 1.000000000000e-03 1.047197551197e-05 2.488604546001e-15 -1.502044709990e-13 6.915302458560e-14
132 2 1.676369456823e-03 9.291460946596e-03 5.350613703161e-03 -3.280983373548e-11 3.392560122234e-11 6.511710128742e-12 -7.001059035455e-10 1.725172466651e-09 -1.065649393550e-09 1.000000000000e-03 1.047197551197e-05 -1.225917638905e-13 -1.238487376630e-13 -4.919087798213e-14
133 2 2.591257718101e-03 7.799168631931e-03 2.744085928426e-03 -2.441585265081e-11 1.629799727127e-11 7.622885890856e-12 -4.920321021879e-09 -1.977271352272e-09 -2.112285019283e-08 1.000000000000e-03 1.047197551197e-05 2.297941076165e-14 -1.724080668247e-13 -2.201289703375e-14
134 2 5.768029850925e-03 9.661736695476e-03 7.162837617084e-03 -4.516511819480e-11 4.770388590865e-11 1.140029200075e-11 6.699194348970e-09 -1.385134893084e-08 1.915349385048e-09 1.000000000000e-03 1.047197551197e-05 1.244079236377e-13 1.651996997066e-13 5.949174948430e-14
135 2 7.207944137260e-03 1.034831475631e-02 8.610135078686e-04 -1.517802953824e-11 1.041036843085e-11 -3.805478092931e-13 -7.443679183426e-09 -1.230066962964e-08 -1.015918454022e-08 1.000000000000e-03 1.047197551197e-05 -5.567130057859e-15 -5.632280455892e-14 2.764508360809e-14
136 2 1.416375881092e-03 1.297336398024e-02 4.390200515230e-03 -3.075966112194e-11 3.216665629165e-11 -2.138156973935e-12 4.046343077222e-09 -2.163517908922e-09 -4.981175810677e-10 1.000000000000e-03 1.047197551197e-05 3.407262352339e-13 -4.953158537927e-13 3.850661955484e-14
137 2 3.052711544995e-03 6.322049477073e-03 1.568151803155e-03 -1.602209744548e-11 1.522539943038e-11 4.213991551662e-12 2.745711849580e-09 7.688616905498e-09 4.299942919775e-08 1.000000000000e-03 1.047197551197e-05 -6.794976084965e-14 -6.187859924858e-14 -4.153009336510e-13
138 2 2.126890650023e-03 1.166533096441e-02 3.234229769949e-03 -3.079448543611e-11 3.035739626741e-11 -1.043721098996e-11 -7.329529469707e-09 1.608274781094e-08 7.244296421812e-09 1.000000000000e-03 1.047197551197e-05 1.539358270058e-13 -2.758893143253e-14 4.545156811219e-13
139 2 6.142516532779e-03 1.266450742333e-02 3.770026634763e-03 -2.924004250019e-11 3.033322845468e-11 3.232791313506e-12 9.354140026744e-09 -5.625506935592e-09 -1.067375078475e-08 1.000000000000e-03 1.047197551197e-05 2.382067071480e-13 -4.154391856914e-14 3.340497581849e-14
140 2 3.197123439520e-03 7.051910420914e-04 5.015350536105e-03 -2.782448110778e-11 2.004119322440e-11 -2.168171494485e-12 7.536004093139e-10 -4.003223519712e-09 -1.003355885032e-08 1.000000000000e-03 1.047197551197e-05 2.929139123601e-13 2.618183331552e-13 -5.482491050393e-15
141 2 1.527853479127e-02 7.610555641341e-03 9.555117522994e-04 -1.029521132453e-11 4.280853437184e-12 -8.908385408004e-13 4.873541225269e-10 -8.540683236403e-09 -9.342913781962e-09 1.000000000000e-03 1.047197551197e-05 1.337665434360e-13 1.407920721939e-13 -1.328100193152e-13
142 2 3.801795747684e-03 1.146153960864e-03 3.237683396569e-03 -1.638440983269e-11 4.303889882292e-11 -5.561472912581e-12 -6.620643154874e-08 2.303846863572e-08 9.202924172473e-08 1.000000000000e-03 1.047197551197e-05 -3.043369602280e-14 -4.448324877350e-13 -1.541023751182e-14
143 2 9.340310458813e-04 6.032457363270e-03 7.133755796332e-03 -6.503504763933e-11 3.454609863654e-11 -4.073508749970e-13 1.976051803197e-09 -1.715162684782e-08 1.809305421712e-09 1.000000000000e-03 1.047197551197e-05 -3.441313005215e-13 -5.529038392557e-13 -8.036908571488e-13
144 2 2.588864996871e-03 7.667114543286e-03 4.602230138416e-03 -3.347828333814e-11 2.827925290535e-11 1.084700689699e-11 -6.235548058952e-09 -4.656125937033e-09 3.383576648957e-10 1.000000000000e-03 1.047197551197e-05 -1.562402414950e-13 4.368839521075e-15 -3.335133355660e-14
145 2 5.850059234682e-04 1.245606760398e-02 2.515834030049e-03 -4.294682875686e-11 3.035295788419e-11 1.010626951393e-11 2.944105478585e-09 1.214825836630e-08 -1.010426736053e-08 1.000000000000e-03 1.047197551197e-05 1.045790017363e-13 -2.133820880673e-14 1.719247458712e-13
146 2 2.517210725985e-03 7.156175386437e-03 7.610963730873e-03 -6.400830541434e-11 3.583061634704e-11 -2.363375147976e-12 1.685019001402e-09 -3.618390857918e-08 5.383646305029e-09 1.000000000000e-03 1.047197551197e-05 1.820901522831e-13 -2.642467284745e-13 -9.771087802504e-14
147 2 2.643535437560e-04 9.499749343790e-03 7.625311409386e-04 -7.448981493199e-12 4.338453471516e-12 2.798840047203e-12 -4.177373262984e-09 -2.449601610192e-09 8.042358297212e-09 1.000000000000e-03 1.047197551197e-05 1.918572263048e-13 1.087295759704e-15 8.346066800423e-14
148 2 5.535562386292e-03 8.332981173880e-03 9.117941243774e-04 -1.353813886845e-11 4.335404442554e-12 1.553274366130e-12 3.979444769267e-09 -8.909245558870e-09 1.970616633043e-08 1.000000000000e-03 1.047197551197e-05 1.125949210291e-13 -4.242162677387e-14 -1.389829517004e-14
149 2 4.620372022051e-03 1.415944758561e-02 8.653863979502e-04 -2.165155844731e-12 2.140628966220e-11 -1.404309543255e-13 -1.586011699843e-08 7.720658007314e-09 -5.663740270229e-09 1.000000000000e-03 1.047197551197e-05 -5.256484268510e-15 1.649461066809e-14 3.450414812004e-14
150 2 2.721203554717e-03 1.450162857336e-02 8.436823243338e-04 1.551977890222e-12 5.897305360556e-11 3.118546697013e-12 -5.999096023733e-08 5.605183474420e-09 -3.088731032751e-08 1.000000000000e-03 1.047197551197e-05 2.212595674276e-14 -3.799985779591e-13 1.354725313558e-13
151 2 4.359697739314e-03 1.425823509273e-02 6.677047211148e-03 -4.315303132481e-11 4.584023259041e-11 2.172431084727e-12 -2.555156780022e-08 -1.246083134039e-08 -3.403638261973e-09 1.000000000000e-03 1.047197551197e-05 -8.953670782548e-14 3.571433141910e-13 -3.708932927660e-14
152 2 2.691721559272e-03 1.311911383034e-02 2.128563654346e-03 -3.141153032461e-11 6.438418456438e-11 8.741269684726e-12 4.987333146077e-08 4.874693777188e-10 -1.453780684989e-08 1.000000000000e-03 1.047197551197e-05 -1.686471012184e-14 -2.419396798690e-13 3.271136477885e-13
153 2 4.636234288408e-03 1.143549612151e-02 3.379966579648e-03 -2.385001115106e-11 2.088528616624e-11 8.314132062255e-12 2.300391937050e-09 -7.695439071415e-09 -2.019963337015e-08 1.000000000000e-03 1.047197551197e-05 -1.420440531679e-14 -3.871206819234e-13 2.229564633955e-13
154 2 4.650949552542e-03 1.316619820021e-02 2.579208990871e-03 -2.385350369914e-11 1.300789990501e-11 -3.110371496916e-12 -1.517691198258e-08 -3.432798256689e-09 2.528132444738e-08 1.000000000000e-03 1.047197551197e-05 -3.663614324564e-14 1.267145913414e-14 9.231836201476e-15
155 2 2.192929407374e-03 1.308998902269e-03 6.317806795451e-03 -3.073969836070e-11 4.063033884811e-11 -1.070782760670e-11 -1.863702436997e-08 -3.885174910799e-09 9.833877740007e-10 1.000000000000e-03 1.047197551197e-05 -2.910054632580e-13 2.510884715011e-13 1.807785703436e-13
156 2 5.949728998870e-03 1.315523017468e-02 6.432328873638e-03 -4.859052568215e-11 4.148807206887e-11 2.197931810669e-12 1.721541427471e-09 -1.372381338896e-08 -6.500832847675e-09 1.000000000000e-03 1.047197551197e-05 3.911114449248e-13 -4.927582247271e-13 4.476144310379e-15
157 2 4.416776347181e-03 7.972022988696e-03 2.373093709221e-03 -1.951526179978e-11 3.515673016968e-12 2.225040132074e-12 -3.080234941176e-08 -3.210174719696e-10 1.509404777297e-08 1.000000000000e-03 1.047197551197e-05 -4.792022551400e-14 -3.792965007318e-13 -2.201746293222e-13
158 2 1.799926090969e-03 1.132532439454e-02 1.025009770335e-03 3.475630438293e-165 -4.677922000835e-165 1.716990235499e-165 7.135844669915e+02 5.662723153513e+02 -6.677749503634e+02 1.000000000000e-03 1.047197551197e-05 -3.478952593305e-166 4.682393357125e-166 -1.718631407602e-166
159 2 4.819933609632e-03 9.526489808226e-03 3.470245072169e-03 -4.136169417397e-11 1.284035803775e-11 -1.052919733279e-11 1.835531726497e-08 -6.409243643940e-09 3.604249343674e-09 1.000000000000e-03 1.047197551197e-05 1.645036362017e-13 5.189067961932e-13 3.356337101094e-13
160 2 5.728763693587e-03 1.076242812544e-02 1.985859226300e-03 -2.111704072073e-11 1.737464004802e-11 1.951734512352e-12 1.076872187090e-08 3.887038909555e-09 -7.131586014446e-10 1.000000000000e-03 1.047197551197e-05 1.950521171930e-13 -2.738235706964e-13 -5.130720301549e-15
161 2 3.413202396721e-03 1.061356925417e-02 6.479509899480e-03 -4.003147673505e-11 4.373453934546e-11 6.505995034836e-12 -6.478397552033e-09 1.179782559016e-09 6.427393073955e-09 1.000000000000e-03 1.047197551197e-05 3.635552348688e-14 -1.680896310397e-13 3.988628412642e-14
162 2 4.557582657223e-03 7.778360229474e-03 4.734024408068e-03 -3.250596710515e-11 2.598029005923e-11 1.199027882381e-11 2.118162865321e-08 5.353677158281e-09 -1.530669593268e-10 1.000000000000e-03 1.047197551197e-05 -6.746636872874e-14 1.498362658383e-13 1.674476970562e-14
163 2 4.397047404496e-03 1.244317729622e-02 5.680790725817e-03 -4.554561651234e-11 4.172985660883e-11 -1.686664864329e-12 -6.525136109539e-09 8.286960277582e-09 1.995606258356e-09 1.000000000000e-03 1.047197551197e-05 6.143671601555e-14 -1.004146792830e-12 -4.512688913563e-13
164 2 1.062384669399e-03 1.339230706941e-02 9.095999062770e-04 -1.638553886586e-11 1.298138969966e-11 3.085034640769e-12 -1.367478283483e-08 -1.706670616245e-08 -2.787227094639e-08 1.000000000000e-03 1.047197551197e-05 1.598339368005e-13 4.670576140364e-15 7.348342789883e-14
165 2 3.274875954901e-03 1.131822503079e-02 4.683616154466e-03 -3.773174536195e-11 3.033257192177e-11 2.167189033584e-12 -3.391029050785e-09 -9.320507789327e-09 8.226643900615e-09 1.000000000000e-03 1.047197551197e-05 2.095309588993e-13 -4.164836792062e-14 -1.392220706339e-14
166 2 3.846535009210e-03 9.249033273268e-03 9.259133959200e-04 -1.049666248922e-11 4.322706375029e-12 2.438012760869e-12 -6.661785002227e-10 -3.016510106171e-09 -1.690695795476e-08 1.000000000000e-03 1.047197551197e-05 3.753952054854e-14 4.037077337062e-14 7.201492130069e-14
167 2 2.749570618083e-03 1.494246606627e-02 3.711306774779e-03 -2.326264616983e-11 2.763616892531e-11 -8.058628324919e-12 3.487136917683e-09 -1.038742454595e-08 4.035078125886e-09 1.000000000000e-03 1.047197551197e-05 5.302258459879e-14 -5.761430992317e-14 2.469903757259e-13
168 2 2.273441598384e-03 9.848202391386e-03 3.681159249189e-03 -2.528484116386e-11 3.005200833707e-11 -2.339534146625e-13 -4.681814565113e-09 -3.232052962117e-09 -3.104018077271e-09 1.000000000000e-03 1.047197551197e-05 -2.260840797995e-13 -1.816330396522e-13 -6.492939199358e-14
169 2 5.104525242634e-03 7.814957017210e-03 6.873428364750e-03 -3.935887109956e-11 4.792073286559e-11 7.107904573038e-12 -8.079323285866e-09 6.782170717037e-10 5.754496261842e-09 1.000000000000e-03 1.047197551197e-05 1.614634236841e-13 9.057110212699e-14 4.276568662568e-14
170 2 4.984114763882e-03 1.060817931732e-02 5.356704687061e-03 -3.228531207614e-11 3.899222250911e-11 1.517960759530e-11 -1.064699737399e-08 -1.257510729798e-08 -4.691091199078e-09 1.000000000000e-03 1.047197551197e-05 1.972278219963e-13 -3.883346627621e-14 -1.282977879432e-14
171 2 5.562890459899e-03 9.632250618435e-04 2.477853711889e-03 4.071393341498e-12 5.303958222552e-11 3.291279248647e-12 -6.274133389757e-10 -4.152528958696e-08 -5.301237158642e-08 1.000000000000e-03 1.047197551197e-05 -1.759368631466e-13 4.613957085889e-14 7.106431463188e-14
172 2 3.797976802425e-03 1.483978844780e-02 2.314282989224e-03 8.291265854753e-12 3.022996315773e-11 9.756996822392e-12 4.196990861522e-08 -2.280222707649e-08 -5.698091648410e-08 1.000000000000e-03 1.047197551197e-05 6.322277885759e-15 -1.004856713465e-13 -1.027183845059e-13
173 2 3.336420310460e-03 8.068738648966e-03 6.261561134780e-03 -3.758891986687e-11 3.903241018085e-11 1.129817148526e-11 -3.090528648767e-09 9.262882523304e-10 -2.439317367849e-09 1.000000000000e-03 1.047197551197e-05 1.118050944918e-13 -3.903603524260e-14 2.815451716071e-13
174 2 1.482617532785e-03 1.536307400439e-02 1.075949609209e-02 -5.244819423033e-11 4.770504729180e-11 -4.371928200677e-12 4.716528657043e-09 -1.878668267260e-08 -3.799641415365e-09 1.000000000000e-03 1.047197551197e-05 -5.814646230474e-13 2.990614295750e-14 -2.712835450085e-14
175 2 1.341725460807e-03 1.014390036992e-02 1.252379186876e-02 -4.082978466350e-11 3.973054486914e-11 -1.214841889750e-11 2.553395885947e-08 8.206249945878e-09 1.749710129469e-08 1.000000000000e-03 1.047197551197e-05 -1.292547904776e-13 -1.835111882084e-13 2.690778008394e-13
176 2 9.510751827852e-04 9.100143781863e-03 1.035431101857e-02 -6.155875510700e-11 5.637337050208e-11 -7.476505216399e-13 4.030531735717e-08 1.313640802857e-09 -4.138586494285e-09 1.000000000000e-03 1.047197551197e-05 1.523095386940e-13 -1.788396115955e-14 1.971889087125e-13
177 2 4.007534995063e-03 9.128035286287e-03 7.895806487668e-03 -4.998063421708e-11 4.772882488340e-11 4.336254064827e-12 -1.285347697306e-08 1.631216446838e-09 -1.861519946306e-09 1.000000000000e-03 1.047197551197e-05 1.424308681527e-13 -1.008565076617e-14 -1.332156830813e-14
178 2 2.314885936224e-03 1.374231587855e-02 1.138907070727e-02 -3.921858329826e-11 3.902930923301e-11 -9.231894618464e-12 1.662872022198e-08 1.573443008010e-09 1.344788926441e-08 1.000000000000e-03 1.047197551197e-05 -3.101639355767e-13 7.045374873465e-15 8.460778352643e-14
179 2 4.165172693585e-03 1.389614546345e-02 9.627875762613e-03 -4.120118911413e-11 7.258191128381e-11 4.343906219507e-12 -2.758272788982e-08 1.437601950257e-08 1.823003399186e-08 1.000000000000e-03 1.047197551197e-05 5.011691684310e-14 -4.846281294050e-13 -4.118895918722e-14
180 2 4.955482639535e-03 1.522377834390e-02 1.444402880712e-02 -3.686763297949e-11 3.903430956338e-11 4.334156329028e-12 2.693323522007e-08 2.985056652161e-08 1.992994198756e-08 1.000000000000e-03 1.047197551197e-05 5.879985928602e-15 -6.158503889234e-15 -4.276899191606e-14
181 2 5.054887042936e-03 1.200948463015e-02 9.930034857198e-03 -4.457579308248e-11 3.035601802892e-11 1.945053887320e-11 1.592497389790e-08 1.556879081961e-08 1.193926282314e-08 1.000000000000e-03 1.047197551197e-05 -4.575101323558e-14 1.859145533602e-15 -3.128130892115e-14
182 2 3.113274580492e-03 1.073928989731e-02 1.255236178024e-02 -4.879140950785e-11 5.677591487684e-11 1.106357644448e-11 -9.316025048748e-09 -2.110688732689e-08 2.381671506161e-09 1.000000000000e-03 1.047197551197e-05 -8.790843217605e-15 -1.099557747950e-13 2.182635835724e-13
183 2 1.659225738540e-03 1.410523912261e-02 1.313909832949e-02 -3.273732614322e-11 3.903170889647e-11 -1.025795245433e-11 -1.719873391308e-08 5.422430245278e-09 -2.296940569371e-08 1.000000000000e-03 1.047197551197e-05 9.103217665221e-14 4.549176116672e-14 -3.825549074234e-13
184 2 2.789627642077e-03 8.733152778600e-03 1.116867392490e-02 -3.593137902960e-11 7.696846650740e-11 1.300697003523e-11 1.628794158195e-08 6.534891314598e-08 -6.920635784723e-08 1.000000000000e-03 1.047197551197e-05 7.802427008125e-14 -6.195758668123e-14 -5.738347317922e-15
185 2 5.506507405572e-03 9.802337509911e-03 9.256611810632e-03 -4.987456166917e-11 4.353906497112e-11 7.204440364559e-12 4.924837067103e-09 -6.372260628116e-09 9.776766796494e-09 1.000000000000e-03 1.047197551197e-05 1.500361161999e-14 -2.224794743694e-13 1.320002304838e-13
186 2 6.989174206124e-03 2.992105787276e-04 1.329808862193e-02 -9.970737442160e-11 1.479116035871e-10 5.637852530102e-11 9.634684235626e-09 3.605638506810e-08 -9.828672845424e-08 1.000000000000e-03 1.047197551197e-05 3.732157891011e-13 -4.067220865291e-13 -5.287058126051e-14
187 2 5.442484824982e-03 1.400153382424e-03 1.345531805671e-02 -1.857139017933e-10 1.151625026677e-10 2.168474148967e-11 -1.165064010677e-08 -9.627046828620e-08 2.031600260506e-07 1.000000000000e-03 1.047197551197e-05 7.580305035160e-13 -1.242594478225e-13 -4.877190178575e-14
188 2 2.231036660585e-03 9.817942259797e-03 9.101542096351e-03 -5.095408079372e-11 6.346594318338e-11 4.347344986401e-12 -1.615761292782e-08 -7.852862808140e-10 1.797604708992e-09 1.000000000000e-03 1.047197551197e-05 -3.699400110938e-14 -6.154176611483e-14 -1.597362744214e-14
189 2 1.444977198512e-03 1.182930480166e-02 9.428269938783e-03 -4.700524069033e-11 4.131151518378e-11 1.161573805912e-11 8.114710663578e-09 3.039744964637e-09 3.427715086466e-10 1.000000000000e-03 1.047197551197e-05 4.140165956413e-14 2.552010014394e-14 4.683766076115e-14
190 2 6.650227957126e-03 1.515277576551e-02 1.147099012597e-02 -4.983522759823e-11 1.239472560413e-10 4.275108067212e-11 -1.021571851160e-08 -5.743200309847e-08 1.041757828092e-07 1.000000000000e-03 1.047197551197e-05 -1.423185600556e-13 -4.395421618439e-13 -3.093537674314e-13
191 2 4.425220112177e-03 1.069114322519e-02 1.109595084821e-02 -3.709259981821e-11 2.169109351012e-11 2.783962266438e-11 -1.384229744190e-08 -5.523782098241e-09 -1.103940710865e-08 1.000000000000e-03 1.047197551197e-05 6.921703169751e-14 1.089682192437e-14 -1.196939623178e-13
192 2 2.837078443626e-03 1.455777420217e-02 7.757658909378e-03 -4.796050815060e-11 5.492925832943e-11 -1.171182588488e-12 3.834711127151e-09 9.803990170591e-09 9.152310653644e-09 1.000000000000e-03 1.047197551197e-05 -1.294809177147e-14 -2.345784827560e-13 -8.428258054324e-15
193 2 1.112780011091e-03 8.334430599220e-03 1.211733725838e-02 -3.514413991212e-11 3.905323588948e-11 -1.301894970513e-11 -2.334838974672e-08 3.575498505101e-08 -3.102192987122e-09 1.000000000000e-03 1.047197551197e-05 5.001079966480e-14 5.983957493404e-14 -3.306877264799e-14
194 2 3.320285434448e-03 8.342930269370e-04 1.445770233099e-02 -5.586107072054e-11 -4.368646845276e-12 1.640563934812e-11 4.679697783024e-09 5.566386731995e-08 4.035769741378e-08 1.000000000000e-03 1.047197551197e-05 -3.114452428741e-13 -1.720209900318e-13 1.011395050307e-13
195 2 5.473896664393e-03 1.444760577738e-02 1.279860188766e-02 -5.313013794449e-11 6.547895088179e-11 2.594134785955e-12 3.289502674188e-09 -2.848110985426e-08 -9.446570822077e-09 1.000000000000e-03 1.047197551197e-05 -1.580108488176e-13 -3.191561151587e-14 4.883106327099e-14
196 2 3.853926117481e-03 1.343075250589e-02 1.262546861010e-02 -4.226456406509e-11 5.117072367792e-11 -1.456268895512e-11 -6.629368535963e-09 2.462002611168e-09 1.701871475593e-08 1.000000000000e-03 1.047197551197e-05 -1.839275410126e-13 2.970708125652e-14 1.642927162893e-13
197 2 3.440614342055e-03 1.519857723986e-02 1.078979542147e-02 -5.561275849618e-11 6.807112955833e-11 1.253832031247e-11 1.730314688235e-08 3.683079556153e-09 1.938880823705e-08 1.000000000000e-03 1.047197551197e-05 -2.048630585831e-13 -2.862137789672e-13 3.898924096292e-13
198 2 3.986091611475e-03 1.092798371441e-02 8.756829549367e-03 -4.496193608854e-11 4.533448911913e-11 1.301657236387e-11 1.342106199933e-09 1.056839472748e-09 -2.158755464082e-09 1.000000000000e-03 1.047197551197e-05 2.247904862418e-13 -1.273173508948e-13 -1.875693183202e-14
199 2 3.115568450398e-03 1.261453358584e-02 8.821085186213e-03 -4.227217801311e-11 4.769844761138e-11 1.513567113657e-11 2.219155584892e-09 -4.884100226078e-09 -2.416705698383e-09 1.000000000000e-03 1.047197551197e-05 -7.407898090759e-14 2.501032071007e-14 -2.304248478630e-13
200 2 5.950463682379e-03 1.520738469579e-02 9.671593376741e-03 -4.952114088887e-11 5.636715276371e-11 2.109431521299e-11 -9.158153409637e-09 1.471800225775e-08 1.358680346553e-08 1.000000000000e-03 1.047197551197e-05 -1.401686870957e-13 1.222216653312e-14 1.191774509628e-13
201 2 3.849428479134e-03 9.382338696739e-03 9.849304440138e-03 -5.511738586703e-11 4.534930808165e-11 -3.820941429962e-12 2.591643579728e-08 2.650030152222e-10 -2.257617353664e-08 1.000000000000e-03 1.047197551197e-05 3.143019502214e-14 -2.429295532973e-13 1.818039652390e-14
202 2 2.315719902052e-03 1.122032523509e-02 7.850049262467e-03 -4.438773543617e-11 4.770301902196e-11 4.339244069726e-12 1.183303173103e-09 -6.097671635535e-09 -3.364588162835e-09 1.000000000000e-03 1.047197551197e-05 3.788565213548e-14 -6.496120145653e-14 3.601187700944e-14
203 2 2.685067941605e-03 8.906983031735e-03 1.300070317954e-02 -5.746356049930e-11 5.526055059467e-11 2.321257176055e-11 1.132935461659e-08 -9.430194818633e-08 3.184416634560e-09 1.000000000000e-03 1.047197551197e-05 7.585336398121e-14 2.573424197141e-13 -2.996051054085e-13
204 2 4.691475079186e-03 1.169563813607e-02 1.277794835337e-02 -2.448659516601e-11 5.536273709661e-11 1.300805295223e-11 -3.252987323855e-08 1.019606387743e-09 -2.667502584831e-08 1.000000000000e-03 1.047197551197e-05 1.562536931867e-13 -1.549764118455e-13 5.710613389814e-15
205 2 6.056490667630e-03 1.044822958503e-02 1.346678932826e-02 -9.670657285308e-11 -1.919500056565e-11 1.850937650914e-11 4.892852717881e-09 -3.973848915230e-08 -5.240833454520e-08 1.000000000000e-03 1.047197551197e-05 4.326548521721e-13 7.264264354846e-13 -1.454409040149e-13
206 2 3.663206478253e-03 1.042020974454e-02 1.440582438903e-02 -5.113542215949e-11 -3.903072321495e-11 -4.270078641387e-12 -4.741378482164e-08 4.798553749223e-08 -5.286780769050e-08 1.000000000000e-03 1.047197551197e-05 1.483640712310e-13 7.077503103760e-15 -3.446148876880e-14
207 2 6.160285647539e-03 1.118422020407e-02 1.166826030097e-02 -3.670094130386e-11 1.852090834404e-11 2.168331929568e-11 1.773269151448e-08 8.230695320024e-09 -4.095038202306e-10 1.000000000000e-03 1.047197551197e-05 2.514492987849e-14 3.528437221044e-13 -1.890269348460e-14
208 2 5.540869209267e-03 1.201298218273e-02 1.444749308340e-02 1.667941103896e-12 2.168724428532e-11 1.300964332660e-11 1.694863819565e-08 -2.347763658988e-09 -8.922780460010e-08 1.000000000000e-03 1.047197551197e-05 2.134598867981e-13 -1.301681175699e-14 8.667517220952e-14
209 2 3.256100229232e-03 1.426112087606e-02 1.441211215642e-02 7.175291049850e-13 -4.336875246592e-12 -3.427324967872e-12 9.533332523584e-09 -1.201705274222e-09 3.261666203991e-08 1.000000000000e-03 1.047197551197e-05 3.173224577759e-13 3.561637584392e-14 2.385993780950e-13
210 2 3.422054524683e-03 7.667172739462e-03 9.188616477110e-03 -7.931467467847e-11 6.268335135328e-11 -6.961921550655e-12 -1.795748306929e-08 3.307571672166e-08 1.158197988439e-08 1.000000000000e-03 1.047197551197e-05 -1.512393522453e-13 9.599900332836e-14 1.075072584891e-14
211 2 2.699550463589e-03 6.589287111697e-03 1.286419198813e-02 -1.492159492779e-10 1.136508300843e-10 -3.035812143430e-11 -7.494021481610e-09 -7.038487737181e-08 1.114576152764e-09 1.000000000000e-03 1.047197551197e-05 5.829273299653e-13 2.380179624753e-14 -5.871483989960e-15
212 2 4.802488494028e-03 1.326538985595e-03 9.722202109854e-03 -5.733466040254e-11 5.242732986922e-11 1.055723528825e-11 2.805431486902e-10 -1.376576729478e-08 -6.215619706653e-09 1.000000000000e-03 1.047197551197e-05 9.680352912752e-14 -7.816113705567e-14 5.536848974411e-13
213 2 2.177710648074e-03 1.059674803792e-02 1.084310350183e-02 -4.284710099929e-11 6.577951734810e-11 -4.338098933338e-12 8.914351767150e-09 -7.334983609679e-10 -2.328347031248e-08 1.000000000000e-03 1.047197551197e-05 -1.185788752423e-13 -1.147974064412e-13 -5.574761216560e-14
214 2 2.228988175615e-03 1.416506719768e-02 9.517262185273e-03 -4.308407370815e-11 5.000859022986e-11 4.337924967688e-12 -1.598687752152e-09 -4.112689147247e-09 1.470263910331e-09 1.000000000000e-03 1.047197551197e-05 -3.244745832902e-13 -1.546611664271e-13 1.066772248885e-14
215 2 6.393544547192e-04 1.351487216837e-02 1.040422644177e-02 -4.343938594744e-11 3.903393170078e-11 -6.354198494417e-12 1.466640025630e-08 3.638566344048e-09 2.201822114439e-09 1.000000000000e-03 1.047197551197e-05 -2.854783070718e-13 4.904763462901e-14 -2.802266310829e-13
216 2 4.551095372305e-03 1.529504849973e-02 8.308312064043e-03 -5.421420318035e-11 5.638050733922e-11 4.657051524198e-12 1.257515557485e-08 -8.445377559672e-09 -5.185404959800e-09 1.000000000000e-03 1.047197551197e-05 -3.723490606791e-14 -1.058666234824e-14 2.092326933005e-13
217 2 3.449710255342e-03 1.235241489177e-02 1.422671505293e-02 1.398119730429e-11 -1.317120041052e-11 -3.281503524571e-11 1.141563584289e-08 3.697217332214e-08 -2.308934662644e-08 1.000000000000e-03 1.047197551197e-05 2.161288906592e-13 -1.716308857887e-13 -2.734349723692e-13
218 2 5.425069478827e-03 6.998408755288e-03 1.449550923081e-02 -1.733693296752e-10 -1.480084032605e-10 8.149148414142e-11 -2.150955067307e-07 1.706566765061e-07 -1.374339646289e-07 1.000000000000e-03 1.047197551197e-05 -1.284954642794e-12 -2.029830871345e-12 2.619292998700e-13
219 2 4.153995555499e-03 7.751104477864e-03 1.335583895149e-02 -1.528191834516e-10 -3.681559485302e-11 7.933731179798e-11 4.867336016268e-08 -5.458706225301e-08 -1.226536189749e-07 1.000000000000e-03 1.047197551197e-05 -1.731621379440e-13 -6.081458622531e-13 -8.516546198525e-13
220 2 3.555818353474e-03 1.721174586796e-03 1.112136274956e-02 -4.475806719942e-11 8.193325732912e-11 1.331954144159e-11 -3.723672667220e-08 3.222330087079e-08 -2.139350350014e-08 1.000000000000e-03 1.047197551197e-05 -1.572347209784e-13 -4.565063834822e-13 4.453414431422e-13
221 2 1.916492035214e-03 1.115125337837e-02 1.411112208624e-02 -2.751750629117e-11 3.029151769719e-11 -5.663990384591e-12 -2.703118595975e-08 -1.697551847223e-08 -3.342546581926e-08 1.000000000000e-03 1.047197551197e-05 -2.203047387287e-13 -7.886490336449e-14 -1.960187020634e-13
222 2 4.972912283751e-03 9.053115186939e-03 1.447164501411e-02 -8.713565374883e-11 -8.667127145617e-11 1.300892157792e-11 -9.552889702362e-08 8.626070123265e-08 -1.176262814032e-08 1.000000000000e-03 1.047197551197e-05 1.717185053212e-13 4.267099342789e-13 2.273744482654e-14
223 2 1.479940865386e-03 1.323445419327e-02 8.023184607559e-03 -4.045255865929e-11 4.292651264099e-11 5.737013751458e-12 -7.443789879509e-09 -3.043093440678e-09 3.656713913061e-09 1.000000000000e-03 1.047197551197e-05 7.159517597731e-15 5.749199271581e-15 -2.013583222668e-13
224 2 5.383514880711e-03 1.379635643812e-02 1.103591856028e-02 -3.177835991010e-11 7.481150818839e-11 4.337840325311e-12 -6.018256632289e-09 -9.195994543917e-09 -6.560131310048e-08 1.000000000000e-03 1.047197551197e-05 -1.030269413900e-13 -3.739155894264e-13 1.252218160912e-13
225 2 6.148583656915e-03 1.339874166883e-02 9.321919521713e-03 -4.634477703720e-11 4.769207161887e-11 1.653724191764e-11 6.823228636762e-09 4.362188597308e-10 -8.894947786718e-09 1.000000000000e-03 1.047197551197e-05 1.826300182184e-13 -4.547366085925e-14 3.779218628329e-14
226 2 3.155059509659e-03 1.527446290203e-02 1.271562284382e-02 -3.574514728844e-11 4.770703415005e-11 1.313384097218e-11 4.559024599561e-08 -1.715475024690e-08 3.893339870979e-08 1.000000000000e-03 1.047197551197e-05 -7.597542737457e-16 -2.394692416639e-14 5.607403926942e-14
227 2 3.311652349514e-03 1.218094467219e-02 1.123243673294e-02 -2.675818569210e-11 3.903436014547e-11 -5.198212249887e-12 -1.461993636568e-08 -1.167408225151e-08 -5.659748206746e-09 1.000000000000e-03 1.047197551197e-05 -1.437309760933e-14 -3.630367871560e-14 7.406107588663e-14
228 2 4.782491842715e-03 1.299272680829e-02 8.015216833276e-03 -4.498642728176e-11 5.637857261253e-11 1.301403630515e-11 5.971619162863e-09 3.120914769642e-09 6.656812164000e-09 1.000000000000e-03 1.047197551197e-05 4.074761735543e-14 7.856365847687e-15 2.767077590804e-14
229 2 2.879075219102e-03 5.772274205106e-04 9.137940652030e-03 -5.715705388320e-11 5.825634055730e-11 2.371152735070e-13 -7.192906885909e-09 -1.312121932969e-08 8.217142494369e-09 1.000000000000e-03 1.047197551197e-05 -2.297027473625e-13 2.615157196256e-16 3.917749791037e-13
230 2 4.826875252663e-03 5.121966882878e-04 1.183531883122e-02 -4.882492625884e-11 8.198407028988e-11 2.217302979931e-12 1.329226028467e-08 2.006842453805e-08 1.277812344748e-08 1.000000000000e-03 1.047197551197e-05 -2.928001734316e-13 -3.183480001458e-13 8.054932825239e-14
231 2 4.366637529130e-03 9.200532691417e-03 1.217985831185e-02 -3.848294605398e-11 2.431873455685e-11 8.057493247654e-11 -1.727651653984e-08 5.112079827884e-08 -2.087577657115e-08 1.000000000000e-03 1.047197551197e-05 3.219786346236e-13 9.875218573435e-14 -8.489874938610e-13
232 2 1.833052458081e-03 7.405912867367e-03 1.026478883259e-02 -7.004408518985e-11 7.052071653751e-11 3.495523130909e-11 -5.354795954528e-08 -6.690686003548e-08 4.910442426835e-09 1.000000000000e-03 1.047197551197e-05 -2.076954739287e-14 -1.296218080145e-13 1.439809466395e-13
233 2 1.057618588704e-02 6.003453698459e-03 8.327795337317e-04 -6.360417996146e-13 1.020549033313e-11 1.931067925530e-12 -7.665787432976e-09 2.636464903496e-09 6.844124592067e-09 1.000000000000e-03 1.047197551197e-05 -1.252533423563e-13 -5.066321071624e-14 2.452033546909e-14
234 2 8.572698151358e-03 9.542384274802e-04 3.719913745269e-03 -3.902388221886e-11 3.071874235272e-11 4.137467324598e-12 -6.152633395850e-09 -7.308162291439e-09 4.528358865012e-09 1.000000000000e-03 1.047197551197e-05 1.006346030255e-14 -2.222383112453e-14 -1.231941085331e-13
235 2 1.255061707952e-02 5.925073412165e-03 6.872239267110e-03 -4.424646735918e-11 3.685242846442e-11 6.497584215109e-12 -2.061133295180e-09 -6.509570571863e-09 3.775806579985e-09 1.000000000000e-03 1.047197551197e-05 9.514535275517e-14 -8.187015565562e-14 -1.042944210460e-13
236 2 1.386440128008e-02 1.861083372622e-03 3.738843625392e-03 -3.035713218846e-11 2.051845456194e-11 8.311145719893e-12 7.377736434373e-09 -6.364335967139e-09 -5.858743727564e-09 1.000000000000e-03 1.047197551197e-05 2.636786775635e-14 1.439384373262e-13 1.631071245152e-13
237 2 1.481984721242e-02 6.907219167159e-03 6.227709075778e-03 -4.772963642457e-11 3.695247909050e-11 -4.305092394998e-12 -6.586662515743e-09 3.190015855760e-09 -6.485401471006e-09 1.000000000000e-03 1.047197551197e-05 -2.238853613206e-14 1.287190277687e-13 -3.056106623316e-13
238 2 1.279672008261e-02 1.151037150778e-03 5.182544426037e-03 -3.904404180681e-11 2.857070045069e-11 9.985111876261e-12 -7.650789781373e-09 -2.727962473192e-09 -5.024187816974e-09 1.000000000000e-03 1.047197551197e-05 -1.806233986111e-15 2.439880986054e-13 3.419655784720e-13
239 2 1.269779408631e-02 3.394102743926e-03 3.665365046365e-03 -3.021961294877e-11 2.268992960084e-11 8.944896061430e-12 -7.134233760518e-10 -7.042092774252e-09 -4.222248537298e-10 1.000000000000e-03 1.047197551197e-05 -1.142502949284e-13 1.670236073154e-13 -1.512286816073e-13
240 2 1.422432222469e-02 7.105190814317e-03 4.446111558144e-03 -3.652688746047e-11 3.281614749060e-11 -4.096895795382e-14 3.023363856631e-10 -4.222989117946e-09 -2.208342141608e-09 1.000000000000e-03 1.047197551197e-05 -1.867518302708e-13 1.024428557183e-13 -3.579429181953e-14
241 2 1.191517417411e-03 6.672935204855e-03 2.086042478837e-03 -2.143863847148e-11 1.956986179514e-11 1.658186409030e-11 -2.521693708149e-08 -1.259337955041e-08 8.522715736719e-09 1.000000000000e-03 1.047197551197e-05 2.890751806593e-13 1.135494152378e-13 1.226590643079e-13
242 2 3.135715906906e-04 5.139547538408e-03 2.924548873940e-03 -2.320483783429e-11 2.690503923718e-11 1.755412767971e-11 6.003444986954e-09 -1.339891879403e-08 3.629483828493e-09 1.000000000000e-03 1.047197551197e-05 -7.494947482708e-14 2.997356510611e-14 -3.124767404166e-13
243 2 6.009256042607e-03 1.885235070985e-03 5.590961029990e-03 -4.055367888708e-11 3.956113245623e-11 8.688599671619e-12 -9.410623710047e-09 -6.792211494049e-09 1.604673247920e-09 1.000000000000e-03 1.047197551197e-05 -2.903156411138e-14 -2.083661003331e-14 1.449120351211e-13
244 2 1.451431520362e-02 3.006379736838e-03 6.705877600956e-03 -4.770683956634e-11 3.260241837997e-11 1.896061875828e-11 5.909595091936e-09 -5.330309629354e-10 -2.258532590434e-09 1.000000000000e-03 1.047197551197e-05 1.097984627570e-13 -6.555074295955e-13 9.904797211838e-14
245 2 1.129233933428e-02 7.883711881142e-03 1.015274032931e-03 -9.718853078474e-166 2.350882630850e-164 -3.040484096312e-164 2.235618384403e+03 2.108827890374e+03 2.418188823478e+03 1.000000000000e-03 1.047197551197e-05 9.728142770528e-167 -2.353129704195e-165 3.043390319992e-165
246 2 1.447333124189e-02 3.907211253401e-03 9.308206366908e-04 -1.191433386951e-11 6.116998501689e-12 7.565170755160e-15 -7.266081349300e-09 -7.735069152298e-09 -8.322901211210e-09 1.000000000000e-03 1.047197551197e-05 4.594914834747e-14 -1.970611803195e-14 4.902829299878e-14
247 2 1.042710851311e-02 1.941798033824e-03 5.286528723417e-03 -4.102811746003e-11 2.981216714035e-11 4.377869016997e-12 -9.494550295153e-10 -5.154395295592e-09 -1.947086677047e-09 1.000000000000e-03 1.047197551197e-05 1.157436302225e-13 -8.793553023157e-16 -3.539260830008e-14
248 2 7.519661753353e-04 1.544042198413e-03 9.461223348391e-04 -6.599032405752e-12 1.231069271992e-11 -3.411212955901e-13 -8.777185503960e-09 -3.740597126531e-09 3.300457021778e-08 1.000000000000e-03 1.047197551197e-05 -5.613145487312e-14 -1.235685002105e-13 1.920582234520e-13
249 2 5.724414827664e-03 2.247544611221e-04 6.454324316438e-03 -4.269851723695e-11 4.166596532088e-11 1.084043986958e-11 8.125038372673e-09 -1.121132151581e-08 1.907510439104e-09 1.000000000000e-03 1.047197551197e-05 -2.068621949531e-13 -1.533978044837e-13 -1.466916447944e-15
250 2 7.338114657874e-03 3.371564891246e-03 9.598940204004e-04 -2.918096439774e-11 1.294696820039e-11 -9.618481569046e-13 -9.122341209034e-09 -2.762430572598e-08 2.576455808046e-08 1.000000000000e-03 1.047197551197e-05 3.293144399611e-13 1.612197272651e-13 -2.121601828452e-13
251 2 6.824692812142e-03 1.823934859064e-03 3.792576116752e-03 -4.211095802394e-11 3.613859311503e-11 1.877539868031e-12 2.981482541642e-09 5.155348003070e-09 -6.437027779784e-09 1.000000000000e-03 1.047197551197e-05 -6.251886148143e-13 2.548729368025e-13 6.558507693582e-13
252 2 1.488821149958e-02 2.404240133707e-03 2.165959388137e-03 -2.167964310787e-11 1.098556166998e-11 3.375089648469e-12 -9.172288988859e-09 1.435764310656e-08 -2.136004714533e-09 1.000000000000e-03 1.047197551197e-05 4.687247100180e-14 -1.073405309671e-13 6.110896751136e-15
253 2 6.714061584545e-03 5.035042227594e-03 1.786445320197e-03 -3.675689079534e-11 1.084276532835e-11 6.918396271329e-12 1.091144145690e-08 3.229803749429e-08 -1.501476124857e-08 1.000000000000e-03 1.047197551197e-05 -4.748918237540e-14 2.886063152691e-14 -5.929116659500e-14
254 2 1.006008571168e-02 2.131750302789e-03 7.196461396233e-03 -5.638905320619e-11 3.891452628334e-11 6.161141082707e-12 -5.117111046365e-09 -3.947977672442e-09 -1.266505599446e-09 1.000000000000e-03 1.047197551197e-05 -5.770412211031e-14 2.118564229055e-13 5.990238283435e-14
255 2 5.876210004903e-03 6.445280183348e-03 5.612429911736e-03 -4.553210575718e-11 4.553632624426e-11 -6.506074749482e-12 -7.417235041021e-09 -1.661784206356e-08 3.050299037526e-10 1.000000000000e-03 1.047197551197e-05 -1.186435882165e-14 -1.256183251291e-14 -2.170880799817e-14
256 2 1.094371552024e-02 3.540873956920e-03 4.426310948297e-03 -3.576143360436e-11 2.820453845729e-11 2.169809402266e-12 -5.091651849729e-09 -5.304299833703e-09 2.248070608329e-09 1.000000000000e-03 1.047197551197e-05 6.543083823881e-14 -1.303136083628e-13 -1.792118759710e-14
257 2 6.992383135582e-03 4.403078943275e-03 7.410882520955e-03 -5.864868436919e-11 5.063450013772e-11 -2.135582705861e-12 -1.025776334242e-08 -2.704834442719e-08 -1.358707203997e-08 1.000000000000e-03 1.047197551197e-05 -1.969152731643e-13 7.126074624111e-14 -8.317274571539e-14
258 2 9.502574318668e-03 6.770937600789e-03 4.049190501825e-03 -3.356169170899e-11 3.252094997209e-11 -2.008583291382e-12 -1.933995122513e-09 -6.684264095395e-10 2.073678082664e-09 1.000000000000e-03 1.047197551197e-05 2.683400737993e-13 -2.481138004889e-14 -8.188264509770e-14
259 2 1.194711638263e-02 4.614402782767e-03 8.323777179272e-04 -5.079821530878e-12 1.181713699586e-11 3.775943003678e-12 -9.151323804663e-09 -4.904137180479e-09 -9.736713208032e-09 1.000000000000e-03 1.047197551197e-05 6.817689487022e-14 -2.265275936629e-13 1.659469520864e-15
260 2 1.021250194426e-02 4.287806167882e-03 6.099147065732e-03 -4.770105854388e-11 3.662527476841e-11 2.200333875594e-12 -1.185076661735e-09 -6.047520788948e-09 3.809741640207e-10 1.000000000000e-03 1.047197551197e-05 -1.913699257077e-14 -1.370063156604e-13 -6.321924411110e-14
261 2 1.673099416386e-03 2.627248400905e-03 4.969411746470e-03 -4.861567549131e-11 2.839171531364e-11 -1.050330320528e-11 1.449048026623e-08 6.030796903635e-09 2.129248888972e-08 1.000000000000e-03 1.047197551197e-05 3.537753993223e-13 3.870065418605e-13 1.897900984667e-14
262 2 1.112965860934e-02 3.011224444568e-03 2.552279354637e-03 -2.361712854205e-11 2.458079820681e-11 3.293069643800e-12 7.783559786319e-10 -3.458571519938e-09 -1.807478275997e-09 1.000000000000e-03 1.047197551197e-05 2.972038818085e-13 -1.800741322803e-13 -5.907958588378e-14
263 2 7.323000886179e-03 2.609901658284e-03 6.855073622339e-03 -5.856387473499e-11 4.627995082932e-11 1.240663528755e-11 5.154603494461e-09 -5.941282190108e-09 7.625630595855e-09 1.000000000000e-03 1.047197551197e-05 1.707475837388e-14 -1.514984734239e-13 1.001929841854e-13
264 2 7.335758402268e-04 2.178446552769e-03 6.995962642641e-03 -4.381523200612e-11 3.738188982342e-11 -4.712937476579e-12 1.563323201359e-08 1.237640907748e-08 1.512497539703e-08 1.000000000000e-03 1.047197551197e-05 -1.328456663527e-12 -5.565992623049e-13 7.291176562356e-13
265 2 8.230854744175e-03 5.019931215063e-03 2.887628253655e-03 -2.168908395639e-11 1.948721951037e-11 -5.481085024178e-12 -1.784913318826e-08 -9.801287331153e-09 1.162470280410e-08 1.000000000000e-03 1.047197551197e-05 -1.330317400831e-14 -1.217441765360e-13 4.133116002692e-14
266 2 1.187798915079e-02 4.791434056183e-03 2.657044863506e-03 -2.167305041869e-11 2.315841555050e-11 7.372298987399e-12 8.956018523057e-11 -7.460770073092e-09 -1.893507925613e-10 1.000000000000e-03 1.047197551197e-05 2.893210226098e-14 -1.077663795342e-13 3.929761113734e-14
267 2 7.191579693752e-03 4.066495679472e-04 5.077605572984e-03 -4.118674045054e-11 3.708499964341e-11 -3.798279705074e-12 -3.156038614336e-10 -8.323160657071e-09 6.455192434462e-09 1.000000000000e-03 1.047197551197e-05 1.427642272082e-14 -1.924408794031e-13 1.401397429975e-13
268 2 8.929824584033e-03 5.550897746646e-03 7.482139721621e-03 -4.712637514517e-11 3.425640669634e-11 9.041479167957e-12 -2.875438140759e-09 -6.082353159546e-09 -2.222182074077e-09 1.000000000000e-03 1.047197551197e-05 -3.202537647759e-13 2.267818977615e-14 -2.665308995805e-14
269 2 1.406912676738e-02 4.938031082527e-03 3.975596505688e-03 -3.035869100938e-11 2.074491110682e-11 6.845345012087e-12 1.041097519617e-08 3.003083271975e-09 -5.529441654392e-09 1.000000000000e-03 1.047197551197e-05 1.905398521119e-14 -8.485819513157e-14 -1.688861583694e-13
270 2 1.083775797845e-02 5.400615788381e-03 7.507732333245e-03 -4.770616890379e-11 3.362772609190e-11 6.492518403089e-12 2.717217729321e-09 3.765247865687e-09 -6.973159061926e-10 1.000000000000e-03 1.047197551197e-05 3.150734139529e-14 -3.400710793978e-13 1.623134043985e-14
271 2 1.266042770229e-02 6.256730995847e-03 5.044826138984e-03 -3.533738422570e-11 3.251570364899e-11 6.503824971582e-12 -1.898744397503e-09 1.185817059270e-09 -5.235291819916e-10 1.000000000000e-03 1.047197551197e-05 4.197416176112e-13 5.205897983979e-14 5.755066017511e-14
272 2 1.520257323227e-02 2.050372540666e-03 5.125945467186e-03 -3.899785262819e-11 1.899191711972e-11 1.517253760036e-11 1.071180726046e-08 -3.785398583073e-09 1.639289569107e-08 1.000000000000e-03 1.047197551197e-05 -1.595714782470e-13 1.902816717322e-14 -3.937634908623e-14
273 2 7.735433702847e-03 4.530394712866e-03 5.709352153308e-03 -3.779078032501e-11 3.685290216080e-11 2.618987979791e-12 -1.777675373694e-10 6.731752658157e-09 -3.232852417883e-09 1.000000000000e-03 1.047197551197e-05 -2.279145726356e-14 7.635708487266e-14 1.741410539460e-13
274 2 3.088030088976e-04 3.939797617562e-03 5.475614043651e-03 -4.153645431377e-11 2.512902258362e-11 1.954510340512e-11 5.133676564117e-09 1.172597475378e-08 -2.240972094276e-08 1.000000000000e-03 1.047197551197e-05 5.852536168781e-13 -6.095073188969e-13 6.218590015288e-14
275 2 1.372377205523e-03 2.944034886841e-03 2.220716586654e-03 -1.545932568963e-11 1.145986955234e-11 9.796058847271e-12 9.389901952472e-09 -3.676472476162e-08 -8.098756724194e-09 1.000000000000e-03 1.047197551197e-05 -4.958524995222e-13 -5.866278817727e-14 3.413666270027e-14
276 2 7.916760323806e-03 1.929863238612e-03 2.143959377200e-03 -2.991841935086e-11 2.498836165676e-11 3.809036465341e-12 6.704837096270e-09 -2.299403348895e-09 -1.786644891304e-09 1.000000000000e-03 1.047197551197e-05 1.291813130910e-12 1.526436116842e-13 -1.358729023508e-12
277 2 1.417494765339e-02 5.110376399723e-03 5.904225102166e-03 -3.898561986912e-11 2.809265941711e-11 1.200206175561e-11 -1.576310860506e-08 -1.084599001026e-08 1.656741432028e-08 1.000000000000e-03 1.047197551197e-05 -9.547324768601e-14 9.783545194253e-14 2.135614711500e-13
278 2 1.428952333172e-02 5.861210478716e-03 7.717060403312e-03 -4.825442389243e-11 4.515190788433e-11 6.508462799113e-12 -2.849419778178e-09 2.706777339315e-09 -3.978879699722e-09 1.000000000000e-03 1.047197551197e-05 -1.750026954797e-13 -1.435471506469e-13 4.052829919770e-14
279 2 1.361472647766e-02 1.528559788774e-02 9.209236388518e-04 -2.601553533873e-11 4.335728139384e-12 1.681812606822e-12 1.815326383423e-09 -2.186054189762e-08 7.511775503605e-09 1.000000000000e-03 1.047197551197e-05 1.676051146282e-13 1.361026164755e-14 -1.109529792682e-14
280 2 1.335750976260e-02 6.001933573620e-03 1.124864572388e-03 4.228349461330e-09 1.360994368765e-09 9.960740383413e-10 1.338737031535e+03 8.283555806746e+02 -1.507965321768e+03 1.000000000000e-03 1.047197551197e-05 -4.167428143193e-12 -1.341385453804e-12 -9.817227921783e-13
281 2 9.128990144854e-03 2.828328783030e-03 3.449075147342e-03 -3.031954719915e-11 2.887248609245e-11 4.653084780333e-12 -1.199559870446e-09 -5.766874909265e-09 5.663335944108e-10 1.000000000000e-03 1.047197551197e-05 1.932748783481e-14 -1.010044587091e-13 -1.468297354488e-14
282 2 6.944414511736e-03 5.513918516938e-03 4.252496934884e-03 -3.660660788788e-11 3.234939980799e-11 1.067592807054e-12 -6.202870857657e-09 3.929029014797e-10 -4.857207014871e-09 1.000000000000e-03 1.047197551197e-05 1.533351224975e-13 -1.140454304875e-13 -7.949595176604e-14
283 2 1.104434128383e-02 5.549009762463e-03 4.196721427464e-03 -3.036187314464e-11 3.171122528854e-11 5.487228819268e-12 -4.184305943381e-09 -2.634130267720e-09 -3.682437291284e-10 1.000000000000e-03 1.047197551197e-05 -2.580467352472e-14 -2.231383684075e-13 -1.699938513683e-13
284 2 1.205819201457e-02 4.592996771234e-03 5.564056286398e-03 -3.988115333710e-11 3.366217292432e-11 6.526653567920e-12 2.601339332485e-10 -2.062055743707e-09 -4.409471216164e-09 1.000000000000e-03 1.047197551197e-05 2.094492340791e-13 -4.458127679308e-13 7.454639975433e-14
285 2 1.289514463831e-02 6.240322987231e-03 3.151014562495e-03 -3.033499466341e-11 2.385421690647e-11 9.065178936764e-12 -5.142097263078e-09 -2.737525492211e-09 3.085866071485e-09 1.000000000000e-03 1.047197551197e-05 3.909877205071e-14 1.506140462868e-14 -5.241786505503e-14
286 2 9.261433178487e-03 4.903500037733e-03 4.533880735507e-03 -3.543877465670e-11 3.340034786606e-11 2.163186390246e-12 3.283071406401e-11 -6.651694509235e-09 -2.226773044479e-09 1.000000000000e-03 1.047197551197e-05 8.751757401949e-14 -1.588423928548e-13 -5.714788474243e-15
287 2 7.256947808846e-03 7.300888422979e-03 3.757392091469e-03 -2.392485224983e-11 2.819063653753e-11 6.673755329251e-12 1.222578452310e-08 1.000708454694e-08 -1.271045993559e-08 1.000000000000e-03 1.047197551197e-05 3.773822710572e-14 2.369212230031e-16 -7.781038799391e-14
288 2 1.320587131315e-02 3.050062376795e-03 5.399091395173e-03 -4.646177818688e-11 3.140354874788e-11 1.516579471005e-11 -8.763953649044e-09 -5.581295904115e-09 -1.450689253922e-09 1.000000000000e-03 1.047197551197e-05 1.156346115662e-13 1.391547783749e-13 1.303943700237e-13
289 2 1.479970617877e-04 5.501390575343e-03 9.843913798155e-04 -1.765089788118e-12 2.175852265228e-12 7.324479034475e-12 3.812130539493e-09 -1.763179980948e-08 -4.110884351303e-09 1.000000000000e-03 1.047197551197e-05 1.612655705152e-13 4.243483365607e-14 -8.822810052399e-14
290 2 1.209459770348e-02 1.536276067796e-03 1.884973894885e-03 -3.035601533698e-11 2.328557953297e-11 -5.597422673573e-13 2.162483909380e-09 6.457413767920e-09 -6.203049635582e-09 1.000000000000e-03 1.047197551197e-05 -4.474109493560e-14 7.283987183266e-14 3.407977841545e-13
291 2 7.417889110877e-03 3.640768650161e-03 3.920590515100e-03 -2.390654730752e-11 2.993360945919e-11 6.102267308910e-12 5.308548312612e-10 4.395156362378e-09 -9.253274897866e-09 1.000000000000e-03 1.047197551197e-05 -1.121795850163e-13 -2.417374882289e-13 1.007174943233e-13
292 2 1.070760024721e-02 1.904758803106e-04 4.540623861274e-03 -3.853316640200e-11 2.574256207258e-11 6.501436837137e-12 -6.840711386626e-10 -4.168983418385e-09 8.558993492204e-10 1.000000000000e-03 1.047197551197e-05 3.074468673768e-13 -3.626549280787e-14 -3.744735601398e-14
293 2 8.359003806937e-03 7.036248936942e-03 1.511960700464e-03 -1.645508939985e-11 1.084179313013e-11 2.083180242489e-12 1.224327983641e-08 1.264542665320e-08 1.515256851283e-08 1.000000000000e-03 1.047197551197e-05 -1.152482976341e-13 6.732259818194e-15 -9.399930428477e-14
294 2 1.168190986976e-02 1.711994364719e-03 3.824322125858e-03 -3.282918420017e-11 2.482954430941e-11 5.412852309135e-12 -2.784275450625e-09 -3.420862279208e-09 -2.498317904531e-09 1.000000000000e-03 1.047197551197e-05 3.856045509672e-13 1.015196699255e-13 3.361119217831e-13
295 2 1.291908355206e-02 7.867727071405e-03 2.230338347313e-03 -2.931476563603e-11 2.029698053874e-11 3.207567468037e-12 -3.783815019864e-09 -2.254758153563e-09 -2.180500431723e-09 1.000000000000e-03 1.047197551197e-05 2.909223764836e-13 3.263680850661e-13 -3.971395657925e-14
296 2 1.305466246462e-02 2.095566703391e-03 7.581811705181e-03 -5.638941635732e-11 3.906643761919e-11 1.165917948645e-11 1.386497787194e-09 -5.976177536636e-09 -5.391104279823e-09 1.000000000000e-03 1.047197551197e-05 2.587287370237e-13 3.265598946466e-13 -3.386255585267e-13
297 2 6.517990493815e-03 6.685163918565e-03 9.051344102246e-04 -1.319198432303e-11 1.221055967350e-11 6.912962592480e-12 -1.114065163544e-08 -1.014218926296e-08 -1.899898379010e-08 1.000000000000e-03 1.047197551197e-05 -1.123471525503e-13 -5.339098273226e-15 -4.207801599263e-14
298 2 9.998197497608e-03 4.373564456859e-03 2.795799570485e-03 -2.168878012412e-11 2.719843271899e-11 5.435132299310e-12 1.222015502838e-09 1.650802080659e-09 -3.331881706778e-09 1.000000000000e-03 1.047197551197e-05 -1.283098301872e-13 -2.071659289446e-14 2.191652967917e-14
299 2 1.529848563450e-02 3.409319757783e-03 3.703096703909e-03 -3.129991657710e-11 2.515425456862e-11 1.089084589719e-11 -5.152132881671e-09 -2.663294645383e-08 5.574774475672e-09 1.000000000000e-03 1.047197551197e-05 -9.535279518949e-14 1.782568459300e-13 -3.956383518105e-15
300 2 8.658038278592e-03 1.386108041880e-03 5.639914420383e-03 -4.769162859171e-11 3.601192762923e-11 2.189101045077e-12 -2.411181382539e-09 -1.798001577389e-09 -7.759746901400e-09 1.000000000000e-03 1.047197551197e-05 8.349080043081e-14 -1.256485475565e-13 -3.431278180555e-14
301 2 9.033090259127e-04 5.820599877404e-03 5.145242743974e-03 -5.640735040818e-10 4.257953109160e-09 -1.608217350944e-09 -3.827549602912e+02 -3.437358342184e+02 5.856860326977e+02 1.000000000000e-03 1.047197551197e-05 5.551127353058e-13 -4.190312362435e-12 1.582669592720e-12
302 2 1.162639565140e-02 3.037976563450e-03 6.568797598616e-03 -4.816175109872e-11 3.800591142502e-11 6.539411183484e-12 -1.265625694152e-09 -1.775102109791e-09 -7.834179039751e-10 1.000000000000e-03 1.047197551197e-05 2.126510549273e-13 2.222505428934e-13 9.730788561730e-14
303 2 9.739238724863e-03 6.092723667167e-03 2.404524808874e-03 -1.566666403509e-11 2.153606664483e-11 1.177852196638e-14 -7.738347046983e-09 -1.619668885230e-08 -4.907416060757e-10 1.000000000000e-03 1.047197551197e-05 7.009719305165e-14 -1.766902289709e-13 -7.624622729386e-14
304 2 8.916098500466e-03 3.155159048948e-03 5.327309606877e-03 -3.931033075560e-11 3.361441122731e-11 -9.575129617616e-13 -1.184118159514e-09 -1.910382468459e-09 1.433215865611e-09 1.000000000000e-03 1.047197551197e-05 -3.999532048571e-14 -1.132587514239e-13 5.522538098032e-14
305 2 1.365625861265e-02 1.813708742586e-03 8.803455338802e-04 -2.168036219166e-11 6.535538185195e-12 5.053793121725e-12 -4.285945291441e-09 -1.880529436763e-08 -9.624038014766e-09 1.000000000000e-03 1.047197551197e-05 1.800938516045e-14 -1.053569084572e-13 1.733023697835e-14
306 2 1.291251099474e-02 3.309091358716e-03 1.830703561705e-03 -2.167519277187e-11 1.785639663394e-11 3.785204859335e-12 1.689030654922e-09 3.265789415676e-09 -4.811549596787e-09 1.000000000000e-03 1.047197551197e-05 1.423473756751e-15 -8.431032748179e-14 -1.269156746852e-14
307 2 1.307052912753e-02 4.135564048702e-03 7.146990265651e-03 -4.768863826476e-11 3.664852135470e-11 1.168241718947e-11 -3.414752583674e-09 -9.298968692916e-09 -5.517057812123e-09 1.000000000000e-03 1.047197551197e-05 -1.666668845563e-13 2.283629709516e-13 -1.872053777507e-13
308 2 8.775871927467e-03 5.092939239035e-03 9.816836567606e-04 -4.314047976670e-12 5.218390606189e-12 -6.785449528972e-13 -5.349478028889e-09 -4.340653526791e-09 5.416000528420e-09 1.000000000000e-03 1.047197551197e-05 -4.146186813457e-14 -1.199071117900e-13 -8.820218876831e-14
309 2 1.166091912684e-02 1.157325216217e-03 6.711299373551e-03 -4.775648781575e-11 4.080399139926e-11 9.757385419465e-12 -2.991965361583e-09 -2.408542428699e-09 3.270350260673e-09 1.000000000000e-03 1.047197551197e-05 1.854978013116e-13 5.351188119686e-14 1.492819803943e-13
310 2 1.017854617658e-02 1.446072083967e-03 2.708682970630e-03 -3.037737679213e-11 2.654332598985e-11 5.296135439582e-12 -1.264046660364e-09 2.297235065353e-09 -4.282342194303e-09 1.000000000000e-03 1.047197551197e-05 4.001574496096e-15 -2.009315900980e-13 1.363729416273e-13
311 2 9.641413218142e-03 2.720232888728e-03 1.248110021425e-03 1.249868858996e-153 3.765782609900e-153 1.775804607379e-152 -1.152664526382e+03 4.090879621960e+02 -1.137567531874e+03 1.000000000000e-03 1.047197551197e-05 -1.251063536671e-154 -3.769382104666e-154 -1.777501996754e-153
312 2 1.319140559448e-02 2.351313467191e-04 2.844174608564e-03 -3.730036360476e-11 2.539845607975e-11 4.073277729711e-12 -1.119589714485e-08 -1.582869439974e-09 -3.772251690808e-09 1.000000000000e-03 1.047197551197e-05 3.358918491373e-13 -6.997150738360e-14 3.347735483346e-13
313 2 7.780118755650e-03 8.417373426285e-04 7.159263094361e-03 -5.422256418603e-11 4.515340335861e-11 5.697560325681e-12 -9.523886450690e-10 2.813809504417e-09 -2.990432683395e-09 1.000000000000e-03 1.047197551197e-05 -2.614965943879e-15 2.732980088357e-14 -9.292070950612e-14
314 2 6.546134511282e-03 4.876700757537e-03 1.439778051619e-02 9.160620256703e-11 1.454004063769e-10 -1.469231949285e-10 -1.769478420691e-08 -1.683803827193e-07 -6.818300535689e-07 1.000000000000e-03 1.047197551197e-05 -6.964141180735e-13 -1.908123013433e-13 1.574299890217e-13
315 2 1.421467536689e-02 4.379747718023e-03 1.443935273270e-02 -4.337505929111e-12 7.211303218467e-12 4.312513552848e-12 1.611522050536e-08 6.774969280054e-10 1.334286084454e-07 1.000000000000e-03 1.047197551197e-05 2.576823821632e-14 -1.085487370740e-12 -3.819137812090e-15
316 2 7.027525669378e-03 1.668859099542e-03 1.194987008547e-02 -9.757395580531e-11 1.179344320170e-10 3.035495052429e-11 -3.804335573181e-08 7.556173664348e-08 -3.809396109902e-08 1.000000000000e-03 1.047197551197e-05 -7.777149538300e-14 -4.253321252507e-13 -4.979528359815e-15
317 2 1.255849919994e-02 1.358093105246e-03 1.034506854213e-02 -6.329827109872e-11 4.010430666846e-11 3.319269873293e-12 2.577707915673e-08 2.458766552538e-08 2.025465875360e-08 1.000000000000e-03 1.047197551197e-05 3.745183707355e-14 -1.611082205812e-13 -1.741743688007e-14
318 2 1.053871506920e-02 3.664876502557e-03 8.265328779329e-03 -5.977811712373e-11 3.577767715928e-11 5.794312314334e-12 -2.506218621592e-09 -1.548333105078e-08 -5.423357699350e-09 1.000000000000e-03 1.047197551197e-05 -5.182094802524e-13 2.042910408806e-14 -4.176264514203e-13
319 2 9.894551156073e-03 3.796149150669e-03 1.326051780336e-02 -5.637923987794e-11 1.504720458910e-11 -5.405413868264e-11 6.908336414657e-08 -6.519444792521e-08 -5.452321508887e-08 1.000000000000e-03 1.047197551197e-05 5.333105673244e-14 1.827710273901e-13 -3.382307263477e-14
320 2 9.480294814953e-03 4.974336522684e-03 1.458847070401e-02 -1.838074829082e-11 1.273557648528e-11 -4.341726409729e-12 9.879114377048e-09 -1.367371805003e-08 -1.394244419937e-07 1.000000000000e-03 1.047197551197e-05 -1.449218831029e-13 2.553870024848e-14 2.430150651065e-14
321 2 8.124475044757e-03 3.702299939783e-03 1.441780436005e-02 1.296240356633e-11 -8.629619015650e-11 4.337008570619e-12 -4.336312456147e-08 4.267350037701e-09 3.002669353022e-07 1.000000000000e-03 1.047197551197e-05 -1.013763669526e-13 2.104158851988e-13 -3.060810540814e-14
322 2 6.457692046199e-03 6.244686676997e-03 7.472784639264e-03 -5.996124830980e-11 4.833865779398e-11 -6.502251903323e-12 1.177774712787e-08 9.090701967692e-10 1.436741466301e-08 1.000000000000e-03 1.047197551197e-05 3.928846565009e-14 -3.529352519734e-14 1.441422870399e-14
323 2 8.696103316499e-06 2.469120528499e-03 1.177499554121e-02 -5.642655927752e-11 4.801479345918e-11 8.903955834290e-12 -8.451911137959e-09 2.476992326995e-08 -8.098915017646e-09 1.000000000000e-03 1.047197551197e-05 -8.617717245197e-14 -6.513583397783e-14 8.462757903076e-14
324 2 5.474412765993e-03 3.371557109655e-03 1.370707602386e-02 -1.893055765431e-10 5.264739121786e-11 1.345525206663e-10 -1.354799664834e-07 1.932582242851e-07 5.328914958393e-07 1.000000000000e-03 1.047197551197e-05 6.179981912385e-13 3.621753856684e-13 4.845464378741e-13
325 2 7.675525981211e-03 4.281736744677e-03 1.075318467121e-02 -1.283862144319e-10 8.949438276172e-11 3.036070090831e-11 -2.679152613877e-08 -6.206654708732e-08 2.535351607763e-08 1.000000000000e-03 1.047197551197e-05 -7.755102476031e-16 -1.619556479110e-13 1.790687174696e-14
326 2 1.173238625891e-02 3.272335902521e-03 1.275934770120e-02 -5.948405881213e-11 -4.989261532063e-13 -4.894737476476e-11 3.457628305816e-08 2.679688024654e-08 5.077917128873e-09 1.000000000000e-03 1.047197551197e-05 3.805706194674e-13 4.775069095553e-13 -3.050335447541e-13
327 2 1.374375195172e-02 4.490532326087e-03 1.215457266508e-02 -6.928462338634e-11 2.715182816491e-11 1.302106845742e-11 -6.894062665510e-09 -1.729235907937e-08 1.159699473561e-08 1.000000000000e-03 1.047197551197e-05 8.423579764393e-13 -5.114344072838e-13 4.002447813691e-14
328 2 1.456432939903e-02 6.717857859336e-03 9.418518558742e-03 -5.091096357942e-11 5.069014660056e-11 1.300852967852e-11 3.289359466518e-09 -7.094614161207e-09 -4.002907823778e-09 1.000000000000e-03 1.047197551197e-05 4.094548190432e-13 -6.870653694465e-13 -2.278598091285e-14
329 2 1.105450818895e-02 6.125327328762e-03 1.061929172772e-02 -6.674083024769e-11 4.117315958551e-11 -2.764651647173e-12 1.923411641178e-08 -5.819661773058e-09 -1.279336058860e-08 1.000000000000e-03 1.047197551197e-05 1.184124066033e-13 1.543242919168e-13 2.908989329810e-15
330 2 1.144129525199e-02 4.588713175569e-03 9.674778971870e-03 -7.371389951590e-11 4.553514171820e-11 4.335138103077e-12 -1.787467670823e-08 -3.489109236854e-09 -2.708212617056e-09 1.000000000000e-03 1.047197551197e-05 5.000257570305e-14 -1.574933724880e-14 -2.087078107632e-14
331 2 8.158333000378e-03 1.603329218988e-03 1.028126040297e-02 -9.975203292661e-11 5.131560763023e-11 -3.035491382411e-11 1.303504779844e-08 5.953727854723e-09 -6.741156898208e-08 1.000000000000e-03 1.047197551197e-05 5.274640147895e-14 7.304023567805e-14 -1.062706414030e-13
332 2 9.402724326974e-03 6.217220090123e-03 1.165180403849e-02 -6.504475852300e-11 4.981466646693e-11 -3.231238289534e-12 1.997213242914e-08 2.683040537391e-09 -1.489738073839e-08 1.000000000000e-03 1.047197551197e-05 5.168694597134e-14 1.411816963655e-13 -6.093274617529e-14
333 2 1.475356550808e-02 1.419814178739e-03 8.177872317683e-03 -5.733751170151e-11 5.091767642490e-11 1.467606786277e-11 2.529454036789e-08 -6.258633940813e-09 2.743865431087e-08 1.000000000000e-03 1.047197551197e-05 1.057946943832e-12 2.036772042264e-13 -1.154516152023e-12
334 2 1.413428206723e-02 2.432448161378e-03 9.722309305577e-03 -5.638223793941e-11 5.283234341316e-11 2.029327021454e-11 5.288745771910e-10 -2.691329207270e-09 8.395180211679e-09 1.000000000000e-03 1.047197551197e-05 -3.613879085066e-15 -1.773631202788e-13 2.780930052777e-13
335 2 1.442111060149e-02 4.930468795039e-03 1.003114599038e-02 -6.241503531527e-11 5.295810706156e-11 6.156342289882e-12 3.078664794618e-09 8.979451188924e-09 -1.062783330816e-08 1.000000000000e-03 1.047197551197e-05 1.081241718130e-13 9.735019310703e-14 -4.659770513655e-13
336 2 9.777799519848e-03 5.493102982093e-03 9.330069844965e-03 -7.372501289162e-11 4.189305600318e-11 -3.938917317243e-12 -1.931388189224e-08 1.121667766695e-08 8.260439316516e-09 1.000000000000e-03 1.047197551197e-05 -3.460671120500e-14 -3.108023357661e-13 -3.576961303197e-13
337 2 7.213836794623e-03 2.987983548811e-03 9.196399823748e-03 -8.454461922144e-11 5.129615600376e-11 2.389918236958e-11 5.137519019378e-09 6.783927701116e-09 1.159771224840e-08 1.000000000000e-03 1.047197551197e-05 3.913106090066e-14 9.872947658616e-15 -3.134673461059e-13
338 2 1.527815656999e-02 5.152234437360e-04 1.449245352933e-02 7.959356158986e-12 -1.554971615446e-11 1.300748385035e-11 -1.140891115615e-08 -2.877964064766e-09 1.326783274361e-07 1.000000000000e-03 1.047197551197e-05 6.899400470578e-14 -2.850650535227e-13 -2.245904128649e-14
339 2 8.833129741771e-03 3.649772958067e-03 7.330242668584e-03 -5.638064449052e-11 4.227851808502e-11 1.082789600105e-11 4.094354282161e-09 1.536753511127e-08 -6.890688161968e-09 1.000000000000e-03 1.047197551197e-05 4.440079477971e-14 -7.823203766573e-14 4.599031096796e-14
340 2 1.204412817823e-02 1.666687562413e-03 1.380578594960e-02 -3.165249163838e-12 5.435426370430e-11 1.196746408238e-11 -1.205798950191e-07 3.277708771397e-08 2.535811134085e-08 1.000000000000e-03 1.047197551197e-05 2.534286994103e-13 5.194594358251e-13 -3.829022422612e-13
341 2 6.538853475326e-03 5.509906828476e-03 9.285254652058e-03 -6.964193794808e-11 6.659128259186e-11 9.094195526312e-12 3.554768553334e-08 -6.699597019540e-09 8.703975160872e-09 1.000000000000e-03 1.047197551197e-05 -7.182361999252e-13 2.756990481230e-13 1.657121343940e-13
342 2 1.625031346473e-04 4.802899141875e-03 1.162427230087e-02 -7.725849840977e-11 4.344035236812e-11 1.295388871401e-11 8.354266521128e-09 1.722243225564e-08 3.431052065944e-09 1.000000000000e-03 1.047197551197e-05 2.048951322442e-13 3.379310018653e-15 -1.071084268553e-13
343 2 1.280723858362e-02 3.517388688804e-03 8.845243390853e-03 -6.395385925142e-11 4.214179490825e-11 1.300998022818e-11 -2.276659387756e-09 -4.317016365294e-09 6.868223508949e-09 1.000000000000e-03 1.047197551197e-05 -2.834591185854e-13 5.137418409254e-14 -8.871920052285e-14
344 2 1.096388529326e-02 5.224121515806e-03 1.356249787094e-02 -2.708715069512e-11 -1.924975697972e-11 5.835933617261e-12 1.383437883997e-08 3.886925153659e-08 4.317899691382e-08 1.000000000000e-03 1.047197551197e-05 -1.742564388712e-13 -1.295046546297e-13 4.162682579548e-15
345 2 1.300187115965e-02 6.027054260517e-03 1.343666941945e-02 -8.191078344559e-11 3.262169428250e-11 7.701931781484e-12 -9.069954395430e-09 9.655391995766e-09 6.742985747642e-09 1.000000000000e-03 1.047197551197e-05 1.842816315096e-13 -7.663340342560e-13 -3.995635687518e-13
346 2 1.098252935037e-02 2.857170870929e-03 1.040885599663e-02 -7.372436285436e-11 3.884216059092e-11 -9.438787507804e-12 4.553931583920e-08 9.832846912522e-09 6.753862304608e-09 1.000000000000e-03 1.047197551197e-05 -5.241065147189e-14 -1.648348987878e-13 7.242630792612e-14
347 2 7.100541231871e-04 4.725048630920e-03 1.448304721889e-02 -2.187655913291e-11 2.489497219686e-11 -1.343716086724e-13 1.637707315396e-08 1.000974434607e-08 -1.090902608716e-07 1.000000000000e-03 1.047197551197e-05 6.187244617174e-13 -9.213751953167e-13 -1.207931294493e-13
348 2 7.527106235141e-04 5.918977757414e-03 9.996965691992e-03 -5.687521783758e-11 5.307737316212e-11 1.251822616853e-11 1.846745581469e-08 -1.053603940515e-08 6.859317091085e-09 1.000000000000e-03 1.047197551197e-05 1.400931534187e-13 -1.305589601010e-13 -7.350208783995e-14
349 2 7.328436976606e-03 3.658304869125e-03 1.253694295463e-02 -3.012032983202e-11 2.447451290959e-11 5.877712807312e-11 9.072344437712e-08 1.811611140735e-07 4.796124026764e-08 1.000000000000e-03 1.047197551197e-05 -9.546139934287e-14 -2.183319491653e-13 5.726109574544e-14
350 2 1.145105055861e-02 1.819405470899e-03 8.744834760785e-03 -2.226010303003e-09 -9.942404914375e-10 -3.690535467010e-09 -2.605448781487e+01 -5.147047625853e+00 2.044401871818e+01 1.000000000000e-03 1.047197551197e-05 2.148842429820e-12 9.597736742581e-13 3.562597860397e-12
351 2 6.496600233295e-03 1.325462796971e-03 8.495118240510e-03 -5.855287991285e-11 5.027788923973e-11 1.186248874812e-11 3.011277571410e-09 -1.149174763209e-08 -7.132519569353e-10 1.000000000000e-03 1.047197551197e-05 -6.862665552713e-15 3.358338160644e-14 -3.550586409705e-13
352 2 1.465409967209e-02 4.037148919575e-03 8.330471440875e-03 -5.893579832751e-11 4.482344813474e-11 1.673842455559e-11 -1.478045524099e-08 -8.978533593034e-09 3.737458117959e-09 1.000000000000e-03 1.047197551197e-05 3.591091377203e-14 8.762499840958e-14 2.106430889555e-13
353 2 1.233797285798e-02 4.464447097966e-03 1.449226487487e-02 -8.972351901359e-12 -4.058465828032e-11 -4.333888860386e-12 -4.098851020080e-08 1.002778875406e-09 -8.296505031195e-08 1.000000000000e-03 1.047197551197e-05 -5.387976946030e-13 -1.247516131661e-13 1.107061913371e-14
354 2 9.152164193462e-03 3.255865731696e-03 9.919088922639e-03 -8.836849958002e-11 3.446425717330e-11 2.052929201839e-11 4.124492647416e-08 2.114264957892e-09 3.192671870282e-08 1.000000000000e-03 1.047197551197e-05 -2.958773844732e-13 -2.760311271888e-13 3.301189384013e-13
355 2 8.630802831632e-03 2.055074800327e-03 8.436078701579e-03 -6.677203968898e-11 5.016720569548e-11 -1.671976130531e-13 3.139456104090e-09 -9.883574629154e-09 -2.178028261858e-09 1.000000000000e-03 1.047197551197e-05 -2.057090876722e-13 -6.752182666635e-14 2.103214543896e-13
356 2 8.527214604220e-03 5.072222525121e-03 1.291567128427e-02 -3.036010613202e-11 4.905756843355e-11 -4.419129266413e-12 4.394550750100e-09 4.879672990411e-08 1.760687208228e-08 1.000000000000e-03 1.047197551197e-05 -3.995594278834e-14 -1.418698092262e-13 -7.234207101516e-14
357 2 7.071107743589e-03 2.254190795676e-03 1.385576546091e-02 -1.061260252597e-10 -8.280284137239e-12 4.473066619059e-11 -2.124742156530e-09 4.605216364174e-08 -4.293724459997e-07 1.000000000000e-03 1.047197551197e-05 -1.529320939998e-13 -2.021184951664e-13 -3.725360675897e-13
358 2 1.270050040574e-02 3.722341400727e-03 1.066947173575e-02 -7.813922951760e-11 3.828597732515e-11 1.805922396935e-11 1.009937449173e-08 -8.369688395413e-09 -3.256614301894e-09 1.000000000000e-03 1.047197551197e-05 -1.080656132090e-13 -3.503815414853e-13 -5.643437856026e-13
359 2 1.355025976893e-02 2.443965206684e-03 1.154797384082e-02 -7.372578733015e-11 3.719384267449e-11 1.553350136729e-11 7.762760141881e-09 -1.114562764022e-08 2.012837999293e-08 1.000000000000e-03 1.047197551197e-05 9.033148209499e-15 4.814803345053e-14 -9.771902163281e-14
360 2 1.010811471284e-02 4.469882421989e-03 1.113488028005e-02 -8.006681832082e-11 4.085347449007e-11 1.179289688948e-11 -3.726371323181e-08 6.080950591351e-09 -7.772308281861e-09 1.000000000000e-03 1.047197551197e-05 -5.540822785955e-14 1.296996507411e-14 1.687654888439e-13
361 2 1.379070066900e-02 2.918569443623e-03 1.324901857981e-02 3.192816941982e-11 1.271238684342e-11 4.337776046061e-12 2.254975757344e-08 1.319321879165e-07 2.074648861044e-08 1.000000000000e-03 1.047197551197e-05 1.829909078362e-13 -3.638678075692e-13 -3.990858536088e-14
362 2 8.572215264805e-05 2.863824541116e-03 1.444372084927e-02 2.255140757103e-11 4.056806095982e-12 -4.332321425927e-12 -7.535873831998e-09 -9.461602640602e-09 1.710794276852e-07 1.000000000000e-03 1.047197551197e-05 1.415564022845e-12 -5.956534647590e-13 -2.342495662145e-14
363 2 1.384408816423e-02 1.784421252596e-03 1.458920832874e-02 2.260460247575e-11 -4.232448566416e-12 -4.335486476135e-12 -4.887866929478e-09 -1.984900088677e-08 -1.570490184542e-07 1.000000000000e-03 1.047197551197e-05 1.985958412725e-13 -1.843341863124e-13 4.562828078182e-15
364 2 1.312799548015e-02 5.917513426832e-03 1.095997202587e-02 -6.244962213263e-11 3.926249880538e-11 1.301893836361e-11 1.992198806998e-08 -2.015574867797e-08 8.732140839426e-09 1.000000000000e-03 1.047197551197e-05 -7.154559712001e-15 -1.965878457225e-13 -1.013954830855e-13
365 2 3.382505156714e-04 3.562628654027e-03 1.020261722810e-02 -6.261744798012e-11 5.109995572693e-11 4.381914886221e-12 4.880001618958e-09 -1.700472286584e-08 1.563363632069e-08 1.000000000000e-03 1.047197551197e-05 3.706447463482e-13 3.806335816258e-15 -7.194596358649e-13
366 2 8.116277029120e-03 6.137027256323e-03 1.016190297385e-02 -6.507721440768e-11 4.681891896495e-11 1.300960078790e-11 1.311620980593e-08 1.121825990216e-08 -8.009270394437e-09 1.000000000000e-03 1.047197551197e-05 -3.894113598118e-13 1.087132459626e-13 3.383786534634e-14
367 2 1.492228325633e-02 5.649910034795e-03 1.323274633929e-02 -8.445647742711e-11 4.085892008850e-11 2.773228703336e-11 -1.126289085082e-08 -2.684775491944e-08 -2.921228890420e-09 1.000000000000e-03 1.047197551197e-05 7.454085674494e-13 -8.231219403662e-13 -1.207357356577e-12
368 2 1.302767202792e-02 1.532639757927e-02 1.439651533738e-02 -1.809198298654e-11 1.450192948099e-11 4.332756250906e-12 1.416807992046e-08 1.736310476131e-08 -3.225570049679e-08 1.000000000000e-03 1.047197551197e-05 -5.631465389913e-14 2.853720273905e-13 -1.445779522819e-14
369 2 1.192123104344e-02 5.056479321821e-03 1.202586111310e-02 -6.834800019007e-11 2.199484572012e-11 -1.247229056750e-11 9.980057684117e-09 2.514228266013e-09 -3.825742968425e-09 1.000000000000e-03 1.047197551197e-05 1.555415227438e-13 -4.133083611978e-13 1.262464029179e-13
370 2 1.099594373208e-03 4.640286793826e-03 8.801795603818e-03 -5.806458815589e-11 4.397065862545e-11 4.333556440321e-12 -1.590981199765e-08 4.268254157803e-09 -1.855769746314e-08 1.000000000000e-03 1.047197551197e-05 3.021932039419e-14 3.448038944891e-13 2.076633897114e-13
371 2 8.166625663919e-03 4.609553942968e-03 8.922141813335e-03 -7.618771046681e-11 4.987568158051e-11 1.834925023951e-11 -1.644001221886e-08 -7.646561783969e-09 -2.404787858261e-08 1.000000000000e-03 1.047197551197e-05 -3.478970948317e-13 2.327916010185e-14 3.975226932547e-14
372 2 1.365955105948e-02 9.909364478625e-04 1.284718625330e-02 -3.803512355928e-11 2.389510983299e-11 4.336972082738e-12 9.835614087827e-09 2.343145433202e-08 1.205535143129e-08 1.000000000000e-03 1.047197551197e-05 3.325447556198e-14 -5.137484164762e-14 2.279275377738e-14
373 2 1.022951604217e-02 7.854501446635e-03 2.754436268555e-03 -1.350185299579e-11 2.167556434436e-11 -7.520639109413e-12 -1.233494205319e-08 -1.948200809522e-08 -8.327912994720e-09 1.000000000000e-03 1.047197551197e-05 1.644020570742e-13 -1.103074833908e-13 1.564676515285e-13
374 2 8.410500513492e-03 8.827594251244e-03 8.702427837450e-04 -1.909493731481e-11 1.061436406358e-11 6.294247939507e-12 -9.304421285799e-09 -1.552420340971e-08 -9.423888644996e-09 1.000000000000e-03 1.047197551197e-05 1.216442843145e-13 -1.375707867507e-13 8.519610098164e-14
375 2 9.329663077429e-03 1.251745234561e-02 2.668053962496e-03 -2.184734332117e-11 3.231831690620e-11 7.207256855891e-12 1.445126741115e-08 -3.346723817085e-09 1.329149800729e-08 1.000000000000e-03 1.047197551197e-05 2.866377011521e-13 -2.996302303195e-13 -1.908295690751e-14
376 2 1.482409272666e-02 1.289841153994e-02 4.420984679598e-03 -3.455743729080e-11 3.036254541974e-11 3.363782834770e-12 -6.826352528289e-09 2.197292760939e-09 -1.932242882904e-10 1.000000000000e-03 1.047197551197e-05 2.416845755299e-13 -3.152153782811e-14 3.569082396061e-13
377 2 1.101782150954e-02 9.823605638357e-03 4.666868739071e-03 -3.225612399400e-11 3.033501746549e-11 2.579830940644e-12 7.127003827685e-09 -6.234414148643e-09 1.338320991050e-09 1.000000000000e-03 1.047197551197e-05 2.999893534580e-13 1.876907146944e-14 -2.262246996304e-13
378 2 1.513223404240e-02 6.071001294501e-04 2.971998919372e-03 -3.820168143592e-11 9.696845813216e-12 1.418813897256e-11 -5.670322401449e-09 -9.188450558777e-09 -1.205199254905e-08 1.000000000000e-03 1.047197551197e-05 2.005329778415e-13 2.607159042404e-14 1.163470710111e-13
379 2 9.551852343941e-03 9.420528402003e-03 2.254527593347e-03 -3.033161381860e-11 1.299016594031e-11 5.588697605460e-12 2.448455500536e-08 2.025008000456e-08 3.150090272089e-08 1.000000000000e-03 1.047197551197e-05 4.699502982676e-15 -8.720817359706e-14 -4.206354215654e-15
380 2 9.152903946426e-03 5.448865222103e-04 1.456820083712e-03 -3.035775885778e-11 2.591497937838e-11 4.354573158881e-12 -1.295403544673e-09 -5.472379741842e-09 1.662136173614e-09 1.000000000000e-03 1.047197551197e-05 3.932149157331e-14 -1.079210664763e-13 -1.240471915205e-13
381 2 1.531405413153e-02 9.721224319161e-03 2.450864870250e-03 -2.240615746823e-11 2.295085361110e-11 1.296516141098e-12 -1.549712902319e-08 -1.204540290646e-08 6.350838743172e-09 1.000000000000e-03 1.047197551197e-05 4.650916152587e-13 8.353621805900e-14 -9.732604131412e-14
382 2 1.026751491743e-02 1.116045750873e-02 3.591395853234e-03 -2.166429348184e-11 3.036167693520e-11 3.943987812310e-12 -4.988034204085e-09 -1.528881014634e-09 -6.515966673735e-09 1.000000000000e-03 1.047197551197e-05 2.783331470588e-14 5.085599034389e-14 -1.462648299733e-13
383 2 5.654030548395e-04 3.543549460724e-04 6.909789208224e-03 -3.325202733484e-11 3.881994750088e-11 -6.873769177692e-12 -1.161963095237e-08 -8.492493859025e-09 -3.599113302492e-10 1.000000000000e-03 1.047197551197e-05 1.301884561573e-13 -5.665216084236e-13 2.148566489768e-14
384 2 1.465282264207e-02 6.766621064364e-03 2.579725047016e-03 -2.598529167457e-11 2.122545523444e-11 3.193763566885e-12 -1.603815540282e-08 -2.504850186329e-09 1.736674424440e-09 1.000000000000e-03 1.047197551197e-05 2.588981058122e-13 1.349443036926e-13 -2.407873958598e-13
385 2 1.115462713612e-02 2.494806807441e-04 8.307348409313e-04 -2.145937151924e-11 1.515584227676e-11 9.033542478948e-13 -1.609739998908e-08 -2.167217909673e-08 6.189917291251e-09 1.000000000000e-03 1.047197551197e-05 -2.993095680647e-13 -4.046954042076e-14 1.048283621770e-14
386 2 6.905922580493e-03 1.185848118849e-02 5.449970811625e-03 -3.874949414254e-11 4.277792620104e-11 6.497358274330e-12 4.211096310758e-09 -9.049054473666e-09 6.455564562104e-09 1.000000000000e-03 1.047197551197e-05 2.122626739698e-13 -5.422850862619e-13 -1.403885426156e-13
387 2 1.416872348145e-02 9.461515055008e-04 6.432627056005e-03 -4.450995663085e-11 4.416848926242e-11 1.083566273173e-11 -9.196248407584e-09 1.927806395039e-09 1.553243747536e-08 1.000000000000e-03 1.047197551197e-05 2.509285130998e-13 2.085393347418e-13 2.432715261471e-13
388 2 6.299390186591e-03 1.075881534010e-02 4.056668822003e-03 -2.818766635870e-11 2.168206586802e-11 1.277936044485e-11 -1.926023437314e-08 1.005724351992e-08 1.134295541212e-08 1.000000000000e-03 1.047197551197e-05 -4.281858768898e-14 5.284503725428e-14 4.706705873932e-13
389 2 8.208092227299e-03 1.267534214203e-02 4.264181091945e-03 -2.889336922939e-11 3.499326185524e-11 7.603952749048e-12 -1.373889563167e-08 -5.375206700436e-09 -9.495067701332e-09 1.000000000000e-03 1.047197551197e-05 -3.731252029698e-14 -3.534807678646e-13 1.908907220269e-14
390 2 1.156860259571e-03 7.735462849061e-03 6.248960765561e-03 -4.636428519048e-11 3.179024737524e-11 3.377376455573e-12 -1.725029314264e-09 -2.310720987588e-08 -3.851416251577e-09 1.000000000000e-03 1.047197551197e-05 -1.127552866680e-13 1.984859231520e-14 -8.702136357549e-14
391 2 1.163470011751e-02 1.232313085783e-02 2.902545103174e-03 -3.035309843380e-11 3.060025716112e-11 8.914190986077e-12 5.170258964988e-09 -6.878439434115e-10 1.073818939128e-08 1.000000000000e-03 1.047197551197e-05 -4.123913607616e-15 1.068487167621e-13 3.076102027616e-13
392 2 1.201194377605e-03 1.422262587989e-02 2.928807071871e-03 -2.436466363650e-11 2.167943486725e-11 -6.837388823692e-12 -1.626986236349e-08 4.579147803732e-09 -7.268869825164e-09 1.000000000000e-03 1.047197551197e-05 2.262561358911e-13 6.419344893620e-14 1.068580183625e-13
393 2 1.231344892913e-02 1.145240728837e-02 1.149126013435e-03 -2.929049240836e-11 1.192786156304e-11 -1.081126570524e-12 1.742897583630e-09 3.188254009679e-08 -2.085498294071e-08 1.000000000000e-03 1.047197551197e-05 2.352090168411e-14 3.551761526904e-13 4.471999343092e-14
394 2 8.750273149272e-03 1.470753361050e-02 4.774415758704e-03 -3.453330962411e-11 3.903121085966e-11 6.505757862374e-12 -2.157366032562e-09 1.453937432172e-09 4.825181398455e-10 1.000000000000e-03 1.047197551197e-05 1.243904960957e-13 3.709585235872e-14 -2.998975357703e-14
395 2 8.513490257750e-03 1.306730179056e-02 9.569087562054e-04 -1.299569999317e-11 1.505907455351e-11 5.789276295580e-12 -1.181364561739e-08 -1.123763306388e-08 1.635713798264e-08 1.000000000000e-03 1.047197551197e-05 3.073759978283e-14 7.076007724034e-14 -1.320224007988e-13
396 2 1.007287178768e-02 2.595129375639e-04 6.251083537198e-03 -4.770422216018e-11 3.332377304376e-11 1.042597785476e-11 -8.125180607361e-09 -2.314752226144e-09 2.725983187336e-09 1.000000000000e-03 1.047197551197e-05 -1.865363591517e-14 8.806801085693e-14 2.079368401535e-14
397 2 7.664689984894e-03 1.502934726119e-02 8.641755506847e-04 -1.164411466284e-11 1.037234361512e-11 8.655865280143e-13 -1.055454543080e-08 -9.184608806302e-09 1.245423854966e-08 1.000000000000e-03 1.047197551197e-05 1.120270168604e-13 1.235662967044e-13 1.315193398174e-14
398 2 1.510347409017e-02 1.447215492263e-02 1.752130598393e-03 -2.783288910227e-11 1.699213923481e-11 1.607152161511e-12 2.200250623331e-08 3.021884835004e-09 1.916551074803e-08 1.000000000000e-03 1.047197551197e-05 7.717049686926e-13 -5.413714275496e-14 1.176189916835e-13
399 2 1.217313469668e-02 1.441798891522e-02 3.995453070327e-03 -3.247414811123e-11 3.035459180382e-11 2.415653488550e-12 5.952285544457e-09 -3.120482433517e-09 6.624113512316e-09 1.000000000000e-03 1.047197551197e-05 6.142192659985e-13 1.000315077230e-14 -6.936660902883e-14
400 2 7.632950873487e-03 1.251701713568e-02 7.119352577701e-03 -4.963844270253e-11 3.902785138447e-11 9.366494536984e-12 -1.593415062218e-09 4.803086858426e-09 -2.014095592495e-09 1.000000000000e-03 1.047197551197e-05 2.356294178937e-13 -1.879886068824e-14 1.063956560019e-13
401 3 9.798107608359e-03 1.106841789403e-02 1.103727598611e-03 -3.332217422729e-11 2.167852716410e-11 7.053858269126e-12 -1.495316707834e-08 -2.601882522529e-08 -1.511142928435e-08 1.250000000000e-03 2.045307717181e-05 1.036227732884e-12 -8.399822904318e-14 1.893293111703e-14
402 3 8.282934538718e-03 1.032590651841e-02 3.669287914547e-03 -2.840469357316e-11 3.205532862049e-11 2.957899394999e-12 7.960384036094e-09 -5.046318029513e-10 1.440212369071e-09 1.250000000000e-03 2.045307717181e-05 1.077962235803e-12 -8.776022155780e-13 -8.024054669881e-15
403 3 1.197539295925e-04 1.090671515520e-02 4.108374138726e-03 -3.496480677435e-11 3.108491485001e-11 3.060545654077e-14 5.948839676699e-09 2.799892085192e-09 1.648826910930e-09 1.250000000000e-03 2.045307717181e-05 4.379748698607e-13 4.331096766576e-13 5.155546515782e-13
404 3 1.450281362560e-02 1.167702664041e-02 1.195039511411e-03 -3.035749603627e-11 1.323486696202e-11 -1.762820960311e-12 -1.011312197643e-08 -2.487893335873e-08 1.940840532827e-08 1.250000000000e-03 2.045307717181e-05 -5.766524823303e-14 -6.366449052931e-14 8.228643765834e-14
405 3 9.163541045315e-03 8.686256181353e-03 5.002540700461e-03 -3.319388035823e-11 3.035704859163e-11 1.080927198352e-12 -1.758954052823e-09 -1.167416712788e-10 -3.436680916856e-09 1.250000000000e-03 2.045307717181e-05 4.472376917477e-13 3.491154028392e-14 -6.186536965837e-13
406 3 8.224390675389e-03 1.432319613997e-02 2.750898501492e-03 -3.042777437249e-11 3.035694842701e-11 7.587820047014e-12 -5.434993532118e-09 -4.209621127391e-09 -4.984241291785e-09 1.250000000000e-03 2.045307717181e-05 1.900412689066e-13 2.325851754441e-14 2.354816286238e-14
407 3 6.600337019096e-04 8.094102550087e-03 3.715078950133e-03 -2.939070481851e-11 3.035728499822e-11 5.646471206605e-12 7.472758294655e-09 -1.919069915268e-09 -7.906126548158e-10 1.250000000000e-03 2.045307717181e-05 1.518187840719e-13 -8.820758163895e-15 2.130572545889e-13
408 3 1.423403419221e-03 1.142009975120e-02 5.974744370791e-03 -3.554268338304e-11 3.675297945262e-11 2.517472882123e-12 -5.272064864689e-09 -2.393725647023e-09 3.751178808886e-09 1.250000000000e-03 2.045307717181e-05 -1.255130954532e-14 2.605423068417e-13 -2.305261611644e-14
409 3 6.930642108779e-03 8.921680269964e-03 2.406571037952e-03 -2.428346857960e-11 2.994920500032e-11 5.463590139777e-12 -1.064820809748e-08 2.110832453647e-09 3.216648126788e-09 1.250000000000e-03 2.045307717181e-05 2.036149800103e-13 -1.615993286740e-13 3.047225708365e-14
410 3 1.088015065790e-02 1.312115655253e-02 1.088609289289e-03 -1.914652204510e-11 1.617187128309e-11 2.580412624332e-12 -1.027641380140e-08 -1.430306524063e-08 4.658697176589e-09 1.250000000000e-03 2.045307717181e-05 1.248116676273e-13 -3.763916138468e-13 1.559261171656e-13
411 3 1.060428571718e-02 1.479179661275e-02 2.618891639510e-03 -3.405676369651e-11 2.583874069510e-11 2.537938019874e-12 2.210168159669e-09 3.038146722657e-09 1.279612425109e-09 1.250000000000e-03 2.045307717181e-05 -2.262513193505e-13 -2.769660396791e-13 1.337394220180e-13
412 3 1.036316035466e-02 1.327596813102e-02 4.427842277054e-03 -3.257606370219e-11 3.035741905608e-11 7.741345906066e-12 -6.559806422115e-09 1.135617631829e-09 -3.920710743111e-09 1.250000000000e-03 2.045307717181e-05 5.143857495988e-13 -9.558500329434e-14 5.367393903006e-14
413 3 6.914092626928e-03 8.382793523236e-03 5.928097111655e-03 -3.686392491931e-11 4.473416055667e-11 5.447981359538e-12 6.481655590925e-09 -5.839306535206e-10 -9.398342072303e-09 1.250000000000e-03 2.045307717181e-05 3.177587545740e-14 4.471391590205e-14 1.550234755873e-13
414 3 1.353183353701e-02 1.332780956266e-02 2.684947414723e-03 -3.015714497349e-11 1.745396732796e-11 4.062196672230e-12 -1.447336738336e-08 5.348401798278e-10 -1.497460267185e-08 1.250000000000e-03 2.045307717181e-05 2.680991026347e-13 2.761518367994e-14 1.104390142551e-12
415 3 1.245679443407e-02 1.309770448110e-02 5.640533670500e-03 -3.888160797639e-11 3.299695928990e-11 6.639378602902e-12 -5.509179532086e-09 -2.399480311158e-09 2.169681746031e-11 1.250000000000e-03 2.045307717181e-05 1.435597476851e-13 7.983055210128e-13 2.165748868944e-13
416 3 6.235242144532e-03 1.277505099454e-02 1.139157120058e-03 -1.093456873365e-11 1.301045701969e-11 4.085125732886e-12 -7.467885802287e-09 -5.268743098302e-09 -5.250251358086e-09 1.250000000000e-03 2.045307717181e-05 -6.888316753588e-14 1.711658608965e-14 1.515594301240e-14
417 3 1.412870400357e-02 1.489064404314e-02 4.731298807461e-03 -3.643764979542e-11 3.190326946370e-11 7.017588753637e-12 5.976695454019e-09 3.525920639148e-09 2.448457316404e-09 1.250000000000e-03 2.045307717181e-05 3.283693642472e-13 -9.898708703760e-14 5.707663832924e-13
418 3 1.352656331818e-02 9.506700896378e-03 1.113026048103e-03 -1.304991210416e-11 8.325703076256e-12 -1.011220678592e-12 -5.777896535612e-09 -7.313567109928e-09 -7.228528204386e-09 1.250000000000e-03 2.045307717181e-05 1.045581748885e-13 5.147427137867e-13 4.450647190992e-13
419 3 9.958283646222e-03 1.139670803236e-02 5.813138084271e-03 -3.760362133020e-11 3.036606587641e-11 8.560508876266e-12 4.777624891939e-09 1.722734447559e-09 -1.971309644689e-09 1.250000000000e-03 2.045307717181e-05 3.199391403495e-13 1.123044965261e-13 9.421424607304e-14
420 3 1.166828818147e-02 9.866829116466e-03 2.564794555998e-03 -2.619581859565e-11 2.168472680289e-11 3.069785263939e-12 2.647330217571e-09 2.038799491707e-09 -4.166659310013e-09 1.250000000000e-03 2.045307717181e-05 1.689513652740e-12 -4.949746040987e-14 -4.474323325910e-13
421 3 1.384348103408e-02 9.112414162000e-03 3.808483646039e-03 -3.163970858695e-11 3.035644712306e-11 -1.179955886542e-12 -3.632795265979e-09 -2.363419705748e-09 1.207343147023e-09 1.250000000000e-03 2.045307717181e-05 6.440794987116e-13 1.037812060392e-15 1.362698718669e-13
422 3 9.294090361690e-03 1.366822159315e-02 6.557893908560e-03 -4.023086472087e-11 3.902171065420e-11 1.084401882306e-11 1.354315795896e-09 -7.028499577510e-09 1.340245380261e-09 1.250000000000e-03 2.045307717181e-05 3.344923807542e-13 -5.596296480924e-15 -9.794049741276e-15
423 3 1.183660153870e-02 7.931229401112e-03 4.086733192618e-03 -3.039063256886e-11 3.015045929034e-11 2.122338901872e-12 -4.941723946230e-09 4.347521968822e-10 -8.170561994348e-10 1.250000000000e-03 2.045307717181e-05 -1.845039923891e-13 1.046208995272e-13 -3.115291203452e-13
424 3 5.255521206637e-04 1.366273168570e-02 6.171539939736e-03 -3.507522842673e-11 3.285577932060e-11 2.160687804898e-12 7.981161599762e-10 -8.039971627072e-10 -1.903393115974e-09 1.250000000000e-03 2.045307717181e-05 6.923357517785e-13 7.572808868433e-13 1.091376727118e-15
425 3 1.038169065853e-03 2.408951847824e-04 4.792570545614e-03 -3.138244394393e-11 3.006199407174e-11 -2.782468626731e-12 1.159447084015e-09 5.600141446337e-09 -4.099758993709e-09 1.250000000000e-03 2.045307717181e-05 3.174061430238e-13 2.884312948645e-13 -1.028527832526e-13
426 3 1.303696883455e-02 1.130548874841e-02 4.187937920383e-03 -3.281852074809e-11 3.044018361202e-11 3.470959079812e-12 8.038065140447e-09 -5.841393431694e-09 -1.003522422896e-09 1.250000000000e-03 2.045307717181e-05 3.301564109368e-14 1.550714273283e-13 4.962500854886e-13
427 3 7.977894505558e-03 1.034993693836e-02 6.819985364543e-03 -3.902741912181e-11 4.335572270337e-11 1.363629747120e-11 -1.220840363393e-09 -2.250503584728e-09 1.057673595667e-08 1.250000000000e-03 2.045307717181e-05 -7.782732190882e-14 9.634637214101e-14 -1.214050515572e-13
428 3 1.455233957102e-02 1.435839579915e-02 1.305975982380e-02 -3.035868046694e-11 3.035572751126e-11 1.599234129702e-12 -6.143049031333e-09 -1.729221194746e-08 -1.004605818910e-09 1.250000000000e-03 2.045307717181e-05 -1.248227261671e-13 3.709863023697e-14 -1.354398261177e-13
429 3 9.498550032538e-03 1.095279614270e-02 1.082330246013e-02 -6.474973271069e-11 4.396450632052e-11 1.313159858941e-11 -2.652953270294e-08 -8.135021732420e-10 -1.594524662580e-08 1.250000000000e-03 2.045307717181e-05 4.237988584742e-13 -8.695306837712e-13 -6.653369563608e-13
430 3 1.445032678715e-02 7.645493703246e-03 1.401440594871e-02 -7.220696318036e-11 3.880567143090e-11 -8.048222785078e-12 -5.147465247550e-09 -4.330419793295e-08 -3.035732039948e-08 1.250000000000e-03 2.045307717181e-05 -3.866784530203e-13 1.956609886263e-12 1.183515134055e-12
431 3 1.279437608095e-02 1.131849210126e-02 1.226587792618e-02 -4.655422534063e-11 4.720620808418e-11 4.346094266549e-12 1.629000964049e-08 1.352815769855e-08 -1.157240120571e-08 1.250000000000e-03 2.045307717181e-05 -3.173254610240e-14 -4.337066484111e-13 1.027887731603e-13
432 3 8.243187694267e-03 6.687028690106e-03 1.434941719345e-02 -2.546493101557e-11 2.160422569080e-12 -4.552085144508e-12 1.726376071858e-09 1.060931755240e-08 4.692400065299e-08 1.250000000000e-03 2.045307717181e-05 -9.788325540390e-13 1.619568452606e-13 1.888473205253e-13
433 3 6.959651503901e-03 1.445015670514e-02 7.757013946590e-03 -4.986146773976e-11 4.735719140155e-11 1.084219766168e-11 -5.254971635983e-09 2.698371593416e-09 4.291780250297e-09 1.250000000000e-03 2.045307717181e-05 -1.122742933027e-13 -4.046941244694e-13 -3.954699104396e-14
434 3 1.503407846396e-02 1.099662198429e-02 1.025938319119e-02 -5.217143403398e-11 3.902942442905e-11 6.846307241426e-12 7.885661843959e-09 -2.003024467098e-09 -7.006125732116e-09 1.250000000000e-03 2.045307717181e-05 -1.389179434642e-13 1.087659248216e-14 4.160257428300e-13
435 3 6.999422594266e-04 7.797994417534e-03 8.385165998192e-03 -5.423648682455e-11 3.949313084453e-11 -2.742023111954e-12 -1.062440481310e-09 2.155935987671e-08 -9.697782552914e-09 1.250000000000e-03 2.045307717181e-05 2.053955782098e-13 -4.427964799265e-13 -2.279033957192e-13
436 3 9.632147315176e-03 1.259411697065e-02 1.417503113087e-02 -3.185367825881e-11 2.255598544770e-11 4.336280980770e-12 -2.239878929902e-08 -9.484292605587e-09 1.878009932874e-08 1.250000000000e-03 2.045307717181e-05 3.688013059085e-13 -3.121947573657e-13 6.245317765092e-15
437 3 7.514220985642e-03 1.237788967018e-02 1.056070074567e-02 -4.983832322171e-11 3.903162530480e-11 4.338080526051e-12 -2.045043711849e-09 1.122571350569e-08 4.577317102581e-09 1.250000000000e-03 2.045307717181e-05 6.264673934770e-14 8.838919772022e-14 -1.492820417111e-14
438 3 9.374829442552e-03 9.289071039834e-03 9.129584253453e-03 -6.440932610642e-11 3.195339919480e-11 1.299351397575e-11 4.205653422653e-09 -2.793356998224e-09 4.112592929008e-09 1.250000000000e-03 2.045307717181e-05 3.855206354119e-13 1.365538734323e-14 -1.216477047308e-14
439 3 8.299092323686e-03 6.524978541117e-03 5.666425900451e-03 -3.903191384600e-11 3.349698133248e-11 1.341570496309e-12 -1.915534388487e-10 -2.273300454403e-09 1.041080557875e-09 1.250000000000e-03 2.045307717181e-05 -1.802800818740e-14 1.023683675694e-13 1.690164722990e-13
440 3 1.252339755801e-02 1.279795669558e-02 8.609290831166e-03 -4.951628080295e-11 3.903168274608e-11 7.586548394441e-12 3.570002467232e-09 -2.635308770088e-09 -1.071497497318e-09 1.250000000000e-03 2.045307717181e-05 8.185569494388e-13 3.152979102658e-15 -2.029764333634e-13
441 3 9.129753628896e-04 6.826759681855e-04 1.267264004609e-02 -3.082068198065e-11 4.238842461155e-11 -1.012845876680e-11 1.072821518600e-10 3.230424029147e-08 3.751656266781e-09 1.250000000000e-03 2.045307717181e-05 -2.587193771412e-13 5.670351380149e-13 -1.199971216898e-12
442 3 1.147418041117e-02 1.449796324620e-02 7.379404125210e-03 -4.583019696254e-11 4.012868868338e-11 1.215015476958e-11 1.227260685305e-09 3.588610708878e-09 -8.922685973342e-10 1.250000000000e-03 2.045307717181e-05 8.152103042443e-13 2.451783492795e-13 2.805921254321e-13
443 3 8.845932827344e-03 7.620260434748e-05 1.200692251794e-02 -7.368612086741e-11 4.696283186801e-11 1.087999615624e-11 -3.204549887455e-08 5.017698188404e-09 1.186583576734e-08 1.250000000000e-03 2.045307717181e-05 2.672028908478e-14 -2.519615646740e-13 -3.772973406579e-14
444 3 1.494176896076e-02 9.277080932508e-03 6.002087142367e-03 -3.906309487481e-11 3.459416178354e-11 -2.076947686817e-12 5.031530942633e-09 -1.096972734178e-09 3.634915509468e-09 1.250000000000e-03 2.045307717181e-05 5.126551064918e-14 -2.976187615971e-13 1.157953289304e-14
445 3 6.592725728661e-03 1.143390774941e-02 8.528279059990e-03 -5.158449516237e-11 4.396176085027e-11 1.293929348661e-11 -1.129526409267e-09 -3.781426378300e-09 -3.842063494214e-09 1.250000000000e-03 2.045307717181e-05 2.778228896545e-13 4.873664487718e-14 1.747463179263e-14
446 3 8.066003413972e-03 1.462040805396e-02 9.942761856312e-03 -6.647244163806e-11 3.956866641640e-11 1.030437721148e-11 2.298235011195e-08 -9.746489164419e-09 -4.667303898961e-09 1.250000000000e-03 2.045307717181e-05 7.140063035047e-13 1.973513394033e-13 -6.421736366226e-13
447 3 6.152823774153e-03 7.875641264124e-03 8.847302161152e-03 -5.421842016541e-11 4.342441956080e-11 3.118632178047e-12 2.388690276951e-09 -2.695988954391e-09 -1.915057702279e-08 1.250000000000e-03 2.045307717181e-05 -1.207279049120e-13 1.419847936060e-13 9.359299489621e-13
448 3 1.219834164160e-02 1.320643534058e-02 1.374521010655e-02 -2.284835688805e-11 2.783209282768e-11 4.924892552479e-11 2.337002417227e-08 1.283980660608e-08 3.656812163482e-09 1.250000000000e-03 2.045307717181e-05 -1.210212646051e-13 6.147067843833e-13 -2.505320207116e-13
449 3 6.162762156650e-03 8.384389176360e-03 1.143800422339e-02 -6.285780791549e-11 2.168508871297e-11 1.301064973944e-11 1.348893614054e-08 1.359016686454e-08 2.378382932837e-09 1.250000000000e-03 2.045307717181e-05 -2.624429223295e-13 -2.112582598991e-14 -7.597101031947e-14
450 3 1.386533672877e-02 1.152933218173e-02 1.426252068959e-02 -1.301048497341e-11 1.498047618676e-11 4.336886941516e-12 6.707801427761e-09 6.976942065154e-09 -8.898222428806e-10 1.250000000000e-03 2.045307717181e-05 1.108969017223e-14 -1.283171882447e-13 2.862216736646e-14
451 3 8.344792770167e-04 1.214814846343e-02 1.205155874070e-02 -4.276506525726e-11 4.109677622689e-11 -4.336462440481e-12 -1.767189209422e-08 4.957768469450e-09 -1.209280954040e-08 1.250000000000e-03 2.045307717181e-05 -1.561907766577e-13 -5.173043486571e-13 -1.039253581072e-14
452 3 1.399709207288e-02 1.301740252295e-02 1.099386895040e-02 -4.769344871054e-11 4.224517233915e-11 -5.403471770831e-12 -1.827219850292e-08 -3.490370592801e-09 1.160590950334e-09 1.250000000000e-03 2.045307717181e-05 -8.281920044643e-15 -2.643699395794e-13 6.542575536952e-14
453 3 1.121168141022e-02 7.022098779843e-03 1.258412589313e-02 -7.372594490817e-11 1.954453053272e-11 6.491258510786e-12 2.378158292052e-09 -9.103879561248e-09 -4.922714244682e-10 1.250000000000e-03 2.045307717181e-05 -3.388750110189e-13 -2.895190579493e-14 -8.105044647221e-13
454 3 1.437158968011e-02 1.168968450369e-02 6.239692918727e-03 -3.881162386823e-11 3.350347049847e-11 6.545083877129e-12 -4.866270108727e-09 4.926362973477e-09 -1.024641558104e-09 1.250000000000e-03 2.045307717181e-05 5.892230506610e-14 3.868527926500e-13 8.858595765879e-13
455 3 1.212995792524e-02 8.543385994689e-03 1.419905571289e-02 -5.868362838783e-11 2.140673960519e-11 4.249892891667e-12 1.634740565740e-08 4.806271302951e-08 2.591152703373e-08 1.250000000000e-03 2.045307717181e-05 4.255637510051e-13 -8.208535857922e-13 2.304880534072e-13
456 3 1.257226199172e-02 1.002844231429e-02 1.036877372491e-02 -6.452176695871e-11 4.346552844858e-11 8.459173055031e-13 -1.389249241817e-08 -3.097360161155e-09 3.335816618417e-09 1.250000000000e-03 2.045307717181e-05 2.671849301352e-14 -2.026511399606e-12 1.241677157748e-12
457 3 1.464968001541e-02 6.256884698361e-04 1.087657099129e-02 -5.639757543955e-11 5.150358933555e-11 8.655726618011e-12 9.895611003156e-09 -7.551276803138e-09 -1.289617997603e-09 1.250000000000e-03 2.045307717181e-05 -5.404766303432e-14 3.732594372802e-13 6.026588757376e-13
458 3 1.548735497246e-03 7.822440562920e-03 1.428343566829e-02 -8.607049647748e-11 3.794932909401e-11 -1.300786843277e-11 3.377988760784e-08 6.442130777448e-08 -2.321440995744e-08 1.250000000000e-03 2.045307717181e-05 3.444942407750e-13 2.200742141123e-13 -3.194049195530e-14
459 3 6.758335531686e-03 6.285333528106e-03 1.253207603501e-02 -8.028020575447e-11 1.416259545667e-12 1.906477610785e-12 1.170362303633e-08 4.376330959880e-08 -1.499796968893e-08 1.250000000000e-03 2.045307717181e-05 1.070776408390e-12 6.158472507197e-13 2.784465837365e-13
460 3 1.431526003185e-02 8.770606479782e-03 9.647698477201e-03 -5.225445104925e-11 4.746657379969e-11 8.870089936611e-12 -8.358816292519e-09 2.356238871246e-09 1.015531888300e-08 1.250000000000e-03 2.045307717181e-05 -6.491036595066e-14 4.288569277594e-13 1.087443710284e-12
461 3 2.552530134946e-04 1.487903256749e-02 8.821110903586e-03 -4.643525294051e-11 4.770486136379e-11 6.313667839206e-13 3.212564263725e-10 -4.577990350254e-09 7.504126439821e-10 1.250000000000e-03 2.045307717181e-05 2.558547052050e-13 -8.016611938393e-14 -1.784966101603e-12
462 3 1.490907452677e-02 1.260635182178e-02 8.546690804752e-03 -4.660775048549e-11 3.903173358870e-11 8.794398319654e-12 -8.768884259594e-09 -3.665081800780e-10 1.177796145048e-09 1.250000000000e-03 2.045307717181e-05 1.649242790387e-13 7.257726941078e-15 -1.734227788599e-13
463 3 1.159338677157e-02 1.279654798110e-02 1.092204703542e-02 -4.388433936947e-11 3.903273199256e-11 -1.489860022092e-12 -3.986159489478e-08 1.130640357430e-09 -1.178445341781e-09 1.250000000000e-03 2.045307717181e-05 5.878728372733e-13 -4.071618140060e-14 -5.476691585745e-13
464 3 9.461889052263e-03 1.085859430625e-04 8.245634963955e-03 -5.637957891539e-11 5.198991942287e-11 1.300575406415e-11 -1.167234263307e-08 -4.198385563397e-09 4.865776979600e-09 1.250000000000e-03 2.045307717181e-05 -2.643389936472e-13 1.492473825619e-13 -1.393104120631e-15
465 3 1.085027265996e-02 1.518747668809e-02 1.379280659794e-02 -1.269371973335e-11 4.897866341384e-11 3.036190604884e-11 2.064561622773e-08 -1.065991540165e-07 -2.272765091451e-08 1.250000000000e-03 2.045307717181e-05 2.540862238617e-13 1.938222361901e-13 -4.060669342656e-14
466 3 1.304093042357e-02 8.096497151596e-03 1.177251078623e-02 -6.516971516575e-11 3.957996445180e-11 2.341329452518e-11 9.413372163171e-09 -5.334384718785e-09 6.103985746913e-09 1.250000000000e-03 2.045307717181e-05 -4.212401633324e-13 1.905801095127e-12 -2.348028575130e-12
467 3 1.049522575103e-02 1.476512661410e-02 1.025683077741e-02 -5.170062452069e-11 3.064268065646e-11 4.273709832905e-12 3.573510721479e-08 1.418367465387e-08 6.340222821897e-10 1.250000000000e-03 2.045307717181e-05 6.546579302262e-13 -4.549668015974e-13 -3.273056273141e-13
468 3 1.261298124742e-02 1.486980525627e-02 1.168125684314e-02 -4.770288003001e-11 3.903078985555e-11 1.228325193431e-11 2.216605502180e-08 2.594472685431e-08 4.782002690798e-09 1.250000000000e-03 2.045307717181e-05 7.763528026605e-14 -1.085007583118e-13 7.794501492671e-13
469 3 1.503345061099e-02 6.918972344152e-03 1.152084590328e-02 -6.292331307207e-11 4.023406713360e-11 2.006566537908e-11 4.044251933918e-09 7.326156326018e-10 -8.582980705367e-09 1.250000000000e-03 2.045307717181e-05 1.910830781773e-13 3.523765566432e-13 -1.288715791583e-12
470 3 1.384441534086e-02 1.427409595524e-02 7.152030763717e-03 -3.903140141828e-11 3.414557353310e-11 8.969629186287e-12 8.278765289073e-09 -3.708852806137e-10 -3.327434428913e-09 1.250000000000e-03 2.045307717181e-05 -4.250224575451e-14 9.242020022415e-13 4.832805884516e-13
471 3 1.219084916253e-02 1.044037605108e-02 6.342217333542e-03 -3.903213613400e-11 3.368614160095e-11 1.764245618693e-12 -9.613543730958e-09 2.479134447019e-09 1.902616957439e-09 1.250000000000e-03 2.045307717181e-05 1.277633716660e-14 -4.851592555283e-14 -3.433280084705e-14
472 3 9.097546832291e-03 1.240137048408e-02 8.653079711826e-03 -5.636642072581e-11 3.551174484628e-11 1.298314912478e-11 -8.161737637021e-10 -9.284131261255e-09 -4.835398495589e-09 1.250000000000e-03 2.045307717181e-05 -3.790675103898e-14 4.136931814256e-13 -3.291267859604e-14
473 3 6.863351791117e-03 8.443223865865e-03 1.371681235263e-02 -1.063756933584e-10 -6.371255703861e-11 4.979986951408e-12 6.175774589096e-08 -6.278900328442e-08 4.912088900046e-08 1.250000000000e-03 2.045307717181e-05 -3.502571433852e-13 -7.492484343464e-13 -3.936636689822e-13
474 3 9.421998552586e-03 1.315242130677e-02 1.181017996157e-02 -3.903120250004e-11 3.652506248918e-11 3.306864732509e-12 3.324222126053e-08 6.290310264491e-09 1.137961114557e-08 1.250000000000e-03 2.045307717181e-05 -2.534567535671e-15 4.169798594124e-14 2.226431183353e-14
475 3 1.140361956355e-02 1.092921546149e-02 1.422301062629e-02 -2.379911341791e-11 2.495990658549e-11 1.021291757906e-11 1.860853459832e-08 1.505585080500e-08 -1.356008512842e-08 1.250000000000e-03 2.045307717181e-05 -4.087385267149e-13 2.576688342358e-13 -3.706602455555e-13
476 3 1.072196583281e-02 6.886470516934e-03 5.922920832379e-03 -4.019538410698e-11 3.517511983050e-11 6.472175224799e-12 -7.175021163931e-10 -6.061872416544e-09 -2.312940914387e-10 1.250000000000e-03 2.045307717181e-05 5.608017445993e-13 -9.410202863055e-14 -1.670167004978e-13
477 3 1.009381621029e-03 1.695581537785e-03 9.535928210367e-03 -4.909205036749e-11 5.480621835147e-11 9.362231810061e-13 -1.633851358095e-09 1.845502852839e-08 -1.605019232107e-09 1.250000000000e-03 2.045307717181e-05 6.269372662263e-13 8.102715606893e-15 -5.645745017721e-14
478 3 7.366653553789e-03 1.000757540233e-02 1.024371462696e-02 -6.257541421390e-11 3.416248401685e-11 1.268415586439e-11 4.477142363668e-09 9.495722090030e-11 -9.180275257210e-09 1.250000000000e-03 2.045307717181e-05 4.364669243700e-13 3.254733453295e-13 -2.508522986220e-13
479 3 8.535346888123e-03 8.088449046476e-03 1.096233769085e-02 -6.463181846298e-11 4.430195852470e-11 1.294896230197e-11 -1.146200213733e-08 -5.737205478772e-09 1.132767471384e-08 1.250000000000e-03 2.045307717181e-05 5.325197881446e-13 4.714849105440e-14 9.703781989360e-14
480 3 6.664794361512e-03 1.387192848722e-02 1.436303182433e-02 -3.253984824657e-11 6.991858277429e-11 -4.341037710634e-12 5.555304040296e-08 1.836713035767e-08 9.986504823988e-08 1.250000000000e-03 2.045307717181e-05 -1.873976965562e-14 -1.537367674478e-13 2.466557917493e-14
481 3 9.334847006515e-03 8.267549999533e-03 1.315574017182e-02 -6.506703979940e-11 3.436493883460e-11 1.613045053881e-11 2.631251205777e-08 5.529774871906e-09 -1.295803193218e-08 1.250000000000e-03 2.045307717181e-05 -1.280514226316e-13 -9.721259956404e-14 -8.186548431705e-14
482 3 8.802131790712e-03 9.852389809220e-04 1.423549000845e-02 -3.837871762894e-11 4.917800911229e-11 4.336086805678e-12 4.102093387376e-08 3.925389883379e-08 1.361638088773e-08 1.250000000000e-03 2.045307717181e-05 -1.277689182319e-12 -6.328159685350e-13 -4.549695571176e-14
483 3 1.109601550654e-02 8.194029402394e-03 1.040580916836e-02 -6.111182585963e-11 3.903191683372e-11 1.327605680408e-11 -3.260306659907e-09 -9.792052944316e-10 3.481375863826e-09 1.250000000000e-03 2.045307717181e-05 5.896243435192e-14 -4.765327896645e-14 -2.630720553932e-13
484 3 1.284062142232e-02 8.066839538904e-03 6.390478199086e-03 -4.012627023793e-11 3.347939431264e-11 4.825562259763e-12 1.821035992187e-09 9.503177092823e-09 -4.129565861784e-09 1.250000000000e-03 2.045307717181e-05 -1.172379036304e-13 -5.474474672391e-13 -5.725083765616e-14
485 3 8.273506922150e-03 7.580877491603e-03 7.813448893056e-03 -4.876056819540e-11 3.084081347696e-11 4.336471972134e-12 2.591034697092e-09 -3.890866079667e-09 4.418165793087e-09 1.250000000000e-03 2.045307717181e-05 2.128078293318e-13 -1.933771829201e-13 -1.515603823159e-14
486 3 1.349979469807e-02 1.063922001119e-02 8.263852497930e-03 -4.770609363669e-11 3.845698163062e-11 3.487124809224e-12 5.986800314866e-09 -9.635477178391e-09 -2.977866243875e-09 1.250000000000e-03 2.045307717181e-05 -8.553408792102e-14 -3.542754755449e-13 2.030705038417e-13
487 3 1.102227692059e-02 9.696182427719e-03 1.223682927226e-02 -5.788024926475e-11 4.758397615625e-11 1.301029018982e-11 5.806931095530e-10 1.374520600248e-08 4.624011610018e-09 1.250000000000e-03 2.045307717181e-05 3.064485724457e-13 1.678480930037e-13 8.745865624894e-14
488 3 7.483560124541e-03 1.231537864831e-02 1.297040850561e-02 -3.533412398284e-11 8.242723264856e-11 -1.633338184806e-11 -3.509499179844e-08 3.785620937953e-10 -7.360889000938e-08 1.250000000000e-03 2.045307717181e-05 -2.078493837075e-13 -1.199669989134e-13 -1.492464236435e-13
489 3 1.101518574970e-02 1.106243027969e-02 9.015874473630e-03 -6.504805049738e-11 3.059650150554e-11 6.383480497682e-12 8.566194050785e-09 9.482001872361e-09 -3.659447948033e-10 1.250000000000e-03 2.045307717181e-05 2.022429565053e-14 -1.321464945294e-12 2.067437762650e-13
490 3 1.062859637562e-02 7.427457332046e-03 8.262655357665e-03 -5.431756799617e-11 3.584319905848e-11 1.300868494789e-11 2.193108747676e-09 -4.728653036907e-09 5.585922916164e-10 1.250000000000e-03 2.045307717181e-05 7.041052809082e-13 -4.406057674421e-13 1.453084926715e-14
491 3 4.981752721044e-04 1.278973933170e-02 1.430721911031e-02 -1.979140407461e-11 3.143796268176e-11 -4.336866665411e-12 2.365762957393e-08 1.430187280695e-08 1.762141098256e-08 1.250000000000e-03 2.045307717181e-05 1.501213723306e-13 3.052669570205e-14 -5.972564690358e-14
492 3 1.254610184664e-02 6.294271503398e-03 8.957384696453e-03 -4.770425456642e-11 4.262578040199e-11 1.300345376829e-11 -3.849172446382e-09 4.733645772391e-09 1.039705252379e-08 1.250000000000e-03 2.045307717181e-05 1.015431957876e-13 -1.813758583823e-13 1.696728649078e-13
493 3 9.016996491277e-03 2.405634269934e-03 1.211494486202e-02 -6.504637451109e-11 5.646540332840e-11 -8.674055643422e-11 -5.253442556031e-08 -4.603143539495e-10 -1.928369840022e-08 1.250000000000e-03 2.045307717181e-05 -1.270094173560e-15 4.095934596499e-13 -1.513338257260e-13
494 3 1.317689420915e-02 1.497567267211e-02 9.317214134065e-03 -5.138610971799e-11 4.677109728558e-11 -1.648716377517e-12 -1.800450605565e-08 -1.403250615880e-08 -3.356005634138e-09 1.250000000000e-03 2.045307717181e-05 -4.806848187707e-13 -6.068847515832e-13 1.298520779690e-13
495 3 1.099764389587e-02 1.221123739956e-03 1.180174782216e-02 -6.505223874282e-11 3.482503265543e-11 3.516178011824e-12 -4.357338563763e-08 -2.198494087170e-08 1.018934178081e-08 1.250000000000e-03 2.045307717181e-05 -9.458436372148e-15 1.413893266177e-13 6.617842709911e-13
496 3 4.113227719547e-04 1.022435471942e-02 8.091298040883e-03 -4.831673468507e-11 4.238050784837e-11 4.329771797044e-12 -2.352428028742e-09 2.903739532822e-09 6.006950012230e-09 1.250000000000e-03 2.045307717181e-05 6.495033367473e-13 -5.697083663508e-13 3.455463055297e-14
497 3 1.464086968605e-02 9.708022980013e-03 1.213116390395e-02 -5.012507416097e-11 3.447198476191e-11 1.304905588124e-11 -2.447927118307e-09 1.951062247246e-08 -1.352416491892e-08 1.250000000000e-03 2.045307717181e-05 -9.066458313753e-13 4.303068505722e-14 -1.316862802808e-13
498 3 1.018271865063e-02 9.299871390187e-03 6.934685276508e-03 -4.476653549218e-11 3.426318667900e-11 6.551018245673e-12 -4.110844405841e-09 -1.038065961824e-08 -3.400755567457e-10 1.250000000000e-03 2.045307717181e-05 6.041579597353e-13 1.327882054793e-13 -5.923307614851e-13
499 3 1.498290391288e-04 9.830173531831e-03 1.428003172677e-02 -2.198404785354e-11 1.840132950484e-11 3.162333777885e-12 1.225301675201e-09 6.768553843208e-09 -8.671331034357e-09 1.250000000000e-03 2.045307717181e-05 -5.955405855868e-13 -3.463581317934e-14 4.984699469895e-13
500 3 8.095797764198e-03 1.015785957933e-02 1.258470399794e-02 -9.005029948611e-11 3.035709382478e-11 3.943011976771e-11 -1.540692366995e-08 -5.847281603624e-09 2.328343340671e-08 1.250000000000e-03 2.045307717181e-05 6.506977854558e-13 -1.252099192536e-13 -4.502484339544e-13
