ITEM: TIMESTEP
200000
ITEM: NUMBER OF ATOMS
500
ITEM: BOX BOUNDS pp pp ff
0.0000000000000000e+00 1.5370634520482899e-02
0.0000000000000000e+00 1.5370634520482899e-02
0.0000000000000000e+00 1.5370634520482899e-02
ITEM: ATOMS id type x y z radius mass fx fy fz
1 1 0.00366944 0.000470931 0.00666665 0.00075 4.41786e-06 7.39059e-14 -7.93339e-14 6.64504e-14
2 1 0.00578145 0.00467051 0.00629545 0.00075 4.41786e-06 9.91805e-15 -3.46217e-14 7.46512e-14
3 1 0.001751 0.00642906 0.0037142 0.00075 4.41786e-06 9.31326e-15 -1.59565e-14 -9.03552e-15
4 1 0.00557271 0.00445477 0.000685917 0.00075 4.41786e-06 5.88253e-14 -6.5127e-14 3.73543e-15
5 1 0.00183206 0.0055522 0.000685731 0.00075 4.41786e-06 7.07535e-14 8.97213e-15 -1.08805e-13
6 1 0.00576255 0.00686073 0.00242845 0.00075 4.41786e-06 7.89743e-16 -9.27315e-15 7.13759e-15
7 1 0.0028048 0.00196979 0.0021297 0.00075 4.41786e-06 -1.04005e-14 -5.86087e-14 1.63348e-14
8 1 0.00374628 0.00656828 0.00320902 0.00075 4.41786e-06 -1.08694e-322 -1.08694e-322 1.08694e-322
9 1 0.00477786 0.00499636 0.00175177 0.00075 4.41786e-06 -1.31254e-13 -5.53011e-15 -3.1575e-14
10 1 0.00544001 0.00254523 0.00305913 0.00075 4.41786e-06 -1.05166e-13 1.06615e-14 -4.08291e-14
11 1 0.00552297 0.00547853 0.00287247 0.00075 4.41786e-06 -9.72186e-15 2.31168e-14 5.78272e-15
12 1 0.0035554 0.00496706 0.00245345 0.00075 4.41786e-06 1.39966e-14 9.80723e-15 -1.34609e-13
13 1 0.00228467 0.000778919 0.000729097 0.00075 4.41786e-06 -1.12726e-13 -1.10441e-13 4.19834e-14
14 1 0.00275021 0.00369305 0.00345048 0.00075 4.41786e-06 -2.21211e-15 -9.63067e-14 1.03753e-13
15 1 0.00622761 0.00893846 0.00421957 0.00075 4.41786e-06 2.99987e-14 2.37313e-14 -1.1792e-14
16 1 0.00496917 0.00541691 0.00775063 0.00075 4.41786e-06 -5.021e-14 3.24348e-14 1.49543e-13
17 1 0.00416487 0.00733988 0.000781637 0.00075 4.41786e-06 5.43867e-15 3.61137e-15 -4.78667e-14
18 1 0.00383707 0.00278756 0.00295935 0.00075 4.41786e-06 1.24363e-13 3.99514e-14 3.38375e-15
19 1 0.000824099 0.00186506 0.00345623 0.00075 4.41786e-06 9.68016e-14 -1.38591e-14 1.27979e-13
20 1 0.00462302 0.00547643 0.00630245 0.00075 4.41786e-06 -7.78093e-14 4.9585e-15 9.24627e-14
21 1 0.00243676 0.00666104 0.00589304 0.00075 4.41786e-06 -7.29264e-14 -2.15952e-14 -1.05619e-13
22 1 0.00565763 0.00305307 0.00437199 0.00075 4.41786e-06 -9.6717e-14 9.93569e-15 -1.68782e-13
23 1 0.00309381 0.00200106 0.000699611 0.00075 4.41786e-06 -2.30474e-14 -3.95083e-14 7.24712e-15
24 1 0.00167841 0.00494925 0.00198654 0.00075 4.41786e-06 1.59414e-13 -1.55263e-14 -6.48484e-14
25 1 0.00473002 0.00599859 0.00070896 0.00075 4.41786e-06 3.42151e-14 -2.47429e-14 4.13378e-14
26 1 0.00240708 0.00329471 0.000714153 0.00075 4.41786e-06 1.23301e-13 2.6189e-14 2.99043e-14
27 1 0.00620247 0.00374995 0.00274672 0.00075 4.41786e-06 -6.46201e-14 -1.29719e-14 6.87923e-14
28 1 0.00458451 0.00111028 0.00566601 0.00075 4.41786e-06 -1.73886e-14 -6.28188e-14 6.6563e-14
29 1 0.00269831 0.00394547 0.00198324 0.00075 4.41786e-06 -3.35622e-15 -7.22884e-14 5.02575e-14
30 1 0.00597642 0.00433971 0.00490476 0.00075 4.41786e-06 5.61835e-14 7.18151e-15 -1.26503e-13
31 1 0.00445311 0.00604776 0.00474212 0.00075 4.41786e-06 7.85913e-14 -1.10779e-13 1.98492e-13
32 1 0.00325307 0.00293117 0.00593822 0.00075 4.41786e-06 3.1597e-12 5.89722e-13 -1.03539e-12
33 1 0.00404294 0.00422473 0.00688685 0.00075 4.41786e-06 1.86293e-13 -5.48314e-14 -4.11323e-14
34 1 0.00563096 0.00649716 0.00389849 0.00075 4.41786e-06 3.17236e-14 4.04716e-15 -3.60245e-14
35 1 0.0021893 0.00145485 0.00378474 0.00075 4.41786e-06 -7.80445e-15 5.10934e-14 -1.99908e-14
36 1 0.00464825 0.00136576 0.000698796 0.00075 4.41786e-06 -2.89692e-14 -9.11377e-14 1.35283e-14
37 1 0.00454974 0.00463405 0.00514373 0.00075 4.41786e-06 -9.61672e-15 -9.47498e-14 -3.97465e-14
38 1 0.00480584 0.0036672 0.00233214 0.00075 4.41786e-06 -8.08902e-14 -3.2436e-14 6.87476e-14
39 1 0.00407041 0.00418449 0.000718393 0.00075 4.41786e-06 -1.8942e-14 -6.51945e-14 -3.15441e-14
40 1 0.0025811 0.00347024 0.00719103 0.00075 4.41786e-06 2.56794e-14 -1.22971e-13 1.01364e-14
41 1 0.00404444 0.00354033 0.00415729 0.00075 4.41786e-06 -9.59186e-15 -1.00021e-13 4.66951e-14
42 1 0.00315173 0.00428673 0.0050097 0.00075 4.41786e-06 -1.74026e-14 -2.02979e-14 2.00764e-13
43 1 0.000991352 0.00374311 0.00073265 0.00075 4.41786e-06 -4.31681e-14 -3.26397e-13 -1.81725e-14
44 1 0.00254897 0.00527953 0.00594121 0.00075 4.41786e-06 -1.02058e-13 4.47705e-13 3.44503e-14
45 1 0.00109119 0.0043924 0.00685899 0.00075 4.41786e-06 -1.48101e-13 -1.34218e-13 1.45089e-13
46 1 0.0023501 0.00512665 0.00331874 0.00075 4.41786e-06 -5.79775e-15 1.2925e-14 3.57658e-14
47 1 0.00498372 0.00236159 0.00168084 0.00075 4.41786e-06 1.03451e-13 -8.55306e-14 -4.0701e-16
48 1 0.00505661 0.00448871 0.00379242 0.00075 4.41786e-06 -1.47985e-14 -1.66229e-14 -1.28193e-14
49 1 0.00459023 0.00207244 0.00453637 0.00075 4.41786e-06 7.21545e-14 2.60228e-16 1.60271e-13
50 1 0.00373246 0.00510232 0.00387228 0.00075 4.41786e-06 -7.48092e-15 2.86575e-14 -1.69444e-14
51 1 0.00465256 0.00319589 0.00546775 0.00075 4.41786e-06 3.34196e-13 1.89589e-13 -2.43534e-14
52 1 0.00145415 0.00416532 0.00400986 0.00075 4.41786e-06 2.7331e-14 1.37581e-13 -4.08918e-14
53 1 0.00676195 0.00327625 0.00541674 0.00075 4.41786e-06 -4.59412e-14 -5.57352e-14 -6.63545e-14
54 1 0.00566789 0.00784411 0.0034864 0.00075 4.41786e-06 -2.02707e-14 -4.49874e-14 -3.76126e-14
55 1 0.00319055 0.00236471 0.0042585 0.00075 4.41786e-06 2.65937e-14 2.4559e-14 1.66527e-13
56 1 0.00370868 0.00303156 0.00153688 0.00075 4.41786e-06 -9.70925e-15 -1.04807e-13 2.18129e-13
57 1 0.00295912 0.00597986 0.0047205 0.00075 4.41786e-06 -2.5112e-14 5.0843e-14 -4.56938e-14
58 1 0.00207476 0.0039517 0.00590028 0.00075 4.41786e-06 2.09732e-14 4.14388e-14 1.42338e-13
59 1 0.00107084 0.0034061 0.00787922 0.00075 4.41786e-06 -6.1519e-13 -2.46413e-13 3.89569e-14
60 1 0.00260881 0.00581559 0.0113615 0.00075 4.41786e-06 7.414e-14 -1.35474e-13 -1.28954e-13
61 1 0.00385955 0.00257592 0.0136951 0.00075 4.41786e-06 7.42364e-13 -4.57628e-13 7.43994e-14
62 1 0.00249711 0.00457153 0.00972632 0.00075 4.41786e-06 -2.37029e-13 2.52749e-13 -1.58856e-13
63 1 0.00654532 0.0011856 0.0103844 0.00075 4.41786e-06 -3.36239e-13 -3.03274e-14 -2.14109e-14
64 1 0.00281255 0.00436102 0.0113974 0.00075 4.41786e-06 -1.64662e-14 -2.68189e-13 -4.28981e-13
65 1 0.0012593 0.00594823 0.0121984 0.00075 4.41786e-06 2.16075e-13 5.23565e-14 -1.76203e-14
66 1 0.00519393 0.00241209 0.008486 0.00075 4.41786e-06 -1.3918e-13 -3.08827e-14 2.17805e-14
67 1 0.00471455 0.00219908 0.0147284 0.00075 4.41786e-06 3.42048e-13 -9.30363e-14 6.03131e-14
68 1 0.00295215 0.00220701 0.00959101 0.00075 4.41786e-06 9.99293e-14 2.70618e-14 7.3458e-14
69 1 0.00362784 0.00562755 0.0146206 0.00075 4.41786e-06 6.61501e-11 -7.96238e-12 3.53394e-11
70 1 0.00173811 0.0032097 0.0146956 0.00075 4.41786e-06 2.10765e-13 4.0811e-13 4.56175e-14
71 1 0.00542596 0.00202307 0.0119405 0.00075 4.41786e-06 -2.0346e-15 -1.53035e-13 1.75983e-14
72 1 0.00538123 0.00572677 0.0105422 0.00075 4.41786e-06 1.94207e-13 -1.13735e-13 7.49727e-14
73 1 0.00622856 0.00492806 0.0113377 0.00075 4.41786e-06 1.6685e-13 -1.74973e-13 -1.18863e-14
74 1 0.00387253 0.00308816 0.00784807 0.00075 4.41786e-06 2.19745e-13 -1.64862e-13 9.48332e-14
75 1 0.00195078 0.00615476 0.00883712 0.00075 4.41786e-06 1.22925e-13 -4.0696e-14 -1.52305e-13
76 1 0.00395976 0.00193467 0.00681895 0.00075 4.41786e-06 2.01442e-13 -2.46877e-12 -1.30009e-12
77 1 0.00520461 0.0047677 0.0127617 0.00075 4.41786e-06 1.44121e-13 1.02567e-12 -3.56147e-13
78 1 0.00127252 0.00604289 0.0136457 0.00075 4.41786e-06 3.95634e-13 -2.36622e-13 -6.55571e-14
79 1 0.00563927 0.00430189 0.0102357 0.00075 4.41786e-06 -2.49486e-13 -1.47873e-14 1.98491e-13
80 1 0.00264022 0.00335146 0.0124715 0.00075 4.41786e-06 -4.90934e-13 -1.13311e-12 2.23173e-13
81 1 0.00350683 0.00729453 0.0115167 0.00075 4.41786e-06 1.1695e-13 1.68745e-13 8.35551e-14
82 1 0.00456492 0.00691828 0.00816202 0.00075 4.41786e-06 -1.68405e-14 5.03993e-15 1.35751e-13
83 1 0.00643993 0.0067352 0.0104416 0.00075 4.41786e-06 6.1506e-15 -2.19631e-14 8.98188e-14
84 1 0.000934931 0.00287176 0.0130233 0.00075 4.41786e-06 6.08649e-13 5.88488e-13 -2.5672e-13
85 1 0.00481482 0.00591964 0.00919723 0.00075 4.41786e-06 2.35856e-13 -5.12461e-13 3.30548e-13
86 1 0.00497851 0.00546468 0.0139888 0.00075 4.41786e-06 9.8554e-13 3.15087e-12 4.39495e-13
87 1 0.000158826 0.00401923 0.0131061 0.00075 4.41786e-06 2.85847e-13 -2.27536e-13 8.61997e-14
88 1 0.00263714 0.00343344 0.00882758 0.00075 4.41786e-06 6.61131e-14 -1.41353e-14 2.42217e-13
89 1 0.0020821 0.00325175 0.0101765 0.00075 4.41786e-06 -8.11068e-14 7.5685e-14 -1.29254e-14
90 1 0.00394221 0.00169723 0.00835174 0.00075 4.41786e-06 1.36691e-13 1.95136e-13 4.80413e-14
91 1 0.00149027 0.00377653 0.0117125 0.00075 4.41786e-06 -6.403e-15 -4.93247e-13 -1.76981e-13
92 1 0.00163826 0.00485313 0.0108509 0.00075 4.41786e-06 -9.04776e-15 3.69034e-13 -4.24502e-13
93 1 0.00182344 0.0042919 0.0132473 0.00075 4.41786e-06 -7.69494e-13 2.87926e-13 -3.98841e-13
94 1 0.00578335 0.00370591 0.0120309 0.00075 4.41786e-06 -1.48442e-13 1.27887e-13 6.73854e-14
95 1 0.00296558 0.00389389 0.0143585 0.00075 4.41786e-06 3.04101e-13 -2.98304e-13 -7.89509e-14
96 1 0.00509419 0.00131354 0.00757874 0.00075 4.41786e-06 -2.15694e-13 2.63949e-14 8.81718e-15
97 1 0.00317104 0.0058722 0.00998965 0.00075 4.41786e-06 2.52271e-13 1.93511e-13 6.15724e-14
98 1 0.00344905 0.00612202 0.00855544 0.00075 4.41786e-06 1.34046e-13 -9.43959e-14 1.45651e-13
99 1 0.00373581 0.00646752 0.00671589 0.00075 4.41786e-06 6.08929e-14 7.53527e-14 -2.09801e-14
100 1 0.0043641 0.0042775 0.01465 0.00075 4.41786e-06 8.03234e-14 1.32586e-13 1.86618e-13
101 2 0.00183451 0.00218047 0.0114743 0.001 1.0472e-05 -7.48726e-13 -6.69604e-13 1.34702e-13
102 2 0.00562562 0.00398589 0.00865939 0.001 1.0472e-05 -2.98199e-13 -7.80204e-15 -2.55284e-14
103 2 0.00440943 0.00467188 0.0112547 0.001 1.0472e-05 -8.9684e-13 -5.63949e-13 1.2595e-14
104 2 0.00350882 0.00479014 0.0130179 0.001 1.0472e-05 4.43434e-13 3.52107e-13 1.91871e-13
105 2 0.00252536 0.00508435 0.0075975 0.001 1.0472e-05 3.40963e-13 1.56772e-13 -1.30251e-13
106 2 0.00425412 0.00310114 0.0121945 0.001 1.0472e-05 -1.3863e-12 -1.4204e-12 1.27256e-12
107 2 0.00604792 0.002773 0.0106456 0.001 1.0472e-05 -3.81358e-13 -4.88845e-14 -1.11938e-13
108 2 0.00227524 0.00212195 0.0135512 0.001 1.0472e-05 8.25365e-13 1.86291e-12 -2.25868e-12
109 2 0.00456702 0.00626744 0.0122496 0.001 1.0472e-05 4.68699e-13 -7.52577e-13 -4.53363e-14
110 2 0.00388113 0.00455255 0.00877323 0.001 1.0472e-05 6.39685e-14 -9.26261e-14 1.39119e-13
111 2 0.00545549 0.0031117 0.00696944 0.001 1.0472e-05 -5.75018e-14 3.28064e-13 -2.6466e-13
112 2 0.0042636 0.00317551 0.0100336 0.001 1.0472e-05 -3.27577e-14 -3.65301e-13 1.12105e-13
113 2 0.00239334 0.00202352 0.00797318 0.001 1.0472e-05 -1.67695e-13 1.73014e-13 1.11649e-12
114 2 0.00476983 0.00718839 0.0103726 0.001 1.0472e-05 -1.53202e-14 7.48004e-13 4.05984e-13
115 2 0.00259132 0.0143906 0.00580712 0.001 1.0472e-05 -3.97011e-15 1.27437e-14 -9.34611e-14
116 2 0.00328903 0.0130953 0.00397243 0.001 1.0472e-05 2.15166e-13 -1.96938e-14 2.53142e-13
117 2 0.00501016 0.0113593 0.00714011 0.001 1.0472e-05 1.60646e-13 -3.07255e-13 3.87394e-14
118 2 0.00228304 0.00803389 0.000857206 0.001 1.0472e-05 -8.0345e-14 -2.16817e-13 4.59328e-14
119 2 0.00335047 0.0105468 0.00224964 0.001 1.0472e-05 1.96783e-13 4.423e-14 1.57357e-13
120 2 0.00542535 0.000587188 0.00429682 0.001 1.0472e-05 -1.47275e-13 -1.94135e-13 8.38154e-16
121 2 0.00294648 0.0127828 0.00687239 0.001 1.0472e-05 -1.78109e-13 -2.82298e-13 -2.38273e-13
122 2 0.00432909 0.0116158 0.000939439 0.001 1.0472e-05 4.62656e-14 -4.31953e-14 1.50117e-13
123 2 0.00620106 0.0142229 0.00488908 0.001 1.0472e-05 2.57245e-13 -9.16712e-14 -1.90407e-13
124 2 0.00430301 0.0144772 0.00481447 0.001 1.0472e-05 -9.8077e-14 -1.17521e-13 2.49865e-13
125 2 0.00604007 0.0144873 0.00296167 0.001 1.0472e-05 2.74716e-14 -2.3319e-13 -9.01819e-14
126 2 0.0017631 0.00938757 0.00199862 0.001 1.0472e-05 -1.9589e-13 -1.3698e-13 -2.85146e-13
127 2 0.00356986 0.00942064 0.00500638 0.001 1.0472e-05 5.07771e-14 -2.12049e-13 6.42085e-15
128 2 0.00751931 0.0119472 0.00256874 0.001 1.0472e-05 5.6086e-15 -7.4254e-14 -6.17948e-14
129 2 0.00216158 0.00930134 0.00720574 0.001 1.0472e-05 1.57873e-13 -1.07268e-13 1.33286e-13
130 2 0.00590257 0.000213679 0.000836078 0.001 1.0472e-05 -5.90603e-14 1.39644e-13 2.95947e-14
131 2 0.00172812 0.00063637 0.00235653 0.001 1.0472e-05 2.4886e-15 -1.50204e-13 6.9153e-14
132 2 0.00167637 0.00929146 0.00535061 0.001 1.0472e-05 -1.22592e-13 -1.23849e-13 -4.91909e-14
133 2 0.00259126 0.00779917 0.00274409 0.001 1.0472e-05 2.29794e-14 -1.72408e-13 -2.20129e-14
134 2 0.00576803 0.00966174 0.00716284 0.001 1.0472e-05 1.24408e-13 1.652e-13 5.94917e-14
135 2 0.00720794 0.0103483 0.000861014 0.001 1.0472e-05 -5.56713e-15 -5.63228e-14 2.76451e-14
136 2 0.00141638 0.0129734 0.0043902 0.001 1.0472e-05 3.40726e-13 -4.95316e-13 3.85066e-14
137 2 0.00305271 0.00632205 0.00156815 0.001 1.0472e-05 -6.79498e-14 -6.18786e-14 -4.15301e-13
138 2 0.00212689 0.0116653 0.00323423 0.001 1.0472e-05 1.53936e-13 -2.75889e-14 4.54516e-13
139 2 0.00614252 0.0126645 0.00377003 0.001 1.0472e-05 2.38207e-13 -4.15439e-14 3.3405e-14
140 2 0.00319712 0.000705191 0.00501535 0.001 1.0472e-05 2.92914e-13 2.61818e-13 -5.48249e-15
141 2 0.0152785 0.00761056 0.000955512 0.001 1.0472e-05 1.33767e-13 1.40792e-13 -1.3281e-13
142 2 0.0038018 0.00114615 0.00323768 0.001 1.0472e-05 -3.04337e-14 -4.44832e-13 -1.54102e-14
143 2 0.000934031 0.00603246 0.00713376 0.001 1.0472e-05 -3.44131e-13 -5.52904e-13 -8.03691e-13
144 2 0.00258886 0.00766711 0.00460223 0.001 1.0472e-05 -1.5624e-13 4.36884e-15 -3.33513e-14
145 2 0.000585006 0.0124561 0.00251583 0.001 1.0472e-05 1.04579e-13 -2.13382e-14 1.71925e-13
146 2 0.00251721 0.00715618 0.00761096 0.001 1.0472e-05 1.8209e-13 -2.64247e-13 -9.77109e-14
147 2 0.000264354 0.00949975 0.000762531 0.001 1.0472e-05 1.91857e-13 1.0873e-15 8.34607e-14
148 2 0.00553556 0.00833298 0.000911794 0.001 1.0472e-05 1.12595e-13 -4.24216e-14 -1.38983e-14
149 2 0.00462037 0.0141594 0.000865386 0.001 1.0472e-05 -5.25648e-15 1.64946e-14 3.45041e-14
150 2 0.0027212 0.0145016 0.000843682 0.001 1.0472e-05 2.2126e-14 -3.79999e-13 1.35473e-13
151 2 0.0043597 0.0142582 0.00667705 0.001 1.0472e-05 -8.95367e-14 3.57143e-13 -3.70893e-14
152 2 0.00269172 0.0131191 0.00212856 0.001 1.0472e-05 -1.68647e-14 -2.4194e-13 3.27114e-13
153 2 0.00463623 0.0114355 0.00337997 0.001 1.0472e-05 -1.42044e-14 -3.87121e-13 2.22956e-13
154 2 0.00465095 0.0131662 0.00257921 0.001 1.0472e-05 -3.66361e-14 1.26715e-14 9.23184e-15
155 2 0.00219293 0.001309 0.00631781 0.001 1.0472e-05 -2.91005e-13 2.51088e-13 1.80779e-13
156 2 0.00594973 0.0131552 0.00643233 0.001 1.0472e-05 3.91111e-13 -4.92758e-13 4.47614e-15
157 2 0.00441678 0.00797202 0.00237309 0.001 1.0472e-05 -4.79202e-14 -3.79297e-13 -2.20175e-13
158 2 0.00179993 0.0113253 0.00102501 0.001 1.0472e-05 -3.47895e-166 4.68239e-166 -1.71863e-166
159 2 0.00481993 0.00952649 0.00347025 0.001 1.0472e-05 1.64504e-13 5.18907e-13 3.35634e-13
160 2 0.00572876 0.0107624 0.00198586 0.001 1.0472e-05 1.95052e-13 -2.73824e-13 -5.13072e-15
161 2 0.0034132 0.0106136 0.00647951 0.001 1.0472e-05 3.63555e-14 -1.6809e-13 3.98863e-14
162 2 0.00455758 0.00777836 0.00473402 0.001 1.0472e-05 -6.74664e-14 1.49836e-13 1.67448e-14
163 2 0.00439705 0.0124432 0.00568079 0.001 1.0472e-05 6.14367e-14 -1.00415e-12 -4.51269e-13
164 2 0.00106238 0.0133923 0.0009096 0.001 1.0472e-05 1.59834e-13 4.67058e-15 7.34834e-14
165 2 0.00327488 0.0113182 0.00468362 0.001 1.0472e-05 2.09531e-13 -4.16484e-14 -1.39222e-14
166 2 0.00384654 0.00924903 0.000925913 0.001 1.0472e-05 3.75395e-14 4.03708e-14 7.20149e-14
167 2 0.00274957 0.0149425 0.00371131 0.001 1.0472e-05 5.30226e-14 -5.76143e-14 2.4699e-13
168 2 0.00227344 0.0098482 0.00368116 0.001 1.0472e-05 -2.26084e-13 -1.81633e-13 -6.49294e-14
169 2 0.00510453 0.00781496 0.00687343 0.001 1.0472e-05 1.61463e-13 9.05711e-14 4.27657e-14
170 2 0.00498411 0.0106082 0.0053567 0.001 1.0472e-05 1.97228e-13 -3.88335e-14 -1.28298e-14
171 2 0.00556289 0.000963225 0.00247785 0.001 1.0472e-05 -1.75937e-13 4.61396e-14 7.10643e-14
172 2 0.00379798 0.0148398 0.00231428 0.001 1.0472e-05 6.32228e-15 -1.00486e-13 -1.02718e-13
173 2 0.00333642 0.00806874 0.00626156 0.001 1.0472e-05 1.11805e-13 -3.9036e-14 2.81545e-13
174 2 0.00148262 0.0153631 0.0107595 0.001 1.0472e-05 -5.81465e-13 2.99061e-14 -2.71284e-14
175 2 0.00134173 0.0101439 0.0125238 0.001 1.0472e-05 -1.29255e-13 -1.83511e-13 2.69078e-13
176 2 0.000951075 0.00910014 0.0103543 0.001 1.0472e-05 1.5231e-13 -1.7884e-14 1.97189e-13
177 2 0.00400753 0.00912804 0.00789581 0.001 1.0472e-05 1.42431e-13 -1.00857e-14 -1.33216e-14
178 2 0.00231489 0.0137423 0.0113891 0.001 1.0472e-05 -3.10164e-13 7.04537e-15 8.46078e-14
179 2 0.00416517 0.0138961 0.00962788 0.001 1.0472e-05 5.01169e-14 -4.84628e-13 -4.1189e-14
180 2 0.00495548 0.0152238 0.014444 0.001 1.0472e-05 5.87999e-15 -6.1585e-15 -4.2769e-14
181 2 0.00505489 0.0120095 0.00993003 0.001 1.0472e-05 -4.5751e-14 1.85915e-15 -3.12813e-14
182 2 0.00311327 0.0107393 0.0125524 0.001 1.0472e-05 -8.79084e-15 -1.09956e-13 2.18264e-13
183 2 0.00165923 0.0141052 0.0131391 0.001 1.0472e-05 9.10322e-14 4.54918e-14 -3.82555e-13
184 2 0.00278963 0.00873315 0.0111687 0.001 1.0472e-05 7.80243e-14 -6.19576e-14 -5.73835e-15
185 2 0.00550651 0.00980234 0.00925661 0.001 1.0472e-05 1.50036e-14 -2.22479e-13 1.32e-13
186 2 0.00698917 0.000299211 0.0132981 0.001 1.0472e-05 3.73216e-13 -4.06722e-13 -5.28706e-14
187 2 0.00544248 0.00140015 0.0134553 0.001 1.0472e-05 7.58031e-13 -1.24259e-13 -4.87719e-14
188 2 0.00223104 0.00981794 0.00910154 0.001 1.0472e-05 -3.6994e-14 -6.15418e-14 -1.59736e-14
189 2 0.00144498 0.0118293 0.00942827 0.001 1.0472e-05 4.14017e-14 2.55201e-14 4.68377e-14
190 2 0.00665023 0.0151528 0.011471 0.001 1.0472e-05 -1.42319e-13 -4.39542e-13 -3.09354e-13
191 2 0.00442522 0.0106911 0.011096 0.001 1.0472e-05 6.9217e-14 1.08968e-14 -1.19694e-13
192 2 0.00283708 0.0145578 0.00775766 0.001 1.0472e-05 -1.29481e-14 -2.34578e-13 -8.42826e-15
193 2 0.00111278 0.00833443 0.0121173 0.001 1.0472e-05 5.00108e-14 5.98396e-14 -3.30688e-14
194 2 0.00332029 0.000834293 0.0144577 0.001 1.0472e-05 -3.11445e-13 -1.72021e-13 1.0114e-13
195 2 0.0054739 0.0144476 0.0127986 0.001 1.0472e-05 -1.58011e-13 -3.19156e-14 4.88311e-14
196 2 0.00385393 0.0134308 0.0126255 0.001 1.0472e-05 -1.83928e-13 2.97071e-14 1.64293e-13
197 2 0.00344061 0.0151986 0.0107898 0.001 1.0472e-05 -2.04863e-13 -2.86214e-13 3.89892e-13
198 2 0.00398609 0.010928 0.00875683 0.001 1.0472e-05 2.2479e-13 -1.27317e-13 -1.87569e-14
199 2 0.00311557 0.0126145 0.00882109 0.001 1.0472e-05 -7.4079e-14 2.50103e-14 -2.30425e-13
200 2 0.00595046 0.0152074 0.00967159 0.001 1.0472e-05 -1.40169e-13 1.22222e-14 1.19177e-13
201 2 0.00384943 0.00938234 0.0098493 0.001 1.0472e-05 3.14302e-14 -2.4293e-13 1.81804e-14
202 2 0.00231572 0.0112203 0.00785005 0.001 1.0472e-05 3.78857e-14 -6.49612e-14 3.60119e-14
203 2 0.00268507 0.00890698 0.0130007 0.001 1.0472e-05 7.58534e-14 2.57342e-13 -2.99605e-13
204 2 0.00469148 0.0116956 0.0127779 0.001 1.0472e-05 1.56254e-13 -1.54976e-13 5.71061e-15
205 2 0.00605649 0.0104482 0.0134668 0.001 1.0472e-05 4.32655e-13 7.26426e-13 -1.45441e-13
206 2 0.00366321 0.0104202 0.0144058 0.001 1.0472e-05 1.48364e-13 7.0775e-15 -3.44615e-14
207 2 0.00616029 0.0111842 0.0116683 0.001 1.0472e-05 2.51449e-14 3.52844e-13 -1.89027e-14
208 2 0.00554087 0.012013 0.0144475 0.001 1.0472e-05 2.1346e-13 -1.30168e-14 8.66752e-14
209 2 0.0032561 0.0142611 0.0144121 0.001 1.0472e-05 3.17322e-13 3.56164e-14 2.38599e-13
210 2 0.00342205 0.00766717 0.00918862 0.001 1.0472e-05 -1.51239e-13 9.5999e-14 1.07507e-14
211 2 0.00269955 0.00658929 0.0128642 0.001 1.0472e-05 5.82927e-13 2.38018e-14 -5.87148e-15
212 2 0.00480249 0.00132654 0.0097222 0.001 1.0472e-05 9.68035e-14 -7.81611e-14 5.53685e-13
213 2 0.00217771 0.0105967 0.0108431 0.001 1.0472e-05 -1.18579e-13 -1.14797e-13 -5.57476e-14
214 2 0.00222899 0.0141651 0.00951726 0.001 1.0472e-05 -3.24475e-13 -1.54661e-13 1.06677e-14
215 2 0.000639354 0.0135149 0.0104042 0.001 1.0472e-05 -2.85478e-13 4.90476e-14 -2.80227e-13
216 2 0.0045511 0.015295 0.00830831 0.001 1.0472e-05 -3.72349e-14 -1.05867e-14 2.09233e-13
217 2 0.00344971 0.0123524 0.0142267 0.001 1.0472e-05 2.16129e-13 -1.71631e-13 -2.73435e-13
218 2 0.00542507 0.00699841 0.0144955 0.001 1.0472e-05 -1.28495e-12 -2.02983e-12 2.61929e-13
219 2 0.004154 0.0077511 0.0133558 0.001 1.0472e-05 -1.73162e-13 -6.08146e-13 -8.51655e-13
220 2 0.00355582 0.00172117 0.0111214 0.001 1.0472e-05 -1.57235e-13 -4.56506e-13 4.45341e-13
221 2 0.00191649 0.0111513 0.0141111 0.001 1.0472e-05 -2.20305e-13 -7.88649e-14 -1.96019e-13
222 2 0.00497291 0.00905312 0.0144716 0.001 1.0472e-05 1.71719e-13 4.2671e-13 2.27374e-14
223 2 0.00147994 0.0132345 0.00802318 0.001 1.0472e-05 7.15952e-15 5.7492e-15 -2.01358e-13
224 2 0.00538351 0.0137964 0.0110359 0.001 1.0472e-05 -1.03027e-13 -3.73916e-13 1.25222e-13
225 2 0.00614858 0.0133987 0.00932192 0.001 1.0472e-05 1.8263e-13 -4.54737e-14 3.77922e-14
226 2 0.00315506 0.0152745 0.0127156 0.001 1.0472e-05 -7.59754e-16 -2.39469e-14 5.6074e-14
227 2 0.00331165 0.0121809 0.0112324 0.001 1.0472e-05 -1.43731e-14 -3.63037e-14 7.40611e-14
228 2 0.00478249 0.0129927 0.00801522 0.001 1.0472e-05 4.07476e-14 7.85637e-15 2.76708e-14
229 2 0.00287908 0.000577227 0.00913794 0.001 1.0472e-05 -2.29703e-13 2.61516e-16 3.91775e-13
230 2 0.00482688 0.000512197 0.0118353 0.001 1.0472e-05 -2.928e-13 -3.18348e-13 8.05493e-14
231 2 0.00436664 0.00920053 0.0121799 0.001 1.0472e-05 3.21979e-13 9.87522e-14 -8.48987e-13
232 2 0.00183305 0.00740591 0.0102648 0.001 1.0472e-05 -2.07695e-14 -1.29622e-13 1.43981e-13
233 2 0.0105762 0.00600345 0.00083278 0.001 1.0472e-05 -1.25253e-13 -5.06632e-14 2.45203e-14
234 2 0.0085727 0.000954238 0.00371991 0.001 1.0472e-05 1.00635e-14 -2.22238e-14 -1.23194e-13
235 2 0.0125506 0.00592507 0.00687224 0.001 1.0472e-05 9.51454e-14 -8.18702e-14 -1.04294e-13
236 2 0.0138644 0.00186108 0.00373884 0.001 1.0472e-05 2.63679e-14 1.43938e-13 1.63107e-13
237 2 0.0148198 0.00690722 0.00622771 0.001 1.0472e-05 -2.23885e-14 1.28719e-13 -3.05611e-13
238 2 0.0127967 0.00115104 0.00518254 0.001 1.0472e-05 -1.80623e-15 2.43988e-13 3.41966e-13
239 2 0.0126978 0.0033941 0.00366537 0.001 1.0472e-05 -1.1425e-13 1.67024e-13 -1.51229e-13
240 2 0.0142243 0.00710519 0.00444611 0.001 1.0472e-05 -1.86752e-13 1.02443e-13 -3.57943e-14
241 2 0.00119152 0.00667294 0.00208604 0.001 1.0472e-05 2.89075e-13 1.13549e-13 1.22659e-13
242 2 0.000313572 0.00513955 0.00292455 0.001 1.0472e-05 -7.49495e-14 2.99736e-14 -3.12477e-13
243 2 0.00600926 0.00188524 0.00559096 0.001 1.0472e-05 -2.90316e-14 -2.08366e-14 1.44912e-13
244 2 0.0145143 0.00300638 0.00670588 0.001 1.0472e-05 1.09798e-13 -6.55507e-13 9.9048e-14
245 2 0.0112923 0.00788371 0.00101527 0.001 1.0472e-05 9.72814e-167 -2.35313e-165 3.04339e-165
246 2 0.0144733 0.00390721 0.000930821 0.001 1.0472e-05 4.59491e-14 -1.97061e-14 4.90283e-14
247 2 0.0104271 0.0019418 0.00528653 0.001 1.0472e-05 1.15744e-13 -8.79355e-16 -3.53926e-14
248 2 0.000751966 0.00154404 0.000946122 0.001 1.0472e-05 -5.61315e-14 -1.23569e-13 1.92058e-13
249 2 0.00572441 0.000224754 0.00645432 0.001 1.0472e-05 -2.06862e-13 -1.53398e-13 -1.46692e-15
250 2 0.00733811 0.00337156 0.000959894 0.001 1.0472e-05 3.29314e-13 1.6122e-13 -2.1216e-13
251 2 0.00682469 0.00182393 0.00379258 0.001 1.0472e-05 -6.25189e-13 2.54873e-13 6.55851e-13
252 2 0.0148882 0.00240424 0.00216596 0.001 1.0472e-05 4.68725e-14 -1.07341e-13 6.1109e-15
253 2 0.00671406 0.00503504 0.00178645 0.001 1.0472e-05 -4.74892e-14 2.88606e-14 -5.92912e-14
254 2 0.0100601 0.00213175 0.00719646 0.001 1.0472e-05 -5.77041e-14 2.11856e-13 5.99024e-14
255 2 0.00587621 0.00644528 0.00561243 0.001 1.0472e-05 -1.18644e-14 -1.25618e-14 -2.17088e-14
256 2 0.0109437 0.00354087 0.00442631 0.001 1.0472e-05 6.54308e-14 -1.30314e-13 -1.79212e-14
257 2 0.00699238 0.00440308 0.00741088 0.001 1.0472e-05 -1.96915e-13 7.12607e-14 -8.31727e-14
258 2 0.00950257 0.00677094 0.00404919 0.001 1.0472e-05 2.6834e-13 -2.48114e-14 -8.18826e-14
259 2 0.0119471 0.0046144 0.000832378 0.001 1.0472e-05 6.81769e-14 -2.26528e-13 1.65947e-15
260 2 0.0102125 0.00428781 0.00609915 0.001 1.0472e-05 -1.9137e-14 -1.37006e-13 -6.32192e-14
261 2 0.0016731 0.00262725 0.00496941 0.001 1.0472e-05 3.53775e-13 3.87007e-13 1.8979e-14
262 2 0.0111297 0.00301122 0.00255228 0.001 1.0472e-05 2.97204e-13 -1.80074e-13 -5.90796e-14
263 2 0.007323 0.0026099 0.00685507 0.001 1.0472e-05 1.70748e-14 -1.51498e-13 1.00193e-13
264 2 0.000733576 0.00217845 0.00699596 0.001 1.0472e-05 -1.32846e-12 -5.56599e-13 7.29118e-13
265 2 0.00823085 0.00501993 0.00288763 0.001 1.0472e-05 -1.33032e-14 -1.21744e-13 4.13312e-14
266 2 0.011878 0.00479143 0.00265704 0.001 1.0472e-05 2.89321e-14 -1.07766e-13 3.92976e-14
267 2 0.00719158 0.00040665 0.00507761 0.001 1.0472e-05 1.42764e-14 -1.92441e-13 1.4014e-13
268 2 0.00892982 0.0055509 0.00748214 0.001 1.0472e-05 -3.20254e-13 2.26782e-14 -2.66531e-14
269 2 0.0140691 0.00493803 0.0039756 0.001 1.0472e-05 1.9054e-14 -8.48582e-14 -1.68886e-13
270 2 0.0108378 0.00540062 0.00750773 0.001 1.0472e-05 3.15073e-14 -3.40071e-13 1.62313e-14
271 2 0.0126604 0.00625673 0.00504483 0.001 1.0472e-05 4.19742e-13 5.2059e-14 5.75507e-14
272 2 0.0152026 0.00205037 0.00512595 0.001 1.0472e-05 -1.59571e-13 1.90282e-14 -3.93763e-14
273 2 0.00773543 0.00453039 0.00570935 0.001 1.0472e-05 -2.27915e-14 7.63571e-14 1.74141e-13
274 2 0.000308803 0.0039398 0.00547561 0.001 1.0472e-05 5.85254e-13 -6.09507e-13 6.21859e-14
275 2 0.00137238 0.00294403 0.00222072 0.001 1.0472e-05 -4.95852e-13 -5.86628e-14 3.41367e-14
276 2 0.00791676 0.00192986 0.00214396 0.001 1.0472e-05 1.29181e-12 1.52644e-13 -1.35873e-12
277 2 0.0141749 0.00511038 0.00590423 0.001 1.0472e-05 -9.54732e-14 9.78355e-14 2.13561e-13
278 2 0.0142895 0.00586121 0.00771706 0.001 1.0472e-05 -1.75003e-13 -1.43547e-13 4.05283e-14
279 2 0.0136147 0.0152856 0.000920924 0.001 1.0472e-05 1.67605e-13 1.36103e-14 -1.10953e-14
280 2 0.0133575 0.00600193 0.00112486 0.001 1.0472e-05 -4.16743e-12 -1.34139e-12 -9.81723e-13
281 2 0.00912899 0.00282833 0.00344908 0.001 1.0472e-05 1.93275e-14 -1.01004e-13 -1.4683e-14
282 2 0.00694441 0.00551392 0.0042525 0.001 1.0472e-05 1.53335e-13 -1.14045e-13 -7.9496e-14
283 2 0.0110443 0.00554901 0.00419672 0.001 1.0472e-05 -2.58047e-14 -2.23138e-13 -1.69994e-13
284 2 0.0120582 0.004593 0.00556406 0.001 1.0472e-05 2.09449e-13 -4.45813e-13 7.45464e-14
285 2 0.0128951 0.00624032 0.00315101 0.001 1.0472e-05 3.90988e-14 1.50614e-14 -5.24179e-14
286 2 0.00926143 0.0049035 0.00453388 0.001 1.0472e-05 8.75176e-14 -1.58842e-13 -5.71479e-15
287 2 0.00725695 0.00730089 0.00375739 0.001 1.0472e-05 3.77382e-14 2.36921e-16 -7.78104e-14
288 2 0.0132059 0.00305006 0.00539909 0.001 1.0472e-05 1.15635e-13 1.39155e-13 1.30394e-13
289 2 0.000147997 0.00550139 0.000984391 0.001 1.0472e-05 1.61266e-13 4.24348e-14 -8.82281e-14
290 2 0.0120946 0.00153628 0.00188497 0.001 1.0472e-05 -4.47411e-14 7.28399e-14 3.40798e-13
291 2 0.00741789 0.00364077 0.00392059 0.001 1.0472e-05 -1.1218e-13 -2.41737e-13 1.00717e-13
292 2 0.0107076 0.000190476 0.00454062 0.001 1.0472e-05 3.07447e-13 -3.62655e-14 -3.74474e-14
293 2 0.008359 0.00703625 0.00151196 0.001 1.0472e-05 -1.15248e-13 6.73226e-15 -9.39993e-14
294 2 0.0116819 0.00171199 0.00382432 0.001 1.0472e-05 3.85605e-13 1.0152e-13 3.36112e-13
295 2 0.0129191 0.00786773 0.00223034 0.001 1.0472e-05 2.90922e-13 3.26368e-13 -3.9714e-14
296 2 0.0130547 0.00209557 0.00758181 0.001 1.0472e-05 2.58729e-13 3.2656e-13 -3.38626e-13
297 2 0.00651799 0.00668516 0.000905134 0.001 1.0472e-05 -1.12347e-13 -5.3391e-15 -4.2078e-14
298 2 0.0099982 0.00437356 0.0027958 0.001 1.0472e-05 -1.2831e-13 -2.07166e-14 2.19165e-14
299 2 0.0152985 0.00340932 0.0037031 0.001 1.0472e-05 -9.53528e-14 1.78257e-13 -3.95638e-15
300 2 0.00865804 0.00138611 0.00563991 0.001 1.0472e-05 8.34908e-14 -1.25649e-13 -3.43128e-14
301 2 0.000903309 0.0058206 0.00514524 0.001 1.0472e-05 5.55113e-13 -4.19031e-12 1.58267e-12
302 2 0.0116264 0.00303798 0.0065688 0.001 1.0472e-05 2.12651e-13 2.22251e-13 9.73079e-14
303 2 0.00973924 0.00609272 0.00240452 0.001 1.0472e-05 7.00972e-14 -1.7669e-13 -7.62462e-14
304 2 0.0089161 0.00315516 0.00532731 0.001 1.0472e-05 -3.99953e-14 -1.13259e-13 5.52254e-14
305 2 0.0136563 0.00181371 0.000880346 0.001 1.0472e-05 1.80094e-14 -1.05357e-13 1.73302e-14
306 2 0.0129125 0.00330909 0.0018307 0.001 1.0472e-05 1.42347e-15 -8.43103e-14 -1.26916e-14
307 2 0.0130705 0.00413556 0.00714699 0.001 1.0472e-05 -1.66667e-13 2.28363e-13 -1.87205e-13
308 2 0.00877587 0.00509294 0.000981684 0.001 1.0472e-05 -4.14619e-14 -1.19907e-13 -8.82022e-14
309 2 0.0116609 0.00115733 0.0067113 0.001 1.0472e-05 1.85498e-13 5.35119e-14 1.49282e-13
310 2 0.0101785 0.00144607 0.00270868 0.001 1.0472e-05 4.00157e-15 -2.00932e-13 1.36373e-13
311 2 0.00964141 0.00272023 0.00124811 0.001 1.0472e-05 -1.25106e-154 -3.76938e-154 -1.7775e-153
312 2 0.0131914 0.000235131 0.00284417 0.001 1.0472e-05 3.35892e-13 -6.99715e-14 3.34774e-13
313 2 0.00778012 0.000841737 0.00715926 0.001 1.0472e-05 -2.61497e-15 2.73298e-14 -9.29207e-14
314 2 0.00654613 0.0048767 0.0143978 0.001 1.0472e-05 -6.96414e-13 -1.90812e-13 1.5743e-13
315 2 0.0142147 0.00437975 0.0144394 0.001 1.0472e-05 2.57682e-14 -1.08549e-12 -3.81914e-15
316 2 0.00702753 0.00166886 0.0119499 0.001 1.0472e-05 -7.77715e-14 -4.25332e-13 -4.97953e-15
317 2 0.0125585 0.00135809 0.0103451 0.001 1.0472e-05 3.74518e-14 -1.61108e-13 -1.74174e-14
318 2 0.0105387 0.00366488 0.00826533 0.001 1.0472e-05 -5.18209e-13 2.04291e-14 -4.17626e-13
319 2 0.00989455 0.00379615 0.0132605 0.001 1.0472e-05 5.33311e-14 1.82771e-13 -3.38231e-14
320 2 0.00948029 0.00497434 0.0145885 0.001 1.0472e-05 -1.44922e-13 2.55387e-14 2.43015e-14
321 2 0.00812448 0.0037023 0.0144178 0.001 1.0472e-05 -1.01376e-13 2.10416e-13 -3.06081e-14
322 2 0.00645769 0.00624469 0.00747278 0.001 1.0472e-05 3.92885e-14 -3.52935e-14 1.44142e-14
323 2 8.6961e-06 0.00246912 0.011775 0.001 1.0472e-05 -8.61772e-14 -6.51358e-14 8.46276e-14
324 2 0.00547441 0.00337156 0.0137071 0.001 1.0472e-05 6.17998e-13 3.62175e-13 4.84546e-13
325 2 0.00767553 0.00428174 0.0107532 0.001 1.0472e-05 -7.7551e-16 -1.61956e-13 1.79069e-14
326 2 0.0117324 0.00327234 0.0127593 0.001 1.0472e-05 3.80571e-13 4.77507e-13 -3.05034e-13
327 2 0.0137438 0.00449053 0.0121546 0.001 1.0472e-05 8.42358e-13 -5.11434e-13 4.00245e-14
328 2 0.0145643 0.00671786 0.00941852 0.001 1.0472e-05 4.09455e-13 -6.87065e-13 -2.2786e-14
329 2 0.0110545 0.00612533 0.0106193 0.001 1.0472e-05 1.18412e-13 1.54324e-13 2.90899e-15
330 2 0.0114413 0.00458871 0.00967478 0.001 1.0472e-05 5.00026e-14 -1.57493e-14 -2.08708e-14
331 2 0.00815833 0.00160333 0.0102813 0.001 1.0472e-05 5.27464e-14 7.30402e-14 -1.06271e-13
332 2 0.00940272 0.00621722 0.0116518 0.001 1.0472e-05 5.16869e-14 1.41182e-13 -6.09327e-14
333 2 0.0147536 0.00141981 0.00817787 0.001 1.0472e-05 1.05795e-12 2.03677e-13 -1.15452e-12
334 2 0.0141343 0.00243245 0.00972231 0.001 1.0472e-05 -3.61388e-15 -1.77363e-13 2.78093e-13
335 2 0.0144211 0.00493047 0.0100311 0.001 1.0472e-05 1.08124e-13 9.73502e-14 -4.65977e-13
336 2 0.0097778 0.0054931 0.00933007 0.001 1.0472e-05 -3.46067e-14 -3.10802e-13 -3.57696e-13
337 2 0.00721384 0.00298798 0.0091964 0.001 1.0472e-05 3.91311e-14 9.87295e-15 -3.13467e-13
338 2 0.0152782 0.000515223 0.0144925 0.001 1.0472e-05 6.8994e-14 -2.85065e-13 -2.2459e-14
339 2 0.00883313 0.00364977 0.00733024 0.001 1.0472e-05 4.44008e-14 -7.8232e-14 4.59903e-14
340 2 0.0120441 0.00166669 0.0138058 0.001 1.0472e-05 2.53429e-13 5.19459e-13 -3.82902e-13
341 2 0.00653885 0.00550991 0.00928525 0.001 1.0472e-05 -7.18236e-13 2.75699e-13 1.65712e-13
342 2 0.000162503 0.0048029 0.0116243 0.001 1.0472e-05 2.04895e-13 3.37931e-15 -1.07108e-13
343 2 0.0128072 0.00351739 0.00884524 0.001 1.0472e-05 -2.83459e-13 5.13742e-14 -8.87192e-14
344 2 0.0109639 0.00522412 0.0135625 0.001 1.0472e-05 -1.74256e-13 -1.29505e-13 4.16268e-15
345 2 0.0130019 0.00602705 0.0134367 0.001 1.0472e-05 1.84282e-13 -7.66334e-13 -3.99564e-13
346 2 0.0109825 0.00285717 0.0104089 0.001 1.0472e-05 -5.24107e-14 -1.64835e-13 7.24263e-14
347 2 0.000710054 0.00472505 0.014483 0.001 1.0472e-05 6.18724e-13 -9.21375e-13 -1.20793e-13
348 2 0.000752711 0.00591898 0.00999697 0.001 1.0472e-05 1.40093e-13 -1.30559e-13 -7.35021e-14
349 2 0.00732844 0.0036583 0.0125369 0.001 1.0472e-05 -9.54614e-14 -2.18332e-13 5.72611e-14
350 2 0.0114511 0.00181941 0.00874483 0.001 1.0472e-05 2.14884e-12 9.59774e-13 3.5626e-12
351 2 0.0064966 0.00132546 0.00849512 0.001 1.0472e-05 -6.86267e-15 3.35834e-14 -3.55059e-13
352 2 0.0146541 0.00403715 0.00833047 0.001 1.0472e-05 3.59109e-14 8.7625e-14 2.10643e-13
353 2 0.012338 0.00446445 0.0144923 0.001 1.0472e-05 -5.38798e-13 -1.24752e-13 1.10706e-14
354 2 0.00915216 0.00325587 0.00991909 0.001 1.0472e-05 -2.95877e-13 -2.76031e-13 3.30119e-13
355 2 0.0086308 0.00205507 0.00843608 0.001 1.0472e-05 -2.05709e-13 -6.75218e-14 2.10321e-13
356 2 0.00852721 0.00507222 0.0129157 0.001 1.0472e-05 -3.99559e-14 -1.4187e-13 -7.23421e-14
357 2 0.00707111 0.00225419 0.0138558 0.001 1.0472e-05 -1.52932e-13 -2.02118e-13 -3.72536e-13
358 2 0.0127005 0.00372234 0.0106695 0.001 1.0472e-05 -1.08066e-13 -3.50382e-13 -5.64344e-13
359 2 0.0135503 0.00244397 0.011548 0.001 1.0472e-05 9.03315e-15 4.8148e-14 -9.7719e-14
360 2 0.0101081 0.00446988 0.0111349 0.001 1.0472e-05 -5.54082e-14 1.297e-14 1.68765e-13
361 2 0.0137907 0.00291857 0.013249 0.001 1.0472e-05 1.82991e-13 -3.63868e-13 -3.99086e-14
362 2 8.57222e-05 0.00286382 0.0144437 0.001 1.0472e-05 1.41556e-12 -5.95653e-13 -2.3425e-14
363 2 0.0138441 0.00178442 0.0145892 0.001 1.0472e-05 1.98596e-13 -1.84334e-13 4.56283e-15
364 2 0.013128 0.00591751 0.01096 0.001 1.0472e-05 -7.15456e-15 -1.96588e-13 -1.01395e-13
365 2 0.000338251 0.00356263 0.0102026 0.001 1.0472e-05 3.70645e-13 3.80634e-15 -7.1946e-13
366 2 0.00811628 0.00613703 0.0101619 0.001 1.0472e-05 -3.89411e-13 1.08713e-13 3.38379e-14
367 2 0.0149223 0.00564991 0.0132327 0.001 1.0472e-05 7.45409e-13 -8.23122e-13 -1.20736e-12
368 2 0.0130277 0.0153264 0.0143965 0.001 1.0472e-05 -5.63147e-14 2.85372e-13 -1.44578e-14
369 2 0.0119212 0.00505648 0.0120259 0.001 1.0472e-05 1.55542e-13 -4.13308e-13 1.26246e-13
370 2 0.00109959 0.00464029 0.0088018 0.001 1.0472e-05 3.02193e-14 3.44804e-13 2.07663e-13
371 2 0.00816663 0.00460955 0.00892214 0.001 1.0472e-05 -3.47897e-13 2.32792e-14 3.97523e-14
372 2 0.0136596 0.000990936 0.0128472 0.001 1.0472e-05 3.32545e-14 -5.13748e-14 2.27928e-14
373 2 0.0102295 0.0078545 0.00275444 0.001 1.0472e-05 1.64402e-13 -1.10307e-13 1.56468e-13
374 2 0.0084105 0.00882759 0.000870243 0.001 1.0472e-05 1.21644e-13 -1.37571e-13 8.51961e-14
375 2 0.00932966 0.0125175 0.00266805 0.001 1.0472e-05 2.86638e-13 -2.9963e-13 -1.9083e-14
376 2 0.0148241 0.0128984 0.00442098 0.001 1.0472e-05 2.41685e-13 -3.15215e-14 3.56908e-13
377 2 0.0110178 0.00982361 0.00466687 0.001 1.0472e-05 2.99989e-13 1.87691e-14 -2.26225e-13
378 2 0.0151322 0.0006071 0.002972 0.001 1.0472e-05 2.00533e-13 2.60716e-14 1.16347e-13
379 2 0.00955185 0.00942053 0.00225453 0.001 1.0472e-05 4.6995e-15 -8.72082e-14 -4.20635e-15
380 2 0.0091529 0.000544887 0.00145682 0.001 1.0472e-05 3.93215e-14 -1.07921e-13 -1.24047e-13
381 2 0.0153141 0.00972122 0.00245086 0.001 1.0472e-05 4.65092e-13 8.35362e-14 -9.7326e-14
382 2 0.0102675 0.0111605 0.0035914 0.001 1.0472e-05 2.78333e-14 5.0856e-14 -1.46265e-13
383 2 0.000565403 0.000354355 0.00690979 0.001 1.0472e-05 1.30188e-13 -5.66522e-13 2.14857e-14
384 2 0.0146528 0.00676662 0.00257973 0.001 1.0472e-05 2.58898e-13 1.34944e-13 -2.40787e-13
385 2 0.0111546 0.000249481 0.000830735 0.001 1.0472e-05 -2.9931e-13 -4.04695e-14 1.04828e-14
386 2 0.00690592 0.0118585 0.00544997 0.001 1.0472e-05 2.12263e-13 -5.42285e-13 -1.40389e-13
387 2 0.0141687 0.000946152 0.00643263 0.001 1.0472e-05 2.50929e-13 2.08539e-13 2.43272e-13
388 2 0.00629939 0.0107588 0.00405667 0.001 1.0472e-05 -4.28186e-14 5.2845e-14 4.70671e-13
389 2 0.00820809 0.0126753 0.00426418 0.001 1.0472e-05 -3.73125e-14 -3.53481e-13 1.90891e-14
390 2 0.00115686 0.00773546 0.00624896 0.001 1.0472e-05 -1.12755e-13 1.98486e-14 -8.70214e-14
391 2 0.0116347 0.0123231 0.00290255 0.001 1.0472e-05 -4.12391e-15 1.06849e-13 3.0761e-13
392 2 0.00120119 0.0142226 0.00292881 0.001 1.0472e-05 2.26256e-13 6.41934e-14 1.06858e-13
393 2 0.0123134 0.0114524 0.00114913 0.001 1.0472e-05 2.35209e-14 3.55176e-13 4.472e-14
394 2 0.00875027 0.0147075 0.00477442 0.001 1.0472e-05 1.2439e-13 3.70959e-14 -2.99898e-14
395 2 0.00851349 0.0130673 0.000956909 0.001 1.0472e-05 3.07376e-14 7.07601e-14 -1.32022e-13
396 2 0.0100729 0.000259513 0.00625108 0.001 1.0472e-05 -1.86536e-14 8.8068e-14 2.07937e-14
397 2 0.00766469 0.0150293 0.000864176 0.001 1.0472e-05 1.12027e-13 1.23566e-13 1.31519e-14
398 2 0.0151035 0.0144722 0.00175213 0.001 1.0472e-05 7.71705e-13 -5.41371e-14 1.17619e-13
399 2 0.0121731 0.014418 0.00399545 0.001 1.0472e-05 6.14219e-13 1.00032e-14 -6.93666e-14
400 2 0.00763295 0.012517 0.00711935 0.001 1.0472e-05 2.35629e-13 -1.87989e-14 1.06396e-13
401 3 0.00979811 0.0110684 0.00110373 0.00125 2.04531e-05 1.03623e-12 -8.39982e-14 1.89329e-14
402 3 0.00828293 0.0103259 0.00366929 0.00125 2.04531e-05 1.07796e-12 -8.77602e-13 -8.02405e-15
403 3 0.000119754 0.0109067 0.00410837 0.00125 2.04531e-05 4.37975e-13 4.3311e-13 5.15555e-13
404 3 0.0145028 0.011677 0.00119504 0.00125 2.04531e-05 -5.76652e-14 -6.36645e-14 8.22864e-14
405 3 0.00916354 0.00868626 0.00500254 0.00125 2.04531e-05 4.47238e-13 3.49115e-14 -6.18654e-13
406 3 0.00822439 0.0143232 0.0027509 0.00125 2.04531e-05 1.90041e-13 2.32585e-14 2.35482e-14
407 3 0.000660034 0.0080941 0.00371508 0.00125 2.04531e-05 1.51819e-13 -8.82076e-15 2.13057e-13
408 3 0.0014234 0.0114201 0.00597474 0.00125 2.04531e-05 -1.25513e-14 2.60542e-13 -2.30526e-14
409 3 0.00693064 0.00892168 0.00240657 0.00125 2.04531e-05 2.03615e-13 -1.61599e-13 3.04723e-14
410 3 0.0108802 0.0131212 0.00108861 0.00125 2.04531e-05 1.24812e-13 -3.76392e-13 1.55926e-13
411 3 0.0106043 0.0147918 0.00261889 0.00125 2.04531e-05 -2.26251e-13 -2.76966e-13 1.33739e-13
412 3 0.0103632 0.013276 0.00442784 0.00125 2.04531e-05 5.14386e-13 -9.5585e-14 5.36739e-14
413 3 0.00691409 0.00838279 0.0059281 0.00125 2.04531e-05 3.17759e-14 4.47139e-14 1.55023e-13
414 3 0.0135318 0.0133278 0.00268495 0.00125 2.04531e-05 2.68099e-13 2.76152e-14 1.10439e-12
415 3 0.0124568 0.0130977 0.00564053 0.00125 2.04531e-05 1.4356e-13 7.98306e-13 2.16575e-13
416 3 0.00623524 0.0127751 0.00113916 0.00125 2.04531e-05 -6.88832e-14 1.71166e-14 1.51559e-14
417 3 0.0141287 0.0148906 0.0047313 0.00125 2.04531e-05 3.28369e-13 -9.89871e-14 5.70766e-13
418 3 0.0135266 0.0095067 0.00111303 0.00125 2.04531e-05 1.04558e-13 5.14743e-13 4.45065e-13
419 3 0.00995828 0.0113967 0.00581314 0.00125 2.04531e-05 3.19939e-13 1.12304e-13 9.42142e-14
420 3 0.0116683 0.00986683 0.00256479 0.00125 2.04531e-05 1.68951e-12 -4.94975e-14 -4.47432e-13
421 3 0.0138435 0.00911241 0.00380848 0.00125 2.04531e-05 6.44079e-13 1.03781e-15 1.3627e-13
422 3 0.00929409 0.0136682 0.00655789 0.00125 2.04531e-05 3.34492e-13 -5.5963e-15 -9.79405e-15
423 3 0.0118366 0.00793123 0.00408673 0.00125 2.04531e-05 -1.84504e-13 1.04621e-13 -3.11529e-13
424 3 0.000525552 0.0136627 0.00617154 0.00125 2.04531e-05 6.92336e-13 7.57281e-13 1.09138e-15
425 3 0.00103817 0.000240895 0.00479257 0.00125 2.04531e-05 3.17406e-13 2.88431e-13 -1.02853e-13
426 3 0.013037 0.0113055 0.00418794 0.00125 2.04531e-05 3.30156e-14 1.55071e-13 4.9625e-13
427 3 0.00797789 0.0103499 0.00681999 0.00125 2.04531e-05 -7.78273e-14 9.63464e-14 -1.21405e-13
428 3 0.0145523 0.0143584 0.0130598 0.00125 2.04531e-05 -1.24823e-13 3.70986e-14 -1.3544e-13
429 3 0.00949855 0.0109528 0.0108233 0.00125 2.04531e-05 4.23799e-13 -8.69531e-13 -6.65337e-13
430 3 0.0144503 0.00764549 0.0140144 0.00125 2.04531e-05 -3.86678e-13 1.95661e-12 1.18352e-12
431 3 0.0127944 0.0113185 0.0122659 0.00125 2.04531e-05 -3.17325e-14 -4.33707e-13 1.02789e-13
432 3 0.00824319 0.00668703 0.0143494 0.00125 2.04531e-05 -9.78833e-13 1.61957e-13 1.88847e-13
433 3 0.00695965 0.0144502 0.00775701 0.00125 2.04531e-05 -1.12274e-13 -4.04694e-13 -3.9547e-14
434 3 0.0150341 0.0109966 0.0102594 0.00125 2.04531e-05 -1.38918e-13 1.08766e-14 4.16026e-13
435 3 0.000699942 0.00779799 0.00838517 0.00125 2.04531e-05 2.05396e-13 -4.42796e-13 -2.27903e-13
436 3 0.00963215 0.0125941 0.014175 0.00125 2.04531e-05 3.68801e-13 -3.12195e-13 6.24532e-15
437 3 0.00751422 0.0123779 0.0105607 0.00125 2.04531e-05 6.26467e-14 8.83892e-14 -1.49282e-14
438 3 0.00937483 0.00928907 0.00912958 0.00125 2.04531e-05 3.85521e-13 1.36554e-14 -1.21648e-14
439 3 0.00829909 0.00652498 0.00566643 0.00125 2.04531e-05 -1.8028e-14 1.02368e-13 1.69016e-13
440 3 0.0125234 0.012798 0.00860929 0.00125 2.04531e-05 8.18557e-13 3.15298e-15 -2.02976e-13
441 3 0.000912975 0.000682676 0.0126726 0.00125 2.04531e-05 -2.58719e-13 5.67035e-13 -1.19997e-12
442 3 0.0114742 0.014498 0.0073794 0.00125 2.04531e-05 8.1521e-13 2.45178e-13 2.80592e-13
443 3 0.00884593 7.62026e-05 0.0120069 0.00125 2.04531e-05 2.67203e-14 -2.51962e-13 -3.77297e-14
444 3 0.0149418 0.00927708 0.00600209 0.00125 2.04531e-05 5.12655e-14 -2.97619e-13 1.15795e-14
445 3 0.00659273 0.0114339 0.00852828 0.00125 2.04531e-05 2.77823e-13 4.87366e-14 1.74746e-14
446 3 0.008066 0.0146204 0.00994276 0.00125 2.04531e-05 7.14006e-13 1.97351e-13 -6.42174e-13
447 3 0.00615282 0.00787564 0.0088473 0.00125 2.04531e-05 -1.20728e-13 1.41985e-13 9.3593e-13
448 3 0.0121983 0.0132064 0.0137452 0.00125 2.04531e-05 -1.21021e-13 6.14707e-13 -2.50532e-13
449 3 0.00616276 0.00838439 0.011438 0.00125 2.04531e-05 -2.62443e-13 -2.11258e-14 -7.5971e-14
450 3 0.0138653 0.0115293 0.0142625 0.00125 2.04531e-05 1.10897e-14 -1.28317e-13 2.86222e-14
451 3 0.000834479 0.0121481 0.0120516 0.00125 2.04531e-05 -1.56191e-13 -5.17304e-13 -1.03925e-14
452 3 0.0139971 0.0130174 0.0109939 0.00125 2.04531e-05 -8.28192e-15 -2.6437e-13 6.54258e-14
453 3 0.0112117 0.0070221 0.0125841 0.00125 2.04531e-05 -3.38875e-13 -2.89519e-14 -8.10504e-13
454 3 0.0143716 0.0116897 0.00623969 0.00125 2.04531e-05 5.89223e-14 3.86853e-13 8.8586e-13
455 3 0.01213 0.00854339 0.0141991 0.00125 2.04531e-05 4.25564e-13 -8.20854e-13 2.30488e-13
456 3 0.0125723 0.0100284 0.0103688 0.00125 2.04531e-05 2.67185e-14 -2.02651e-12 1.24168e-12
457 3 0.0146497 0.000625688 0.0108766 0.00125 2.04531e-05 -5.40477e-14 3.73259e-13 6.02659e-13
458 3 0.00154874 0.00782244 0.0142834 0.00125 2.04531e-05 3.44494e-13 2.20074e-13 -3.19405e-14
459 3 0.00675834 0.00628533 0.0125321 0.00125 2.04531e-05 1.07078e-12 6.15847e-13 2.78447e-13
460 3 0.0143153 0.00877061 0.0096477 0.00125 2.04531e-05 -6.49104e-14 4.28857e-13 1.08744e-12
461 3 0.000255253 0.014879 0.00882111 0.00125 2.04531e-05 2.55855e-13 -8.01661e-14 -1.78497e-12
462 3 0.0149091 0.0126064 0.00854669 0.00125 2.04531e-05 1.64924e-13 7.25773e-15 -1.73423e-13
463 3 0.0115934 0.0127965 0.010922 0.00125 2.04531e-05 5.87873e-13 -4.07162e-14 -5.47669e-13
464 3 0.00946189 0.000108586 0.00824563 0.00125 2.04531e-05 -2.64339e-13 1.49247e-13 -1.3931e-15
465 3 0.0108503 0.0151875 0.0137928 0.00125 2.04531e-05 2.54086e-13 1.93822e-13 -4.06067e-14
466 3 0.0130409 0.0080965 0.0117725 0.00125 2.04531e-05 -4.2124e-13 1.9058e-12 -2.34803e-12
467 3 0.0104952 0.0147651 0.0102568 0.00125 2.04531e-05 6.54658e-13 -4.54967e-13 -3.27306e-13
468 3 0.012613 0.0148698 0.0116813 0.00125 2.04531e-05 7.76353e-14 -1.08501e-13 7.7945e-13
469 3 0.0150335 0.00691897 0.0115208 0.00125 2.04531e-05 1.91083e-13 3.52377e-13 -1.28872e-12
470 3 0.0138444 0.0142741 0.00715203 0.00125 2.04531e-05 -4.25022e-14 9.24202e-13 4.83281e-13
471 3 0.0121908 0.0104404 0.00634222 0.00125 2.04531e-05 1.27763e-14 -4.85159e-14 -3.43328e-14
472 3 0.00909755 0.0124014 0.00865308 0.00125 2.04531e-05 -3.79068e-14 4.13693e-13 -3.29127e-14
473 3 0.00686335 0.00844322 0.0137168 0.00125 2.04531e-05 -3.50257e-13 -7.49248e-13 -3.93664e-13
474 3 0.009422 0.0131524 0.0118102 0.00125 2.04531e-05 -2.53457e-15 4.1698e-14 2.22643e-14
475 3 0.0114036 0.0109292 0.014223 0.00125 2.04531e-05 -4.08739e-13 2.57669e-13 -3.7066e-13
476 3 0.010722 0.00688647 0.00592292 0.00125 2.04531e-05 5.60802e-13 -9.4102e-14 -1.67017e-13
477 3 0.00100938 0.00169558 0.00953593 0.00125 2.04531e-05 6.26937e-13 8.10272e-15 -5.64575e-14
478 3 0.00736665 0.0100076 0.0102437 0.00125 2.04531e-05 4.36467e-13 3.25473e-13 -2.50852e-13
479 3 0.00853535 0.00808845 0.0109623 0.00125 2.04531e-05 5.3252e-13 4.71485e-14 9.70378e-14
480 3 0.00666479 0.0138719 0.014363 0.00125 2.04531e-05 -1.87398e-14 -1.53737e-13 2.46656e-14
481 3 0.00933485 0.00826755 0.0131557 0.00125 2.04531e-05 -1.28051e-13 -9.72126e-14 -8.18655e-14
482 3 0.00880213 0.000985239 0.0142355 0.00125 2.04531e-05 -1.27769e-12 -6.32816e-13 -4.5497e-14
483 3 0.011096 0.00819403 0.0104058 0.00125 2.04531e-05 5.89624e-14 -4.76533e-14 -2.63072e-13
484 3 0.0128406 0.00806684 0.00639048 0.00125 2.04531e-05 -1.17238e-13 -5.47447e-13 -5.72508e-14
485 3 0.00827351 0.00758088 0.00781345 0.00125 2.04531e-05 2.12808e-13 -1.93377e-13 -1.5156e-14
486 3 0.0134998 0.0106392 0.00826385 0.00125 2.04531e-05 -8.55341e-14 -3.54275e-13 2.03071e-13
487 3 0.0110223 0.00969618 0.0122368 0.00125 2.04531e-05 3.06449e-13 1.67848e-13 8.74587e-14
488 3 0.00748356 0.0123154 0.0129704 0.00125 2.04531e-05 -2.07849e-13 -1.19967e-13 -1.49246e-13
489 3 0.0110152 0.0110624 0.00901587 0.00125 2.04531e-05 2.02243e-14 -1.32146e-12 2.06744e-13
490 3 0.0106286 0.00742746 0.00826266 0.00125 2.04531e-05 7.04105e-13 -4.40606e-13 1.45308e-14
491 3 0.000498175 0.0127897 0.0143072 0.00125 2.04531e-05 1.50121e-13 3.05267e-14 -5.97256e-14
492 3 0.0125461 0.00629427 0.00895738 0.00125 2.04531e-05 1.01543e-13 -1.81376e-13 1.69673e-13
493 3 0.009017 0.00240563 0.0121149 0.00125 2.04531e-05 -1.27009e-15 4.09593e-13 -1.51334e-13
494 3 0.0131769 0.0149757 0.00931721 0.00125 2.04531e-05 -4.80685e-13 -6.06885e-13 1.29852e-13
495 3 0.0109976 0.00122112 0.0118017 0.00125 2.04531e-05 -9.45844e-15 1.41389e-13 6.61784e-13
496 3 0.000411323 0.0102244 0.0080913 0.00125 2.04531e-05 6.49503e-13 -5.69708e-13 3.45546e-14
497 3 0.0146409 0.00970802 0.0121312 0.00125 2.04531e-05 -9.06646e-13 4.30307e-14 -1.31686e-13
498 3 0.0101827 0.00929987 0.00693469 0.00125 2.04531e-05 6.04158e-13 1.32788e-13 -5.92331e-13
499 3 0.000149829 0.00983017 0.01428 0.00125 2.04531e-05 -5.95541e-13 -3.46358e-14 4.9847e-13
500 3 0.0080958 0.0101579 0.0125847 0.00125 2.04531e-05 6.50698e-13 -1.2521e-13 -4.50248e-13
