ITEM: TIMESTEP
175000
ITEM: NUMBER OF ATOMS
500
ITEM: BOX BOUNDS pp pp ff
0.0000000000000000e+00 1.5370634520482899e-02
0.0000000000000000e+00 1.5370634520482899e-02
0.0000000000000000e+00 1.5370634520482899e-02
ITEM: ATOMS id type x y z vx vy vz omegax omegay omegaz radius mass fx fy fz
1 1 5.506891822170e-03 3.496683325888e-03 6.861980533146e-04 -3.233707714095e-08 2.129850771202e-07 -1.082665822483e-08 -2.472582779388e-04 3.322121154622e-05 -1.245639484411e-03 7.500000000000e-04 4.417864669111e-06 1.970191323780e-11 -1.271861508743e-10 -2.965814038197e-12
2 1 2.493953950375e-03 5.855370932082e-03 4.823917248160e-03 -9.034643198957e-08 1.811397081369e-08 8.978733802209e-08 2.009392496343e-04 5.346559475601e-05 -1.249923342808e-04 7.500000000000e-04 4.417864669111e-06 6.042791968910e-11 -1.260061158074e-11 -4.493642473383e-11
3 1 4.106602591360e-03 3.285748566959e-03 6.116000967255e-03 -1.179316146562e-08 -7.734664880646e-08 -1.611817059868e-07 8.905107645224e-05 -1.588954142556e-04 1.120169680464e-04 7.500000000000e-04 4.417864669111e-06 6.292625138400e-12 4.430368075318e-11 9.101361208258e-11
4 1 5.611513953561e-03 6.470954688093e-03 5.263887943928e-03 -4.731575232669e-08 -3.963589621860e-08 -6.322456299520e-08 -4.381417403896e-05 -9.224577740981e-05 2.458912250562e-04 7.500000000000e-04 4.417864669111e-06 2.648763906410e-11 2.861443113719e-11 3.883175736786e-11
5 1 2.429351499983e-05 1.565943624761e-03 2.362423671765e-03 1.016642959516e-07 -1.325174155794e-09 5.597276664188e-08 2.460544428509e-05 -1.477269104147e-04 -8.908998612019e-05 7.500000000000e-04 4.417864669111e-06 -5.357863497772e-11 -1.107380935855e-11 -2.767507792875e-11
6 1 1.799080550650e-03 6.657132930517e-03 2.119477286581e-03 1.092386311350e-06 -6.752056752228e-07 2.392292762185e-07 -9.551677323501e-04 -4.166945931450e-03 1.924841103435e-03 7.500000000000e-04 4.417864669111e-06 -6.199917851667e-10 3.802854048012e-10 -1.373719725970e-10
7 1 1.338048509591e-03 1.059842461662e-03 2.445598340271e-03 7.357461856080e-08 -1.103435048895e-07 1.721641208898e-07 -8.241539694776e-04 3.181412904582e-04 -1.239195997003e-04 7.500000000000e-04 4.417864669111e-06 -2.581020604676e-11 5.543006230054e-11 -9.611364086729e-11
8 1 2.142065874897e-03 2.613915746557e-03 1.509104256945e-03 2.157786765437e-274 1.157211845440e-273 8.074591894216e-274 -1.927246523349e+02 4.596640628209e+02 3.599986485298e+02 7.500000000000e-04 4.417864669111e-06 -2.162682076268e-275 -1.159837179773e-274 -8.092910496306e-275
9 1 5.543884220558e-03 6.052611478188e-03 3.821438582598e-03 -8.998708476790e-08 2.832700626322e-08 -1.419934487907e-07 9.814496479969e-05 -2.919565247954e-04 -4.211134539512e-05 7.500000000000e-04 4.417864669111e-06 5.155548898428e-11 -4.684260464703e-12 8.480215568958e-11
10 1 3.135004343170e-03 3.073177615739e-03 2.982138422862e-03 2.832235233155e-07 2.175342604008e-07 -1.109452151022e-07 -4.930609039520e-04 3.408684981660e-04 -4.539125800923e-05 7.500000000000e-04 4.417864669111e-06 -1.586980819145e-10 -1.167922416042e-10 6.564301511312e-11
11 1 3.853098058377e-03 2.353937077475e-03 7.115109889231e-04 -8.599329349066e-09 -1.846064352410e-08 6.864857293747e-09 2.420820973501e-05 -1.075178220654e-05 -2.398654618601e-04 7.500000000000e-04 4.417864669111e-06 5.421000673510e-12 1.106331910534e-11 -6.766777354033e-12
12 1 1.700727943360e-03 5.227779059225e-03 5.935409546626e-03 -3.115598709705e-08 -1.000462544896e-08 4.864839361328e-08 1.269157358388e-05 -4.050313225197e-05 -3.776788148892e-06 7.500000000000e-04 4.417864669111e-06 1.884339853725e-11 1.664277647325e-11 -2.527598127978e-11
13 1 7.141104165502e-03 4.735061399375e-03 5.719416638939e-03 -9.368671063568e-09 -1.842730991344e-08 1.310696066567e-08 5.026498617036e-06 7.254334290372e-05 3.996698785270e-05 7.500000000000e-04 4.417864669111e-06 3.864936258330e-12 1.629262147191e-11 5.013609988008e-12
14 1 3.313898379171e-03 5.641915378253e-03 3.587730335300e-03 -3.428851901173e-07 5.754613064092e-07 -2.917462057885e-07 -5.921926778740e-04 1.353647749973e-04 -4.525503610490e-04 7.500000000000e-04 4.417864669111e-06 2.003418802613e-10 -3.255990340799e-10 1.692309389588e-10
15 1 5.817982061713e-03 1.713104277678e-03 5.329736111962e-03 -4.069811974036e-08 5.347712015142e-08 2.346795915706e-08 9.975147799528e-05 3.588429179515e-05 -5.850258942419e-06 7.500000000000e-04 4.417864669111e-06 2.050630105433e-11 -1.947772963079e-11 -1.151853772413e-11
16 1 2.587323402607e-03 5.403159390203e-03 2.304758748084e-03 6.885317329069e-07 -1.233903224353e-06 -9.023230880415e-07 1.953416229557e-03 1.542255851912e-04 -1.383430789853e-03 7.500000000000e-04 4.417864669111e-06 -3.885275165125e-10 6.973548560591e-10 5.104531263148e-10
17 1 3.719792709312e-03 4.443406643601e-03 2.488798636920e-03 1.900983766481e-07 -7.807849363720e-07 -3.022700788476e-07 -3.371450334811e-03 -6.227729026087e-05 1.491417227026e-03 7.500000000000e-04 4.417864669111e-06 -1.070824138808e-10 4.397312502671e-10 1.692700163819e-10
18 1 1.390968523651e-03 5.064485579015e-03 4.389463998002e-03 -3.436479757701e-07 2.218036443707e-07 2.887576206075e-07 1.080691863040e-03 1.310819109450e-03 3.342503585880e-04 7.500000000000e-04 4.417864669111e-06 1.907314620182e-10 -1.272433138939e-10 -1.635519741658e-10
19 1 3.633311322349e-03 2.026921154097e-03 2.108538397198e-03 2.009359178136e-08 -2.179529523415e-08 1.957002791799e-08 2.463723455161e-05 1.203214625449e-04 -5.475740227295e-05 7.500000000000e-04 4.417864669111e-06 -1.077839129486e-11 5.704464939507e-12 -1.217190934345e-11
20 1 5.473630831931e-03 4.310588697834e-03 7.342047923931e-03 -4.402698352425e-08 2.690866265921e-09 -2.924297563119e-08 2.878665006909e-05 2.643029602097e-05 -4.268038679307e-05 7.500000000000e-04 4.417864669111e-06 2.186574481751e-11 -8.918804609920e-12 1.998576681935e-12
21 1 6.911602802873e-03 2.477561956924e-03 5.172506770380e-03 -2.210690790688e-08 1.425939777947e-08 -2.068225633690e-08 -3.619056333647e-06 9.200942704564e-05 -5.072984920303e-05 7.500000000000e-04 4.417864669111e-06 1.667693247844e-11 -2.778301465579e-11 1.486894344703e-11
22 1 3.766512846070e-03 3.413354435275e-03 4.663327349236e-03 -5.182632274804e-08 1.254804237415e-07 -1.801742071513e-07 2.335282759355e-04 1.903317219318e-04 -1.090930689003e-04 7.500000000000e-04 4.417864669111e-06 2.606829162434e-11 -6.956254138610e-11 1.048563471997e-10
23 1 5.669278888945e-03 3.858049108868e-03 4.527987768896e-03 -5.052666122025e-09 2.774364014299e-08 -5.789771605696e-08 -1.488593125120e-05 4.634649874607e-05 -6.111590574638e-05 7.500000000000e-04 4.417864669111e-06 4.181884135339e-12 -2.211690878849e-11 2.417979402231e-11
24 1 2.841101017449e-03 2.277600986816e-03 4.790374059508e-03 -8.497241088877e-09 7.165275770576e-08 -8.525090387674e-08 -1.507080979226e-05 1.533564462226e-04 4.542044744703e-05 7.500000000000e-04 4.417864669111e-06 2.645931351432e-12 -3.989959015586e-11 4.466351087418e-11
25 1 3.956326821346e-03 5.989466057940e-03 4.851751754806e-03 -1.014856953621e-07 -3.108969995532e-08 -7.752727765776e-08 -1.326835334305e-04 1.987539052126e-04 6.287102613877e-05 7.500000000000e-04 4.417864669111e-06 5.505922304092e-11 3.434892124818e-12 4.323399575803e-11
26 1 5.779337230754e-03 5.033633375297e-03 5.347651003551e-03 3.652281250935e-08 1.067441402056e-08 -4.353645638587e-08 2.282376595970e-05 -1.672001491289e-04 -9.753385106134e-05 7.500000000000e-04 4.417864669111e-06 -2.284310960198e-11 -1.289377282500e-11 2.350544573792e-11
27 1 2.223411486660e-03 4.331040884720e-03 8.654447288251e-04 -3.942304601559e-290 1.845374797836e-290 4.659257474224e-290 3.490316828911e+01 -4.315664334386e+01 -2.712102771863e+01 7.500000000000e-04 4.417864669111e-06 3.951248398380e-291 -1.849561348323e-291 -4.669827802090e-291
28 1 4.280097436134e-03 1.807510048767e-03 4.030210109712e-03 3.953583471493e-08 -2.938617956253e-08 -5.938015919963e-08 -1.094888280926e-04 6.261519209994e-05 -1.050960508499e-04 7.500000000000e-04 4.417864669111e-06 -2.917535040288e-11 2.032022543549e-11 4.388449789294e-11
29 1 4.916804700383e-03 5.592509826914e-03 7.466309582983e-04 -5.165899094835e-08 4.320052035596e-08 -6.893076881190e-08 -6.839668622276e-05 -7.977890944593e-05 -6.858283190525e-04 7.500000000000e-04 4.417864669111e-06 2.931305916940e-11 -2.349873935658e-11 3.882260556999e-11
30 1 4.340699109781e-03 8.111296424036e-04 6.958396798150e-03 -2.469010613804e-08 1.205361016719e-08 -3.656232257324e-09 -1.009328852543e-05 -5.317430548923e-05 5.556583380472e-05 7.500000000000e-04 4.417864669111e-06 4.035521393648e-11 -8.912293844977e-12 -1.079373454099e-11
31 1 3.231037717894e-03 1.124084343173e-03 6.064132404460e-03 -2.149945340497e-08 1.322501515155e-08 -3.663819880204e-08 7.397481484952e-05 1.374644320919e-05 -1.827679365423e-05 7.500000000000e-04 4.417864669111e-06 -1.296510293854e-11 -9.583422917482e-12 2.722480655745e-11
32 1 2.083656427768e-03 6.388664236379e-03 3.539420583537e-03 -7.015086855400e-07 3.283487220005e-07 5.853772059315e-07 -1.807907005178e-04 1.486351373791e-03 -1.398890422003e-03 7.500000000000e-04 4.417864669111e-06 3.901571810084e-10 -1.789669584417e-10 -3.335459276298e-10
33 1 6.137838049751e-03 5.894338476796e-03 2.437190144250e-03 -1.171475300434e-07 1.194391268766e-07 5.730252947609e-08 -1.359355747793e-05 4.406652198197e-05 -6.045542713811e-05 7.500000000000e-04 4.417864669111e-06 6.812082968773e-11 -6.410768732943e-11 -3.309247574028e-11
34 1 4.379714815590e-03 4.688081067579e-03 6.541906211116e-03 -4.665986419984e-08 -5.477483002598e-08 -6.560709063300e-08 -4.012385679245e-05 -1.387642310494e-05 -9.906952198763e-05 7.500000000000e-04 4.417864669111e-06 3.776497023744e-11 2.187069652382e-11 4.107020336142e-11
35 1 4.080753157562e-03 3.823459815050e-03 1.016479467269e-03 -1.526419351188e-05 -4.446905457913e-05 3.881286960631e-06 3.408918164890e-02 -3.986370056187e-03 5.902359572235e-02 7.500000000000e-04 4.417864669111e-06 6.503975433013e-09 1.907054863376e-08 -1.647706610274e-09
36 1 6.481041000241e-04 6.144140717019e-03 6.383960411977e-03 -4.746287712222e-08 1.366242612518e-09 1.453865020831e-08 3.602001985246e-06 -2.128988827084e-05 -9.098447298881e-06 7.500000000000e-04 4.417864669111e-06 1.355679924735e-11 3.028388545269e-12 -1.246882020227e-11
37 1 3.509324747478e-03 5.204884737717e-03 1.138371161976e-03 9.344185184535e-06 -2.803435504576e-05 6.588801278981e-06 -2.982798797425e-02 8.001023795916e-04 -9.937327209582e-02 7.500000000000e-04 4.417864669111e-06 -4.162917879739e-09 1.203766480013e-08 -2.762002520134e-09
38 1 1.289445493184e-03 2.632050571142e-03 7.055941490432e-03 -8.081608581942e-09 -7.839185797647e-09 1.158537836887e-09 1.531280792341e-05 5.697398849702e-06 -4.555043565491e-06 7.500000000000e-04 4.417864669111e-06 2.034933958342e-12 1.145938709380e-11 -1.517096988976e-12
39 1 4.683726117080e-03 4.880988056845e-03 3.549800156976e-03 -1.372798946116e-07 1.470437156840e-08 -1.714613304103e-07 -1.596632235998e-04 1.118689343353e-04 9.523000892491e-05 7.500000000000e-04 4.417864669111e-06 7.350050917571e-11 -1.044092831362e-11 1.047016829074e-10
40 1 2.992355654975e-03 4.265123183371e-03 3.772433979091e-03 -1.922026585407e-07 3.375858406476e-07 -1.780460972543e-07 3.748700779331e-04 -6.500122952807e-04 6.918126654179e-04 7.500000000000e-04 4.417864669111e-06 1.080946720759e-10 -1.926622752987e-10 1.019890077796e-10
41 1 1.241656930695e-03 6.897485140637e-03 4.671727284454e-03 -1.411425024487e-06 7.479232499176e-07 5.326675644343e-07 -2.891624951933e-04 -2.334788190991e-03 1.386927057350e-03 7.500000000000e-04 4.417864669111e-06 7.265372167940e-10 -3.867769786542e-10 -3.062686666353e-10
42 1 4.594904820762e-03 3.294402808686e-03 3.418492178561e-03 1.021367702248e-07 -1.383767394543e-08 -1.503160624485e-07 -4.959013295455e+02 7.120772355070e+01 7.451966789821e+02 7.500000000000e-04 4.417864669111e-06 -5.489530689845e-11 7.491772481039e-12 8.040585987559e-11
43 1 4.929906312461e-03 2.697591352468e-03 4.928537178749e-03 -5.182854120289e-08 5.132596421813e-08 -9.401418796158e-08 -9.676413095303e-05 -3.249706673505e-04 7.935887387705e-05 7.500000000000e-04 4.417864669111e-06 2.850238155704e-11 -2.489079967319e-11 5.655208139176e-11
44 1 2.212543165760e-03 5.850689623723e-03 7.498730320281e-04 2.017698940760e-05 1.284518013170e-05 8.222272383720e-06 -1.648884279136e-02 2.879464718431e-02 2.751735852930e-02 7.500000000000e-04 4.417864669111e-06 -8.926843114627e-09 -5.520214843179e-09 -3.439364675409e-09
45 1 4.467628235900e-03 1.409789053330e-03 5.447347168308e-03 -2.331947102445e-08 3.219266692824e-08 -1.365579881860e-08 -1.518937339894e-04 -8.073322177553e-05 6.951683512477e-05 7.500000000000e-04 4.417864669111e-06 3.811832678159e-11 1.858773189615e-12 4.838100364051e-12
46 1 6.340324106066e-03 2.029162159695e-03 3.822185502758e-03 -6.415415633259e-08 2.133368292388e-08 -1.007739181338e-07 -7.777591091951e-05 5.634141627989e-05 2.904954410243e-05 7.500000000000e-04 4.417864669111e-06 3.270292783701e-11 -9.193352027425e-12 5.654343686087e-11
47 1 7.056847539649e-03 3.568206409987e-03 7.051099679553e-04 -1.819074101082e-07 4.167310006112e-08 -2.070121553241e-08 -4.307561683846e-05 -2.486256091792e-04 -1.988264094681e-04 7.500000000000e-04 4.417864669111e-06 9.898632154853e-11 -2.670051177874e-11 2.141480541581e-11
48 1 6.132456444046e-03 3.354970150468e-03 3.262205604188e-03 -2.380303831505e-08 5.427304656835e-08 -8.229374202261e-08 1.229642059127e-04 -8.597205332006e-05 -1.121114697381e-04 7.500000000000e-04 4.417864669111e-06 1.102865029653e-11 -2.396177657141e-11 5.374528014537e-11
49 1 8.591278998408e-04 3.319364894590e-03 1.016540848262e-03 1.478669365938e-07 -1.087077937277e-06 5.358985825201e-07 7.820116525268e-04 -7.557746955875e-04 1.000701394928e-03 7.500000000000e-04 4.417864669111e-06 -8.403111347846e-11 6.150885822416e-10 -3.030060047650e-10
50 1 1.969743309334e-03 6.625134058153e-03 5.954575080892e-03 -1.400057297123e-08 -2.661568677406e-08 5.509504360113e-08 -5.921062137317e-05 -6.587315544455e-05 -2.385758636675e-05 7.500000000000e-04 4.417864669111e-06 2.324818451226e-11 1.678903734101e-11 -3.591502724004e-11
51 1 3.129206711833e-03 1.003564995352e-03 4.177489448773e-03 3.031032352987e-08 1.150514053800e-08 3.850836540253e-09 -1.206832888335e-04 -9.870947275155e-05 5.208797832232e-05 7.500000000000e-04 4.417864669111e-06 -1.257824931788e-11 -3.448890724341e-13 -1.227125506488e-11
52 1 4.433399133719e-03 4.636562525369e-03 4.946860604206e-03 3.222241630099e-08 4.595279060624e-08 -1.086141894493e-07 6.464772206589e-05 1.038534192068e-04 7.649123946818e-05 7.500000000000e-04 4.417864669111e-06 -2.260525523102e-11 -2.115588499756e-11 5.354336698983e-11
53 1 2.859174463682e-03 4.638861751105e-03 7.179331942341e-03 -5.462130900234e-09 3.271969268828e-08 2.540503471976e-08 2.411157095036e-05 -7.320702331018e-05 3.114497168406e-05 7.500000000000e-04 4.417864669111e-06 -5.216573704824e-12 -1.333800811418e-11 -1.247786649503e-11
54 1 2.244990726485e-03 6.022466209786e-03 9.841848885827e-03 -1.023688613304e-08 -4.209549889843e-09 -8.863741424547e-10 -6.242289969009e-07 -3.726570765534e-06 -2.302042997946e-06 7.500000000000e-04 4.417864669111e-06 5.650982770582e-12 1.367889331004e-12 3.564540423064e-12
55 1 2.170559724408e-03 1.536039992184e-03 6.894813647150e-03 -8.271825854532e-09 -1.351368514721e-08 -1.628582953211e-08 7.745096026909e-06 -1.082354683978e-05 6.808269809443e-07 7.500000000000e-04 4.417864669111e-06 1.629311166907e-11 -2.342574137360e-12 1.204160863317e-11
56 1 2.670883910219e-03 4.980279497605e-03 1.339563967451e-02 -3.130781414651e-09 -8.569700948298e-11 5.720919065427e-10 4.296971330089e-07 1.280303069533e-06 1.116895896580e-06 7.500000000000e-04 4.417864669111e-06 3.229632904282e-12 -1.121489374935e-12 -2.741023432426e-13
57 1 2.313023239318e-03 2.084931748724e-03 9.959719634605e-03 -3.816009073720e-09 -1.952308989586e-09 -8.762433337134e-09 1.317099570718e-06 4.940459188475e-06 3.988101081869e-06 7.500000000000e-04 4.417864669111e-06 -3.752898668575e-12 -1.959915719898e-12 7.620868118018e-12
58 1 4.091335646670e-03 4.551575501883e-03 1.157744381863e-02 -8.325206047598e-09 -3.094916136212e-09 4.574272777897e-10 -3.061416988257e-06 4.499090631779e-06 -3.200018772163e-06 7.500000000000e-04 4.417864669111e-06 5.378767848823e-12 1.900188099816e-12 9.728853000912e-13
59 1 7.924898931574e-04 5.576020461303e-03 1.073586714597e-02 -9.318567311277e-09 -4.889122614575e-09 6.874919096326e-09 -2.289222995078e-06 6.601998701401e-06 5.932051619031e-07 7.500000000000e-04 4.417864669111e-06 5.615145731916e-12 5.257879538483e-13 -1.604975989928e-12
60 1 3.474733838611e-03 3.598800011193e-03 7.895345671893e-03 -1.468547232187e-08 9.348594137748e-09 -7.602466865718e-09 6.327775947599e-05 1.049390532540e-05 -2.788449106153e-06 7.500000000000e-04 4.417864669111e-06 1.684129478004e-11 7.992766727885e-12 2.315166478808e-11
61 1 6.191298041651e-03 5.763536632559e-03 1.266241722083e-02 -7.866629807365e-09 5.423549245079e-10 2.014304752526e-09 1.284536652075e-05 2.716110390013e-05 -8.450420585997e-06 7.500000000000e-04 4.417864669111e-06 2.268292226886e-12 4.802828523981e-12 -2.473783666433e-12
62 1 3.180376557208e-03 5.148284974959e-03 5.857298846417e-03 -3.109127440379e-08 -3.122621844139e-08 -1.250461261601e-08 -1.110932721789e-04 1.238325435861e-04 -1.956635917055e-05 7.500000000000e-04 4.417864669111e-06 1.231041381886e-11 1.745345430818e-11 -3.278193567626e-12
63 1 2.434431294161e-03 3.559887866653e-03 9.955272118608e-03 -1.116124874351e-08 -3.549664495319e-09 -2.311469795005e-09 2.654089563059e-06 -4.060569001689e-06 2.263494879541e-06 7.500000000000e-04 4.417864669111e-06 6.798227490502e-12 3.865558004253e-12 4.436096198981e-13
64 1 3.742386633386e-03 4.206195239845e-03 1.017903139201e-02 -8.141450190816e-09 -6.672470248171e-09 3.105145992425e-09 -5.032205711910e-06 -7.941909606143e-06 -8.789614046817e-06 7.500000000000e-04 4.417864669111e-06 4.179287969330e-12 3.990079646378e-12 -1.534386523749e-12
65 1 2.711124877171e-03 2.984661023351e-03 6.852407871978e-03 -1.458071644579e-08 3.700128182690e-09 -1.214725225428e-08 -6.112616156319e-05 1.256092956562e-06 3.703167939358e-05 7.500000000000e-04 4.417864669111e-06 -2.971067180191e-12 -5.754727564695e-12 -1.439229699977e-11
66 1 7.183222963398e-03 6.542459030427e-03 1.200245223973e-02 -1.163031420769e-08 -3.430600918476e-09 -1.007551048285e-08 -6.299026145732e-06 6.220101087185e-07 -2.363681804289e-06 7.500000000000e-04 4.417864669111e-06 4.766807941017e-12 3.247687440106e-12 6.890306081271e-12
67 1 1.862616193424e-03 3.647484805677e-03 1.329000398668e-02 -3.131901884905e-09 -4.747471535565e-09 5.059448958281e-10 -1.059156999717e-06 8.272900692570e-07 -2.818626835113e-06 7.500000000000e-04 4.417864669111e-06 2.375584850278e-12 3.833029004445e-12 -3.414186459833e-12
68 1 4.070764599561e-03 4.891645055106e-03 1.364869768750e-02 -2.686781588416e-09 -3.370695930411e-09 -1.128034223882e-09 -3.439895992888e-06 9.950850838130e-07 -5.021208244187e-06 7.500000000000e-04 4.417864669111e-06 -2.171719035544e-11 5.931691062221e-12 -1.423720785224e-11
69 1 2.463111079899e-03 5.006087453958e-03 8.823066492009e-03 -1.338009867181e-08 -5.419450726571e-09 -1.202384563174e-10 1.691437969303e-06 3.123715350227e-06 -1.784942244081e-06 7.500000000000e-04 4.417864669111e-06 5.811739352750e-13 -1.057332034880e-11 -4.860373235908e-12
70 1 6.079484253154e-03 2.116580323594e-03 1.063071215747e-02 -1.301060705447e-08 -5.293418867549e-09 -2.329685354057e-09 7.836117908763e-06 1.366897799010e-06 1.300977911724e-05 7.500000000000e-04 4.417864669111e-06 1.311924364699e-12 3.743607983869e-12 2.145256889583e-12
71 1 3.838106201921e-03 6.044492778059e-03 8.098019223041e-03 -2.550944106287e-08 -4.129149421415e-08 -1.902320920094e-08 -6.519777880466e-05 1.984663440897e-05 -1.366342516860e-06 7.500000000000e-04 4.417864669111e-06 1.996916375746e-11 2.334500882320e-11 1.450726758559e-11
72 1 6.501294942634e-03 5.487443652449e-04 1.465496082001e-02 -2.380048196980e-09 -8.925285569231e-10 -4.942436472417e-10 -5.662916234089e-07 2.643410426944e-06 3.243982193693e-06 7.500000000000e-04 4.417864669111e-06 2.233789808910e-12 -3.622038094450e-13 1.268203031032e-12
73 1 2.882052398023e-03 5.090957352860e-03 1.204539878433e-02 -6.332054047543e-09 -1.553089577980e-09 1.151262122398e-09 -2.985134306742e-06 7.285352651517e-07 2.595537456981e-06 7.500000000000e-04 4.417864669111e-06 8.995651228825e-12 -1.754823913193e-12 4.139696339586e-13
74 1 3.759564439994e-03 6.799388038027e-03 1.465951592934e-02 -7.406973096215e-09 -1.860308729749e-09 -9.621849220516e-10 -2.336494078074e-06 1.018342329455e-05 -3.633098693071e-06 7.500000000000e-04 4.417864669111e-06 -3.823366186906e-12 3.564725570413e-12 3.842701353959e-12
75 1 6.155644462667e-03 2.967737380735e-03 1.399267975665e-02 -4.007544689995e-09 -2.817474051857e-09 -1.625624649515e-09 7.230140230071e-06 2.290442646997e-06 3.524848596461e-07 7.500000000000e-04 4.417864669111e-06 -2.729961178547e-12 -4.190565411298e-13 4.534715487561e-13
76 1 4.693085183398e-03 3.039029669096e-03 8.167627931158e-03 -8.467640252127e-09 -2.168614564926e-09 -1.292514113492e-08 1.462823922550e-05 -3.480571394811e-05 5.843062925364e-06 7.500000000000e-04 4.417864669111e-06 -2.846082197926e-12 9.506080421843e-12 3.943713658816e-12
77 1 3.345303127190e-03 1.463480964962e-03 1.076474216560e-02 -2.736536581975e-09 2.533729400133e-11 -7.335774032510e-09 -1.804448729056e-06 -5.322529514309e-06 2.987173856347e-06 7.500000000000e-04 4.417864669111e-06 1.026340271749e-12 -8.769023333469e-14 4.382515589071e-12
78 1 3.208355712450e-03 6.556874731384e-04 7.853887847348e-03 -3.064429499101e-08 -1.142248452897e-08 -9.342318519121e-09 5.357956573978e-06 3.795153890173e-05 -1.437246268750e-05 7.500000000000e-04 4.417864669111e-06 1.541849478797e-11 5.968898772631e-14 -3.458129837810e-12
79 1 5.237223653272e-03 1.872004041634e-03 6.644445635635e-03 -1.455493792855e-08 1.154517385796e-08 -1.914119020701e-09 -3.878098262895e-05 -6.008200784410e-06 -4.552443947081e-05 7.500000000000e-04 4.417864669111e-06 3.571926774813e-12 -6.329705888611e-12 5.433144303229e-12
80 1 3.149899257595e-03 4.629085400875e-03 1.470289904236e-02 -1.348186076722e-09 4.443096627668e-10 -1.905041836223e-10 3.490715345036e-07 1.191504690733e-06 3.247109993113e-07 7.500000000000e-04 4.417864669111e-06 3.302763586964e-12 -2.131436397815e-12 7.892581667864e-13
81 1 6.142792961913e-03 2.603234440291e-03 1.256715794077e-02 -6.835670280512e-09 -2.201687655958e-09 -3.474653653047e-09 -2.703529995957e-06 -2.831145515157e-06 2.273535497629e-06 7.500000000000e-04 4.417864669111e-06 5.267655563608e-12 7.192280221401e-13 3.920442849589e-12
82 1 5.078593996986e-03 3.724881854370e-03 1.325017322604e-02 -4.993980298392e-09 -2.727028755593e-09 -3.836918692782e-09 -2.777140977657e-06 7.129537731549e-06 4.676946952695e-07 7.500000000000e-04 4.417864669111e-06 8.016087261079e-12 1.176656252687e-12 2.654458703712e-12
83 1 7.011718437050e-03 3.327776760574e-03 1.081357975966e-02 -8.450714581053e-09 -4.042267295741e-10 -4.691288943723e-09 2.871016514971e-06 -8.394089979944e-06 5.623367252680e-06 7.500000000000e-04 4.417864669111e-06 5.748508222043e-12 -3.356800297632e-12 2.661781518660e-12
84 1 5.797806268538e-03 4.055498968301e-03 9.733288185729e-03 -5.253019250365e-09 -5.498277253654e-09 -7.931317606704e-09 -9.319399061051e-06 -1.571902182913e-06 -6.029960762458e-08 7.500000000000e-04 4.417864669111e-06 7.104385080032e-12 -1.248250749911e-12 7.147385227093e-12
85 1 1.890021093488e-03 2.593561008295e-03 1.435875636286e-02 -1.106707046684e-321 -1.101766390226e-321 1.101766390226e-321 6.318092132259e+01 -4.212715995092e+02 4.065631528890e+02 7.500000000000e-04 4.417864669111e-06 1.086944420851e-322 1.086944420851e-322 -1.086944420851e-322
86 1 4.206747188784e-03 6.832323403824e-03 9.425502407867e-03 -1.167489744743e-08 -8.951469129162e-09 -1.239801288336e-08 -3.239926732137e-06 1.188124067501e-05 -3.801829075406e-07 7.500000000000e-04 4.417864669111e-06 -1.131427375105e-11 1.471952676476e-11 2.033738528163e-11
87 1 4.340896943259e-03 2.183923533766e-03 1.220151403086e-02 -2.965096280432e-09 -1.703330957952e-09 -2.363565442439e-09 1.397940926693e-06 -1.111884831645e-06 7.298388887872e-07 7.500000000000e-04 4.417864669111e-06 2.159888204168e-13 -1.919330974295e-13 7.267860729527e-13
88 1 3.365051536533e-03 2.920598665679e-03 1.091026905607e-02 -7.402718835870e-09 1.077466251199e-09 -1.223851518776e-08 -3.332580352422e-06 2.237590248195e-05 4.256731237430e-06 7.500000000000e-04 4.417864669111e-06 9.924249758618e-12 -1.917985282937e-12 7.417145736427e-12
89 1 2.066180463855e-03 4.869392846893e-03 1.054020828399e-02 -1.033661322134e-08 -3.441141706041e-09 9.343031628721e-10 -3.050010013118e-06 7.711407893985e-06 1.020361912838e-06 7.500000000000e-04 4.417864669111e-06 4.581575758795e-12 1.115391729213e-13 1.104911093286e-12
90 1 5.219974055204e-03 4.573868828534e-03 1.438284056143e-02 -5.955133907222e-09 -7.415786930734e-09 6.001935516640e-10 1.146979969742e-05 -6.753441015285e-06 2.521598079980e-06 7.500000000000e-04 4.417864669111e-06 3.361901845464e-11 -3.205246890455e-12 1.556711350777e-11
91 1 4.956424043858e-03 5.115415259731e-03 1.037779389461e-02 -1.135867607028e-08 -5.181530500780e-09 -7.963473551844e-09 3.187208602275e-06 6.601975742250e-06 1.770300340938e-07 7.500000000000e-04 4.417864669111e-06 8.584217184934e-12 1.626942645686e-12 3.810805980469e-12
92 1 6.269416765439e-03 4.350551172579e-03 1.281690300409e-02 -8.765899963569e-09 -9.838293114325e-10 -6.637686151428e-09 -1.170421581299e-06 -4.879574340736e-06 4.774141552408e-06 7.500000000000e-04 4.417864669111e-06 1.199509119242e-12 -5.300919158452e-13 4.189714806047e-12
93 1 2.472391129273e-03 6.128819954604e-03 1.433217903458e-02 -7.046579264944e-09 -8.021631234398e-10 2.138909310055e-09 2.138105985324e-06 -5.118417667100e-06 3.197294789403e-06 7.500000000000e-04 4.417864669111e-06 3.634962937203e-12 3.677120522933e-13 -1.420490698509e-12
94 1 1.845756177354e-03 6.879115726267e-03 1.297931935959e-02 1.325512912257e-10 -1.570174185618e-09 1.124798480480e-09 6.363231113037e-08 -4.583860155269e-06 8.799413416527e-06 7.500000000000e-04 4.417864669111e-06 4.479679752934e-12 -2.676273057063e-12 -3.823220414775e-12
95 1 7.236705898829e-03 4.008535084479e-03 9.626505837439e-03 -8.971976246154e-09 -3.961770053546e-09 -8.109394689584e-09 -1.524452594322e-05 1.775171910245e-06 5.313852269209e-06 7.500000000000e-04 4.417864669111e-06 2.522418913120e-12 3.547446021484e-12 2.684580503959e-12
96 1 3.565868326352e-03 5.585094228167e-03 9.460699377389e-03 -1.062110106433e-08 -6.623290813598e-09 3.748343746656e-10 -3.070946388855e-06 -4.634668448713e-07 -5.083887445285e-07 7.500000000000e-04 4.417864669111e-06 2.888355919404e-12 4.177400358126e-12 1.296033690086e-12
97 1 2.881048108015e-03 1.962967046978e-03 1.238413262849e-02 -3.246238814769e-09 -3.235317929883e-09 -3.938456855150e-09 2.030948886245e-06 -6.883703649335e-07 2.464237618327e-07 7.500000000000e-04 4.417864669111e-06 2.023769394312e-12 -5.794797773353e-13 7.990636170298e-13
98 1 3.940977703106e-03 2.214637532486e-03 7.139544254416e-03 -5.960381806996e-09 3.305386681290e-08 -1.722718864252e-08 9.886768136573e-05 -1.972673109818e-05 -6.911085089660e-06 7.500000000000e-04 4.417864669111e-06 5.837071265649e-12 -1.799699304618e-11 1.108119096044e-11
99 1 2.579299343289e-03 6.476482464218e-03 8.595303649089e-03 -1.619444257205e-08 -9.653144161170e-09 -5.386036848165e-09 -3.826735022336e-06 2.079301358948e-05 -7.502584223813e-06 7.500000000000e-04 4.417864669111e-06 1.613094923788e-11 1.022653561055e-13 6.490089494585e-12
100 1 3.374305054465e-03 2.223007044835e-03 1.433383960554e-02 -1.106707046684e-321 1.106707046684e-321 1.106707046684e-321 -1.368166218849e+03 4.742593413496e+03 5.583712656434e+02 7.500000000000e-04 4.417864669111e-06 1.086944420851e-322 -1.086944420851e-322 -1.086944420851e-322
101 2 3.494381376388e-03 3.432127698846e-03 1.294037007647e-02 -4.514927192503e-09 -4.288789749791e-09 1.322920865530e-10 2.459163120552e-06 -7.161963181268e-07 1.405037696626e-06 1.000000000000e-03 1.047197551197e-05 1.038343797748e-11 5.722434064850e-12 -5.619618004351e-13
102 2 5.497676352047e-03 3.712920891401e-03 1.143568285037e-02 -1.059318349995e-08 -5.667777157819e-09 -5.940282166707e-09 -1.634216813170e-06 6.128519239304e-06 9.724463350148e-08 1.000000000000e-03 1.047197551197e-05 1.753583751401e-11 8.168724626663e-12 7.284524811157e-12
103 2 1.894137983205e-03 3.520797478485e-03 8.320306827670e-03 -9.862124623921e-09 -7.712858121076e-09 4.035834840527e-10 1.541063323813e-06 2.468198419333e-06 7.793193507180e-06 1.000000000000e-03 1.047197551197e-05 1.986638898673e-11 4.004727138310e-11 3.555592273946e-12
104 2 5.125817508586e-03 1.717949810016e-03 1.366873474536e-02 -4.637830450529e-09 -1.643670995505e-09 -3.903387966034e-09 -3.242760158076e-07 5.614767378582e-07 -5.272470927542e-07 1.000000000000e-03 1.047197551197e-05 9.390884851158e-12 6.418579482224e-12 5.473415724502e-12
105 2 4.547215874433e-03 4.573199586807e-03 8.689551140751e-03 -1.304572443991e-08 -9.464528862820e-09 -1.979675315949e-09 1.128336175186e-07 1.502906475378e-05 4.464904502288e-06 1.000000000000e-03 1.047197551197e-05 -1.054209273431e-11 5.143836806856e-13 -5.450598735985e-12
106 2 3.386941949588e-03 2.107247132885e-03 8.718921933454e-03 -9.120934712320e-09 -9.760765113058e-09 -2.138332355803e-08 -2.012604426253e-05 7.683273962114e-06 4.322912622625e-06 1.000000000000e-03 1.047197551197e-05 -1.619626262172e-12 2.296039615330e-11 1.389078625329e-11
107 2 5.643758357481e-03 1.394080364441e-02 5.055239473213e-03 1.188813495356e-08 5.877293955788e-09 1.149718270982e-08 7.050219440039e-06 -4.754989143678e-05 1.684567590087e-05 1.000000000000e-03 1.047197551197e-05 -1.743430939670e-11 -4.821170340512e-12 -1.425400763677e-11
108 2 1.478497062096e-03 8.321822587207e-03 2.605981205835e-03 -5.752877771119e-08 -1.530728998770e-07 -1.004061037523e-08 -7.104035795284e-05 1.044558180048e-05 -4.383068693164e-05 1.000000000000e-03 1.047197551197e-05 5.993437776185e-11 1.898555715920e-10 -2.674774123293e-11
109 2 4.668996466059e-03 7.366792297823e-03 4.192665609613e-03 -3.973623655741e-08 2.824449274943e-08 -2.371266995904e-08 2.211066661900e-04 -4.647689035412e-06 -1.144695356047e-04 1.000000000000e-03 1.047197551197e-05 2.114307476963e-11 -4.918442891695e-11 1.581323480524e-11
110 2 4.354856418919e-03 9.528240757581e-03 2.669318411604e-03 1.259713408730e-144 -1.851775188316e-144 3.160683226823e-145 8.185102139517e+02 1.885588130844e+03 -1.412304959033e+03 1.000000000000e-03 1.047197551197e-05 -1.260917496244e-145 1.853545193595e-145 -3.163704341930e-146
111 2 6.020075507295e-03 1.060676049723e-02 2.928517412039e-03 -1.728124296884e-139 6.296177252612e-139 -1.004482217504e-138 -2.304715537635e+03 -1.724600538106e+03 -1.026582018944e+03 1.000000000000e-03 1.047197551197e-05 1.729776111396e-140 -6.302195405919e-140 1.005442344219e-139
112 2 3.638203639908e-03 1.331147890148e-02 4.959269842450e-03 2.557763236702e-09 4.471357576061e-09 3.446737061633e-09 3.597726968833e-05 -2.350066185330e-05 -5.552107243746e-06 1.000000000000e-03 1.047197551197e-05 -1.026416773945e-12 9.032839027236e-12 -1.330937876209e-11
113 2 5.620357021286e-03 2.458535769887e-04 6.101466124082e-03 -8.454557038769e-09 2.101565234611e-08 6.173491131836e-09 -2.207897006281e-05 3.608549292685e-05 1.098603956710e-06 1.000000000000e-03 1.047197551197e-05 -2.415043030136e-11 -1.790232375630e-11 -7.141720531223e-12
114 2 7.451159377215e-03 9.254333656601e-03 5.327422190715e-03 -9.912621108020e-10 5.035068419456e-09 -3.448069434327e-09 8.572725569313e-06 -2.194564395496e-06 -1.304280151969e-05 1.000000000000e-03 1.047197551197e-05 -8.673263915123e-12 -2.988571274155e-12 -1.382566047029e-12
115 2 4.487592476140e-03 8.613167036237e-03 6.315247662578e-03 -2.100942911306e-08 -2.694703786314e-09 -1.464315978648e-08 1.308108070924e-05 1.208113289248e-06 1.091515520524e-06 1.000000000000e-03 1.047197551197e-05 3.710454945103e-11 3.317143797357e-12 2.223277351597e-11
116 2 2.960460894285e-03 7.801814455057e-03 3.582743986913e-03 -1.033879482649e-08 -7.458476425746e-09 8.543482571140e-09 1.255068537716e-04 -7.975925005996e-05 2.805256111115e-04 1.000000000000e-03 1.047197551197e-05 4.120389165336e-11 -6.067659794472e-12 2.221173627795e-11
117 2 3.385533007682e-03 1.486933925356e-02 6.598449434214e-03 6.801352137843e-09 -2.567121808521e-09 -1.329139951844e-08 -2.036208658109e-05 -1.918771798830e-05 -2.642607746024e-05 1.000000000000e-03 1.047197551197e-05 -1.197975679826e-11 1.180254861747e-12 3.942712369857e-12
118 2 5.922330831896e-03 4.227184918718e-04 4.185847349237e-03 -1.212263211751e-08 1.968714939535e-08 6.928946933580e-09 -3.752375510731e-05 3.126129850761e-05 3.611500604391e-05 1.000000000000e-03 1.047197551197e-05 1.246161316120e-11 -3.041894534957e-11 6.527610594090e-13
119 2 2.598068239233e-03 8.435223984206e-03 6.890150506922e-03 -1.754644604393e-08 -8.745056549611e-09 -5.281659653542e-09 -1.342118032764e-05 2.461491759615e-07 -3.213870474638e-06 1.000000000000e-03 1.047197551197e-05 -3.101632349522e-11 -4.383741953982e-11 5.526061824277e-11
120 2 3.418435614086e-03 9.986275688852e-03 9.459886822866e-04 9.139642485136e-08 6.561067225217e-08 -2.286663887829e-08 -7.059620134676e-05 6.215244536284e-05 6.376878701068e-05 1.000000000000e-03 1.047197551197e-05 -1.194296994000e-10 -9.426722029933e-11 2.183354184910e-11
121 2 5.120327602311e-03 1.373579342057e-03 2.661675709301e-03 1.979633458892e-08 -9.618123927477e-08 -1.021693906438e-08 4.874458815186e-05 -8.128820598618e-05 -3.529402610688e-05 1.000000000000e-03 1.047197551197e-05 -1.078294534885e-11 1.401710210581e-10 6.447834157651e-12
122 2 2.009011463042e-03 1.245041077149e-02 5.513376382066e-03 -4.494615121916e-09 -7.955730994198e-09 -3.781094897211e-08 3.381065344907e-06 4.719109536892e-06 -5.817936928251e-06 1.000000000000e-03 1.047197551197e-05 4.073512073054e-12 2.229996582747e-11 5.294237386511e-11
123 2 6.655263892046e-03 7.964915203959e-03 6.445841914331e-03 -1.478745154474e-08 -1.341281404617e-09 -9.984906985514e-09 1.561979332200e-06 -8.624588141385e-07 -2.321198633015e-06 1.000000000000e-03 1.047197551197e-05 1.775612746584e-11 9.044396325795e-12 1.846594164389e-13
124 2 5.187193169026e-03 1.204187859626e-02 4.792592781531e-03 9.646588238876e-10 2.819665876829e-09 4.749679909518e-10 1.256807511230e-05 1.412688407488e-07 -2.200378300710e-06 1.000000000000e-03 1.047197551197e-05 -8.821143454241e-12 -1.183705271755e-11 -2.815181687701e-11
125 2 4.179945568681e-03 6.348267117716e-03 6.492076206892e-03 -3.464538993189e-09 -2.720436938900e-08 -3.263273078674e-08 7.814709614673e-05 -4.543370469994e-05 2.024929556345e-05 1.000000000000e-03 1.047197551197e-05 1.483501135996e-11 3.706365626630e-11 5.489897887805e-11
126 2 2.920681632468e-03 1.006454339487e-02 6.196030992666e-03 -1.425447702761e-08 -1.375490619971e-08 -2.617157505783e-08 -7.244506244356e-06 1.398411402304e-06 1.066190850807e-06 1.000000000000e-03 1.047197551197e-05 1.684064959478e-11 2.232343158540e-11 1.599478445641e-11
127 2 2.486155076474e-03 1.462500335056e-02 4.256261146673e-03 1.660918360263e-08 2.314518605547e-08 4.189699156193e-10 -1.556194386923e-05 -1.599821498293e-05 1.029715697738e-05 1.000000000000e-03 1.047197551197e-05 -2.682158002794e-11 -1.901876922577e-11 1.814132030246e-11
128 2 4.085327073320e-03 1.414987601424e-02 3.201581801109e-03 1.108667104602e-08 1.249762775262e-08 9.481294157972e-09 -3.971396115353e-05 1.442763957137e-05 8.405240623423e-06 1.000000000000e-03 1.047197551197e-05 -1.803835365115e-11 -1.576278468479e-11 -1.184106037543e-11
129 2 5.504212186461e-03 7.719968593894e-03 2.529701200827e-03 1.389431604061e-08 7.606899897028e-08 1.319675992299e-08 -4.231398303414e-05 -1.931558045475e-05 -1.395726838459e-04 1.000000000000e-03 1.047197551197e-05 -1.605951126452e-12 -9.648901219296e-11 -3.286040935560e-11
130 2 1.519798390931e-02 8.792371544045e-03 9.338480731419e-04 3.571696748884e-09 -2.807828559681e-07 5.963078925098e-08 1.332351985020e-04 4.953192358246e-05 -5.303314380519e-04 1.000000000000e-03 1.047197551197e-05 -2.680868221046e-11 3.879666695834e-10 -7.610363849032e-11
131 2 3.238571292105e-03 7.513036150159e-03 1.698568936472e-03 1.592076361784e-07 3.803841885262e-07 -3.502856750381e-08 2.362994890974e-04 -3.674104715162e-05 -2.849443689229e-04 1.000000000000e-03 1.047197551197e-05 -2.025681184869e-10 -5.049490136430e-10 4.424886086944e-11
132 2 2.901521813954e-03 5.364418212226e-04 2.578657368753e-03 7.196647027705e-08 -5.937198259480e-08 2.589878358266e-08 5.556873160641e-05 8.595370992243e-05 7.561699385741e-05 1.000000000000e-03 1.047197551197e-05 -9.891076846509e-11 8.572294949990e-11 -3.962727504058e-11
133 2 6.264711917153e-03 3.943238427567e-04 9.020199685993e-04 1.381801253537e-08 -2.395264916789e-08 -1.910793209491e-08 2.301264121939e-05 1.302281015862e-05 5.998196077544e-05 1.000000000000e-03 1.047197551197e-05 -1.344950856649e-11 3.376284260873e-11 2.709635124724e-11
134 2 1.674573430774e-03 1.071685922991e-02 4.897723644383e-03 2.669138205528e-09 -3.812623652142e-08 -4.776906121925e-08 -1.599467892737e-05 -1.489951638574e-05 8.996607337181e-06 1.000000000000e-03 1.047197551197e-05 -1.525781742495e-11 3.427041276153e-11 1.057852856629e-10
135 2 5.427648657934e-03 1.034812506378e-02 9.201330369061e-04 5.016155494149e-08 3.986464903414e-09 -6.235986249361e-09 1.809140508420e-05 3.013526901344e-05 2.292576582799e-05 1.000000000000e-03 1.047197551197e-05 -6.072064256800e-11 -1.982405986463e-11 6.680270603828e-12
136 2 4.430253588662e-03 1.535366442132e-02 1.520269172535e-03 2.079372901691e-08 -3.500253052326e-08 -2.809542115217e-08 -4.918797255272e-05 -5.415729025161e-06 -3.941058014562e-05 1.000000000000e-03 1.047197551197e-05 -4.039374243817e-11 4.219587137560e-11 3.868573702734e-11
137 2 4.591324414092e-03 1.329619795627e-02 6.604907251049e-03 -5.014799686697e-09 -4.717023224880e-09 1.170111228092e-09 -1.283325332199e-05 1.388209173401e-05 1.520156122938e-05 1.000000000000e-03 1.047197551197e-05 1.023748365426e-11 8.982044475842e-12 6.289035442504e-12
138 2 4.723385861296e-03 8.500445079857e-03 9.365108797561e-04 1.187520993905e-07 7.956424237362e-08 3.225111754992e-09 -6.527898020743e-05 8.520945565130e-05 -4.688912978813e-05 1.000000000000e-03 1.047197551197e-05 -1.580385895466e-10 -1.122979057074e-10 1.894137328225e-12
139 2 1.739209358734e-03 1.433551461685e-02 2.592541351659e-03 1.533586141941e-08 -1.619110953695e-08 1.898947897946e-08 -6.706983864276e-05 7.010829339307e-06 -1.025942955946e-04 1.000000000000e-03 1.047197551197e-05 -4.982367298992e-11 1.634729379494e-11 -5.529752695321e-11
140 2 2.455180530111e-03 1.242366519642e-02 8.708721004831e-04 -9.025747994481e-09 1.775525171868e-08 2.011369726247e-08 -2.785355424889e-05 -3.893181744902e-06 -5.029778673096e-05 1.000000000000e-03 1.047197551197e-05 3.886028250516e-11 -1.510727055764e-11 -5.164181115664e-11
141 2 4.871931921595e-03 1.045248875105e-02 5.906121168499e-03 -1.108657580504e-08 -4.237913730582e-09 -8.496479328948e-09 -5.363405468736e-06 7.994094668662e-06 -9.709963587350e-06 1.000000000000e-03 1.047197551197e-05 3.297755188659e-11 2.246042542217e-11 8.085284825172e-12
142 2 9.906535967278e-04 1.274611838653e-02 1.955126389517e-03 -3.639001267075e-08 1.135670465749e-08 5.851891705960e-09 7.080111225588e-05 -2.938433782763e-05 3.480966465721e-05 1.000000000000e-03 1.047197551197e-05 3.625314747095e-11 -7.943651568350e-13 1.293579717158e-11
143 2 6.946618137730e-04 1.139312249606e-02 3.276867482527e-03 -7.402193398562e-09 -2.649183001399e-08 -1.837892040548e-08 -5.784766478332e-06 5.411833678638e-05 -6.213314116333e-06 1.000000000000e-03 1.047197551197e-05 6.704484544205e-12 2.947749810498e-11 2.950549269288e-11
144 2 3.122936838460e-03 1.099310244616e-02 7.867040954195e-03 -6.829006365732e-09 -2.459616825939e-09 -1.570191490143e-08 -1.411981730162e-06 2.816528642202e-07 -3.034190292098e-06 1.000000000000e-03 1.047197551197e-05 6.909143481521e-12 -3.721425915128e-12 3.018652121406e-11
145 2 4.332106807733e-03 9.601935089519e-03 8.400035242871e-03 -1.188667682576e-08 -4.245702228385e-09 -1.021859641968e-08 -2.654790348318e-06 -5.109415388081e-07 -4.487769853316e-06 1.000000000000e-03 1.047197551197e-05 4.879583971574e-12 8.766334447003e-12 1.704789516783e-11
146 2 6.382501225081e-03 2.468364430266e-03 1.754698701169e-03 -1.441189768025e-07 3.135394119505e-09 -1.929339113708e-08 2.179427101170e-05 2.111257413710e-04 1.956448404562e-04 1.000000000000e-03 1.047197551197e-05 1.901048966118e-10 3.815189980567e-13 2.142644699788e-11
147 2 5.664442159140e-03 8.968247829017e-03 4.547930421688e-03 1.526011603862e-08 -2.102240450570e-08 5.000925504775e-08 -6.167034050055e-05 5.677091223968e-05 5.452482357659e-05 1.000000000000e-03 1.047197551197e-05 -2.757716368042e-12 4.239272818992e-11 -6.980714981517e-11
148 2 5.581987675126e-03 1.286640661746e-02 3.100811786877e-03 6.500838517086e-09 9.326137029753e-09 3.860956661519e-09 3.444692474813e-06 3.840640826732e-06 -1.722577143939e-05 1.000000000000e-03 1.047197551197e-05 -1.358231409510e-11 -1.747246628560e-11 -2.105727624946e-12
149 2 5.927082230856e-03 1.372593653824e-02 9.273108171983e-04 6.956739871037e-09 2.170658515706e-09 1.477098903128e-10 -2.953506454613e-06 6.150756935237e-06 -1.044956481224e-05 1.000000000000e-03 1.047197551197e-05 -3.440615764620e-12 -4.379571288657e-12 1.157922139146e-11
150 2 6.592002060115e-03 1.092050115950e-02 5.340985361673e-03 3.864142955717e-10 1.748831100078e-10 -2.424727050892e-09 5.327742299525e-06 -1.414472808172e-05 8.263620734449e-06 1.000000000000e-03 1.047197551197e-05 -7.932241823234e-12 -5.329463739067e-12 -7.947939685121e-13
151 2 4.112801854355e-03 1.158777849747e-02 3.286097517937e-03 6.039968372834e-09 8.287273248765e-09 2.826289383189e-09 1.510403378768e-06 7.975098717061e-06 1.425378160255e-05 1.000000000000e-03 1.047197551197e-05 -4.399864577537e-12 -2.037784717625e-12 1.121183958426e-11
152 2 1.984440680437e-03 8.808952009660e-03 5.005997401413e-03 -2.876334965168e-08 -5.229895484789e-08 -5.932628489617e-09 -4.265472163448e-05 -1.531196205659e-06 -3.780305533169e-05 1.000000000000e-03 1.047197551197e-05 2.185542174005e-11 8.913129709812e-11 -2.414521566038e-12
153 2 1.589409976627e-03 9.750021940989e-03 7.819818230740e-03 -9.122648810152e-09 2.963211316032e-09 -1.099429935768e-08 1.013863439277e-06 -4.228401655275e-06 -8.149658712507e-06 1.000000000000e-03 1.047197551197e-05 1.461297706775e-11 -5.831339717003e-12 4.957105320699e-12
154 2 7.234153886354e-03 9.116147233741e-03 3.480123228884e-03 -4.017937244767e-10 -8.732470821579e-11 -2.850829666812e-09 -8.176126140611e-06 -9.803342658360e-06 1.940249599166e-05 1.000000000000e-03 1.047197551197e-05 -6.981158214029e-12 9.165016221674e-13 6.339149715109e-12
155 2 1.977187273003e-03 1.248065680500e-02 7.585395579122e-03 1.078620585219e-09 5.134294828340e-09 -2.596388434877e-08 -1.852164543288e-06 -1.081177836798e-05 -4.251490503830e-06 1.000000000000e-03 1.047197551197e-05 1.613214599167e-11 9.688003445079e-13 3.917987836895e-11
156 2 3.968546542622e-03 1.358066849871e-02 8.924070722298e-04 2.724693934022e-09 -1.553411413401e-08 -2.403508971781e-10 1.424718701675e-05 1.782716864392e-06 1.918148938508e-05 1.000000000000e-03 1.047197551197e-05 -1.088866755138e-11 1.304032305025e-11 -2.746111979921e-12
157 2 2.620306483424e-03 1.497695227283e-02 9.160980848602e-04 3.545968417138e-09 1.448065033127e-10 1.200566813458e-10 1.726921704496e-06 5.361807253769e-06 -3.117638636093e-05 1.000000000000e-03 1.047197551197e-05 -1.570675470495e-12 4.242121614142e-12 5.718619150563e-12
158 2 6.386685359232e-03 6.704262634407e-03 9.596817093561e-04 -3.462383684869e-08 3.504174708051e-08 1.295079709005e-08 -4.511867610930e-05 -3.145800488422e-05 -1.358992879999e-04 1.000000000000e-03 1.047197551197e-05 4.727602028851e-11 -4.602277412949e-11 -1.255584365613e-11
159 2 3.477649165574e-03 1.141493456635e-02 5.084771223769e-03 -3.574743530035e-09 -6.003093255549e-09 -2.417780707029e-08 1.646539554666e-06 -2.654316708600e-05 7.691710304742e-06 1.000000000000e-03 1.047197551197e-05 2.952054037496e-11 8.668463925100e-12 2.228931464514e-11
160 2 1.456569181073e-03 1.033533111436e-02 9.448384643478e-04 1.040503640187e-07 -5.340765185053e-08 1.521362113108e-08 4.162245847200e-05 9.209246481824e-05 6.777552979133e-05 1.000000000000e-03 1.047197551197e-05 -1.350386885501e-10 7.058121094357e-11 -1.964469255319e-11
161 2 4.174518849854e-03 1.525397947135e-02 4.846838419806e-03 1.495852950736e-08 1.126981771922e-08 2.550015226473e-08 6.428919112131e-05 1.024000977562e-05 -1.952735287813e-05 1.000000000000e-03 1.047197551197e-05 -1.322534720374e-11 -2.792473208593e-11 -3.660981377233e-11
162 2 5.888771602097e-03 1.470659856752e-02 2.573282777498e-03 2.628047375838e-09 1.012546256069e-08 1.685212022388e-09 -3.383903545657e-06 -7.652702250556e-06 3.351767294960e-05 1.000000000000e-03 1.047197551197e-05 -1.123249235450e-11 -2.601148342400e-11 -7.737404994945e-12
163 2 3.233510304079e-03 7.517391172104e-03 5.409831369084e-03 -2.063778398040e-08 -3.777615925695e-08 1.170772103975e-08 -3.377026989233e-05 3.208901398837e-05 3.730234227386e-05 1.000000000000e-03 1.047197551197e-05 1.365684827341e-12 2.651494713614e-11 -4.308828128887e-11
164 2 2.378065318036e-03 9.769045791545e-03 3.392883380355e-03 3.336638369941e-08 -1.208384867503e-07 -4.410143069667e-08 -1.504538656227e-05 -2.369735352825e-05 -6.228462822763e-05 1.000000000000e-03 1.047197551197e-05 -2.982321675970e-11 1.615590315273e-10 6.288128101603e-11
165 2 3.812799789397e-03 9.459518267768e-03 4.616091817676e-03 2.162046486542e-09 -8.565947751611e-08 1.842907007939e-08 -9.235916544056e-05 -3.625262702452e-05 1.762724439194e-05 1.000000000000e-03 1.047197551197e-05 -2.695840506245e-11 1.167389023202e-10 -2.161393676927e-11
166 2 2.609231150236e-03 1.117844230043e-02 2.229731195692e-03 3.319483899898e-08 -3.687378524368e-08 6.500131259910e-09 8.909385209572e-05 -6.167058374997e-06 1.118141287835e-04 1.000000000000e-03 1.047197551197e-05 -3.105603604891e-11 5.789671022987e-11 5.509219984031e-12
167 2 4.419278000683e-03 6.086064106279e-03 2.345749209867e-03 -1.477537684890e-07 9.030291863806e-08 -2.036844000828e-07 1.529181710161e-04 -2.282993007589e-04 -2.800499234384e-05 1.000000000000e-03 1.047197551197e-05 2.017614954396e-10 -1.224684827761e-10 2.720713934250e-10
168 2 6.254195743151e-03 1.235416328149e-02 6.436497148014e-03 -5.547333736585e-09 -2.923135649820e-09 -4.606767913535e-09 -3.638416616430e-06 5.736269065501e-08 -8.567178853716e-06 1.000000000000e-03 1.047197551197e-05 1.737887719509e-11 1.420835183190e-12 2.181189972874e-12
169 2 4.832835824633e-03 1.203620169599e-02 1.564159312929e-03 1.906827433550e-08 -9.202814477092e-10 3.560555018772e-09 -1.501697829388e-05 -2.259017983433e-05 1.019530291382e-05 1.000000000000e-03 1.047197551197e-05 -2.428001985164e-11 9.998178256826e-12 2.299819240250e-12
170 2 1.615303426580e-03 8.075625508122e-03 8.304464988270e-04 7.057646292661e-08 -8.973641526306e-08 -1.422700111740e-08 7.357508199169e-05 1.367743299950e-06 1.044936975528e-03 1.000000000000e-03 1.047197551197e-05 -9.850519783193e-11 1.278600098474e-10 6.666276072264e-11
171 2 5.512071918367e-03 8.200589026941e-03 7.906479953810e-03 -1.551927336368e-08 -5.449128663541e-09 -1.146359772521e-08 -1.378209993710e-06 1.246404493839e-06 4.264086628149e-06 1.000000000000e-03 1.047197551197e-05 2.323859197217e-11 7.075298133212e-12 1.092757878260e-11
172 2 2.436155086806e-03 1.263614426079e-02 3.548007681890e-03 -3.586172219989e-08 -5.997140008662e-08 4.824521189600e-08 -6.245981114875e-05 9.710735925077e-05 7.020510667462e-05 1.000000000000e-03 1.047197551197e-05 4.613644534215e-11 8.182095637935e-11 -7.097466634783e-11
173 2 2.743485076308e-03 1.183218208209e-02 9.600173671716e-03 -5.807196440451e-09 -7.558487386628e-10 -1.127916162051e-08 1.150026942209e-06 1.511222944967e-06 -1.005977554973e-06 1.000000000000e-03 1.047197551197e-05 7.659253692300e-12 6.938416347479e-12 1.849150434304e-11
174 2 5.145629789928e-03 1.418626670241e-02 1.147676122802e-02 -4.555320837859e-09 -3.863021359383e-09 -3.804526769714e-09 -2.310963388040e-06 -2.088142001176e-07 -8.535199840516e-07 1.000000000000e-03 1.047197551197e-05 4.258714059301e-13 3.769066123312e-12 6.042448879519e-12
175 2 3.273313328526e-03 9.777029805445e-03 1.290125369944e-02 -4.346440535551e-09 -1.920273305232e-09 -5.046952294522e-09 -4.328073181073e-08 1.639034068305e-06 7.316207758068e-07 1.000000000000e-03 1.047197551197e-05 2.737476722105e-13 -2.201517568919e-12 7.781433784626e-12
176 2 2.472938829845e-03 1.168020736163e-02 1.446721188493e-02 -1.397466721156e-09 -8.566550724676e-10 -1.259356940893e-09 -3.218190249864e-07 1.654412496418e-06 -5.232536903074e-07 1.000000000000e-03 1.047197551197e-05 3.897710885762e-12 4.374950183685e-12 6.601016053924e-12
177 2 8.956674475364e-04 1.430742536242e-02 1.218160871905e-02 -4.963402789665e-09 -3.233346102298e-09 -2.667452350421e-09 2.426119998115e-06 1.707409210504e-06 -1.800319283402e-06 1.000000000000e-03 1.047197551197e-05 6.369343949119e-12 7.866184842458e-12 4.716843914528e-12
178 2 5.611511694548e-03 1.259043459751e-02 8.168941254964e-03 -3.907043178249e-09 7.730914125175e-10 -7.695186144928e-09 -3.541823326379e-08 2.362129717046e-06 1.112589321580e-06 1.000000000000e-03 1.047197551197e-05 4.528276546847e-12 6.229988321667e-12 1.390855450899e-11
179 2 1.110910711471e-03 1.111709266035e-02 9.062714119164e-03 -5.678462448927e-09 -1.521003870629e-09 -3.854766077522e-09 6.462253979183e-06 9.431919336203e-06 5.491734915309e-06 1.000000000000e-03 1.047197551197e-05 -3.404499917714e-12 -1.090663789832e-13 -3.259269865848e-13
180 2 5.489461586720e-03 1.198609461427e-02 1.075655875737e-02 -6.306015963449e-09 -2.998010210828e-09 -6.554605427607e-09 7.642605873742e-08 2.642353507430e-06 2.283503923057e-07 1.000000000000e-03 1.047197551197e-05 8.597420234135e-12 3.756199978973e-12 8.060334750068e-12
181 2 3.845593424311e-03 5.689905321978e-04 1.270405005280e-02 -4.082595210534e-09 -1.950577112310e-09 -4.099068083865e-09 -4.001515759468e-07 -1.350487867165e-06 5.949343329864e-07 1.000000000000e-03 1.047197551197e-05 1.035048500206e-11 3.084221696651e-12 1.097759784106e-12
182 2 5.146023307224e-03 6.191096894340e-03 1.388438279886e-02 -3.845797472917e-09 -3.681500523278e-09 6.123478672174e-09 -1.970654951227e-06 -1.589397149418e-05 2.769166898294e-06 1.000000000000e-03 1.047197551197e-05 1.583554049061e-11 -8.112277371912e-12 -1.680192325780e-11
183 2 5.449401876722e-03 1.108590048430e-02 1.243532391440e-02 -3.863065652085e-09 -2.001601760464e-09 -4.076966355827e-09 -6.535441525880e-07 9.420206662171e-07 -9.685543893135e-07 1.000000000000e-03 1.047197551197e-05 6.569671315692e-12 4.390471544199e-12 4.197051821437e-12
184 2 2.191343704465e-03 8.221929013671e-03 1.209125931702e-02 -4.261715132508e-09 -1.664053621674e-09 -1.272340660529e-09 -3.652373395839e-06 1.151325711932e-06 -8.459261048599e-07 1.000000000000e-03 1.047197551197e-05 4.875156506702e-11 -4.032158624882e-11 -3.202492373292e-11
185 2 3.672050274310e-03 1.397425546371e-02 1.445394206184e-02 -1.493805726095e-09 -1.237890541992e-10 -1.173842773061e-09 9.085658736028e-08 2.830514730092e-07 3.755817667695e-07 1.000000000000e-03 1.047197551197e-05 3.807824533532e-12 -2.725127096014e-13 1.062007109952e-12
186 2 5.568639139489e-03 1.387775840148e-02 9.560070788608e-03 -4.611504949050e-09 -2.398279332181e-09 -4.443425271997e-09 3.365162755978e-06 -1.447860844292e-06 9.198402822798e-07 1.000000000000e-03 1.047197551197e-05 -7.371266010801e-13 4.547484095716e-12 3.682538079238e-12
187 2 5.652311375817e-03 1.075238386562e-02 7.574634231899e-03 -4.640253087577e-09 -3.458907511916e-09 -8.816237352527e-09 9.051716590929e-07 -3.990614007691e-06 -3.257811717818e-07 1.000000000000e-03 1.047197551197e-05 1.497808770077e-11 7.035892287133e-12 4.439875086335e-12
188 2 2.284458513308e-03 3.901674870550e-04 1.163177112617e-02 -4.302590322807e-09 -3.735253385325e-09 -4.977667110558e-09 8.089752716087e-07 -8.753180039780e-07 -1.186379486282e-06 1.000000000000e-03 1.047197551197e-05 3.694668309047e-12 2.705589085406e-13 9.100523074632e-12
189 2 4.663191449453e-03 8.358512023669e-03 9.824901679216e-03 -1.137498426893e-08 -5.808495860664e-09 -1.085704434474e-08 -3.746642250045e-07 1.301948789143e-06 3.180416490826e-06 1.000000000000e-03 1.047197551197e-05 1.172382440301e-11 1.040344935936e-11 1.450694573431e-11
190 2 3.649677019266e-03 6.093946203663e-03 1.099836053537e-02 -9.050507233350e-09 -3.486017988278e-09 -2.097556128988e-09 -1.919270396832e-06 1.370399528467e-06 8.070682187142e-07 1.000000000000e-03 1.047197551197e-05 1.723248449386e-11 7.551605539525e-12 8.341921716166e-12
191 2 4.885529369916e-03 9.287839538174e-04 1.122545783037e-02 -3.701933090558e-09 -1.391772152306e-10 -5.084088699365e-09 2.793859311996e-06 1.146667971004e-06 -1.774375067383e-06 1.000000000000e-03 1.047197551197e-05 -1.063954912638e-12 -2.159846530496e-13 1.154518673298e-11
192 2 6.590427161926e-03 1.266988603370e-02 1.282697482094e-02 -4.197997352825e-09 -2.511518404647e-09 -1.972173207971e-09 -2.653924059060e-06 1.717292051295e-06 -6.375222685383e-07 1.000000000000e-03 1.047197551197e-05 4.737929407517e-12 -7.693509288770e-13 4.869328168382e-12
193 2 2.863909501757e-03 7.562162321402e-03 1.001682040482e-02 -9.025116135660e-09 -4.761858734549e-09 -3.510235941952e-09 -2.037470220869e-06 4.171741862319e-06 -3.115359982176e-06 1.000000000000e-03 1.047197551197e-05 2.035232964528e-11 2.039405969122e-12 6.134978576794e-12
194 2 7.347258195938e-03 1.095711074978e-02 1.243575956690e-02 -4.251092947797e-09 -9.772729136271e-10 -3.719342401841e-09 3.356339318312e-06 -9.223231458400e-07 1.877575309013e-06 1.000000000000e-03 1.047197551197e-05 7.426114937716e-12 1.887648043113e-12 2.515037449815e-12
195 2 3.710723565822e-03 1.281300387301e-02 8.253380913280e-03 -2.720763799540e-09 -8.349209373519e-10 -8.015093753717e-09 3.212721888346e-06 -8.022103753078e-06 -7.919615262535e-07 1.000000000000e-03 1.047197551197e-05 -7.038035576771e-16 4.878973858455e-12 1.906137470169e-11
196 2 4.630986525815e-03 7.645121779342e-04 9.392285868531e-03 -4.398830143459e-09 -1.300695236336e-09 -6.266205805320e-09 -4.267485617329e-06 6.218230956299e-07 -1.628374221161e-06 1.000000000000e-03 1.047197551197e-05 2.036979423102e-12 -1.052143161921e-11 1.822758120045e-11
197 2 4.345582213283e-03 1.467182673144e-02 8.260792046939e-03 -5.636423511663e-09 -1.649731044366e-10 -2.929036714142e-09 2.982420572773e-06 6.457469114983e-07 2.523729424450e-06 1.000000000000e-03 1.047197551197e-05 2.297301924883e-11 -2.023192250648e-11 3.560429418102e-11
198 2 3.485339540779e-03 6.440526333477e-03 1.291851576806e-02 5.111775381254e-10 -1.666574731205e-09 -2.116546606405e-09 4.950619187349e-07 6.762833539322e-06 -6.197528876868e-06 1.000000000000e-03 1.047197551197e-05 5.012676362599e-13 -1.540871399331e-12 -8.867414490658e-12
199 2 1.543002520991e-03 1.692064464700e-03 8.449730930317e-03 -9.345834610119e-09 -1.005956867979e-08 -6.055986410323e-09 -4.325656997906e-07 3.369284682705e-06 -6.818443799607e-06 1.000000000000e-03 1.047197551197e-05 9.346950869242e-12 -3.264559061612e-12 4.582672558436e-12
200 2 3.838574683652e-03 1.240390789739e-02 1.163827240475e-02 -3.508870121208e-09 -3.396256272507e-09 -2.620870182400e-09 -1.078907335280e-06 1.070211761224e-06 8.844613433186e-07 1.000000000000e-03 1.047197551197e-05 2.452192723855e-12 4.392324127169e-12 4.490694397559e-13
201 2 4.535152240363e-03 1.025264639138e-02 1.075384170893e-02 -7.660930011914e-09 -3.314397989100e-09 -7.738352952653e-09 4.651505757261e-08 -9.717583809844e-07 3.644293898256e-07 1.000000000000e-03 1.047197551197e-05 9.831927069666e-12 1.868433111430e-12 1.012591846792e-11
202 2 1.254871879827e-03 9.306912205906e-03 1.311884986271e-02 -3.416416825774e-09 2.394250874126e-09 -3.129149485475e-09 2.621123573618e-06 -3.543459807471e-06 -3.939568950785e-06 1.000000000000e-03 1.047197551197e-05 -1.335855775823e-11 3.455399726052e-11 4.660851509835e-11
203 2 6.876843470151e-03 1.207816858575e-02 9.498109155310e-03 -4.673221723002e-09 -1.800920596132e-09 -6.070189289795e-09 1.931474177175e-06 -3.697188606698e-06 -1.830380477048e-06 1.000000000000e-03 1.047197551197e-05 1.045106381351e-11 3.254403084833e-12 1.582279200738e-11
204 2 3.985492810036e-03 1.161056632455e-02 1.343898540179e-02 -2.621712821402e-09 -1.190137871627e-09 -2.303956404105e-09 4.694373813160e-07 -6.092762113992e-08 3.468418540418e-07 1.000000000000e-03 1.047197551197e-05 5.536582147073e-12 4.564414642837e-12 6.784185261360e-13
205 2 1.865298409358e-03 6.614930703243e-03 1.133416510456e-02 -7.568446339300e-09 -3.793040677670e-09 1.275802948482e-09 1.482662260192e-06 2.527300019210e-06 -1.174290640849e-06 1.000000000000e-03 1.047197551197e-05 7.921725427161e-12 -2.776747538902e-13 -8.352427407808e-12
206 2 2.441769992274e-03 1.426570897337e-02 8.298636575461e-03 -2.859676425403e-09 1.777784923321e-09 -1.596660078182e-08 6.899412845642e-06 -1.064037067594e-05 -3.175947071994e-06 1.000000000000e-03 1.047197551197e-05 -3.808330170668e-13 1.945178996959e-12 1.667714971372e-11
207 2 3.305634335532e-03 1.424600589129e-02 1.164562549967e-02 -4.808635884631e-09 -4.139749800234e-09 -3.916808310901e-09 -1.745277003309e-06 1.806716914798e-06 9.923932616732e-07 1.000000000000e-03 1.047197551197e-05 5.764748637718e-12 3.233962835734e-12 -1.628777070304e-12
208 2 5.168235259143e-03 9.193812111660e-03 1.249562985662e-02 -4.967493025315e-09 -2.249318582726e-09 -6.081994848674e-09 2.831268406837e-06 -5.511707089991e-07 -2.043341430094e-07 1.000000000000e-03 1.047197551197e-05 7.830325063193e-12 6.863798795210e-12 1.158891048144e-11
209 2 2.727713396757e-03 9.733485691583e-03 9.429496103537e-03 -1.304820802097e-08 4.284795354682e-10 -7.750640185364e-09 -1.113337097393e-06 2.440409600470e-06 1.128744940938e-06 1.000000000000e-03 1.047197551197e-05 2.207087770027e-11 -9.966572584326e-12 3.580507773602e-12
210 2 2.249752398503e-03 9.844009479930e-03 1.454373760462e-02 -2.180625542170e-09 -1.003688809132e-09 -1.175487242443e-09 -7.481293072700e-07 2.004870658692e-06 -1.017645669236e-06 1.000000000000e-03 1.047197551197e-05 -3.025485095589e-12 1.014452576154e-11 1.468370753060e-11
211 2 4.720898443561e-03 2.760627440811e-03 9.922157344968e-03 -1.023445558181e-08 -1.848136507584e-09 -1.401667116473e-08 3.186697149593e-06 -1.666041980770e-05 -8.089154516718e-06 1.000000000000e-03 1.047197551197e-05 2.581213968835e-11 7.251088145343e-12 2.514236179518e-11
212 2 2.268093927261e-03 1.265734534149e-02 1.280603452832e-02 -1.049180997079e-09 -1.074060744524e-09 -2.294135488433e-09 3.917682026023e-07 -1.067693474154e-06 -3.177736208610e-06 1.000000000000e-03 1.047197551197e-05 2.682023123469e-11 2.528159535883e-11 1.305920611175e-11
213 2 5.454270792445e-03 6.240213675486e-03 8.611039148542e-03 -1.755823576459e-08 -1.338332645947e-08 -1.883316307728e-08 -7.840835284012e-06 -1.912680100246e-06 8.416685478556e-07 1.000000000000e-03 1.047197551197e-05 5.002010409730e-11 2.065177941015e-11 1.402032219123e-11
214 2 2.807494203944e-03 3.803068016884e-04 9.501308858099e-03 -4.556185931259e-09 -4.613597766149e-09 -5.610556356843e-09 1.429298108562e-07 -8.727406123983e-07 1.582650272382e-06 1.000000000000e-03 1.047197551197e-05 -6.298861496901e-12 2.657101257171e-12 1.000800663322e-11
215 2 3.607202733431e-03 1.384690561392e-02 9.835075341947e-03 -7.276604869563e-09 -4.716745425945e-09 -5.951219128683e-09 1.033943126731e-06 6.751624735320e-08 -6.520094702916e-08 1.000000000000e-03 1.047197551197e-05 1.721376436560e-11 1.275830283460e-11 -1.595563550280e-11
216 2 6.386004428354e-03 9.957757686604e-03 1.115268378011e-02 -5.747513112444e-09 -2.549211755263e-09 -5.832646415932e-09 -1.755437980759e-06 1.677250584367e-06 3.017107081014e-07 1.000000000000e-03 1.047197551197e-05 7.550796491132e-12 3.077718362715e-12 9.339305684453e-12
217 2 1.853289813615e-03 1.344156245899e-02 1.449304362633e-02 -9.198946968414e-10 -9.515799625200e-10 -7.412260037043e-10 -3.188558635293e-07 5.978784930490e-07 4.114718276894e-07 1.000000000000e-03 1.047197551197e-05 4.674448477650e-12 4.154359142338e-12 1.211192099057e-12
218 2 4.822318024359e-03 1.329049481751e-02 1.311149542953e-02 -3.130152268071e-09 -8.808665336462e-10 -1.776532248777e-09 -6.490209172965e-07 7.079397268254e-07 -1.924299498693e-07 1.000000000000e-03 1.047197551197e-05 3.367491810994e-12 3.186938231589e-12 -1.351648641448e-12
219 2 3.648773406322e-03 7.770594187179e-03 8.248138887639e-03 -1.667069894334e-08 -7.054463373679e-09 -9.877734421692e-09 8.258807117132e-06 3.936873193946e-06 -1.414294110470e-06 1.000000000000e-03 1.047197551197e-05 2.411530768817e-11 1.290842462696e-11 8.889213857955e-12
220 2 5.613086145342e-03 1.212068570613e-02 1.443373238054e-02 -2.113779309007e-09 -6.978653129295e-10 -1.141609976469e-09 -4.849377771318e-08 1.234038801701e-06 -5.178651095469e-07 1.000000000000e-03 1.047197551197e-05 5.669409318412e-12 3.620422187504e-12 -4.664409612824e-12
221 2 2.449631339967e-03 1.479036018196e-02 1.327686080938e-02 -3.150147338291e-09 -2.618131424247e-09 -3.179049745762e-09 -2.468998348370e-06 8.362326932345e-07 1.686733213654e-06 1.000000000000e-03 1.047197551197e-05 3.736412686660e-12 3.126169353090e-12 6.896679904072e-12
222 2 2.087875628959e-03 1.302509024959e-02 1.093152204044e-02 -5.036012161431e-09 -3.742173850273e-09 -3.663176539657e-09 4.935776243393e-06 2.426599831643e-07 -2.798048554449e-07 1.000000000000e-03 1.047197551197e-05 3.293346217700e-12 8.756425324839e-12 5.482420675634e-12
223 2 1.437915294218e-03 8.276591496665e-03 9.035113845610e-03 -1.383474935192e-08 -2.503132822933e-09 -8.302854386330e-11 -5.155908150723e-06 2.620040572453e-06 1.794437104863e-06 1.000000000000e-03 1.047197551197e-05 2.771476754231e-12 7.133734569620e-12 4.328836979312e-12
224 2 2.503767389677e-03 7.904812018108e-03 1.422063592514e-02 -5.596999606871e-09 -1.056086545477e-10 1.543283834029e-09 -1.612323376121e-06 -1.137478733537e-06 -2.153175218210e-06 1.000000000000e-03 1.047197551197e-05 4.332856209735e-12 -2.022453166594e-12 -4.965815220062e-12
225 2 3.873112737716e-03 5.543169860181e-04 1.452373034587e-02 -2.828454244519e-09 -8.314367504138e-10 -1.677775966871e-09 -7.447773946972e-07 2.679317812876e-06 7.635329557210e-07 1.000000000000e-03 1.047197551197e-05 6.469185115956e-12 5.011917259327e-13 -4.014598285804e-12
226 2 5.942617352453e-03 1.018884025195e-02 9.343633010430e-03 -8.037090319831e-09 -4.034499025650e-09 -7.748326799002e-09 -4.879770172389e-08 -3.032901533834e-07 -1.411264330951e-08 1.000000000000e-03 1.047197551197e-05 1.764623707792e-11 1.046420359845e-11 1.000073420498e-11
227 2 2.715187480813e-03 1.081867855956e-02 1.132502868866e-02 -6.670832900168e-09 -1.404049729950e-09 -4.949340026830e-09 4.947981224004e-07 1.755343897352e-06 -1.133066114530e-06 1.000000000000e-03 1.047197551197e-05 6.040995231744e-12 -1.167559725707e-12 -4.923622414713e-13
228 2 5.424242634449e-03 1.465647783006e-02 1.441213914239e-02 -1.292813022704e-09 -7.220629423494e-10 -3.965158405261e-10 7.391470239516e-07 -1.716170048025e-07 -1.504174091667e-06 1.000000000000e-03 1.047197551197e-05 2.814377242454e-12 2.762292618756e-12 -8.403288669052e-13
229 2 1.525657149563e-03 7.104781057068e-03 7.494175334193e-03 -2.998030955736e-08 -4.268937507473e-10 1.320072954146e-08 -4.343595572070e-07 1.302406000081e-05 -1.130703523047e-05 1.000000000000e-03 1.047197551197e-05 8.803506824630e-11 3.866885228727e-11 -4.546693031479e-11
230 2 5.300929462764e-03 8.022326346025e-03 1.441108437618e-02 -5.051115818988e-09 -1.681732292271e-09 1.669424859683e-09 -2.131523992753e-06 4.955619702461e-06 -4.287253782139e-06 1.000000000000e-03 1.047197551197e-05 8.087278901321e-12 1.018656293228e-11 -2.648272004617e-12
231 2 4.504921853326e-03 1.136695410299e-02 9.203118741227e-03 -6.591717976647e-09 -2.707304775014e-09 -9.102261683769e-09 1.439969043297e-06 -2.904996382736e-06 -6.209835745208e-07 1.000000000000e-03 1.047197551197e-05 1.144736374741e-11 2.280672517753e-12 1.971234465557e-11
232 2 5.988831057627e-03 1.428743125926e-02 7.391280684041e-03 -3.211950623434e-10 8.754604546695e-09 -1.039768758861e-09 1.815344402322e-05 -5.582514150171e-06 -5.894797170408e-06 1.000000000000e-03 1.047197551197e-05 -2.076457616654e-12 -2.424652757446e-11 1.851265483250e-11
233 2 3.743835535428e-03 8.663605977515e-03 1.138335357297e-02 -6.407548134210e-09 -3.579057566206e-09 -6.502137844249e-09 -1.923381718062e-06 2.825532650242e-06 9.878701769753e-07 1.000000000000e-03 1.047197551197e-05 1.460147211015e-11 -4.893877428013e-12 1.457989841865e-12
234 2 6.163264089256e-04 3.996732135318e-03 6.355068808994e-03 -8.542990259099e-09 -2.106415235971e-08 1.313954096232e-08 -7.861189272008e-06 -3.020724014342e-05 1.876207329772e-05 1.000000000000e-03 1.047197551197e-05 1.039512481457e-11 2.808234607714e-11 -1.506194144329e-11
235 2 1.464196184588e-02 2.674870045723e-03 1.356650185993e-03 2.954309724239e-07 1.075618176449e-07 3.495527153646e-08 7.321016898247e-05 -1.813111591579e-04 -3.895800418006e-05 1.000000000000e-03 1.047197551197e-05 -3.995358453859e-10 -1.352599450774e-10 -5.240594952247e-11
236 2 1.415296238516e-02 6.811571535606e-03 4.613866625395e-03 -1.074018178085e-07 2.056146219653e-08 8.370393271145e-08 2.460024326309e-05 -1.878090091266e-05 -4.540633460127e-05 1.000000000000e-03 1.047197551197e-05 1.472170670778e-10 -6.358531589783e-11 -9.072991510086e-11
237 2 7.429182178045e-03 4.146063230445e-03 2.501857276769e-03 -2.982547169490e-08 4.826321380475e-08 -9.643707065467e-10 1.021327870808e-05 4.113044384429e-06 3.005766709602e-05 1.000000000000e-03 1.047197551197e-05 4.979027195291e-11 -7.797039220346e-11 -1.405275453873e-11
238 2 1.164250151659e-02 3.524853517232e-03 4.677820337070e-03 -2.931750497829e-08 -1.055297715405e-08 6.447289410988e-09 -2.048047421937e-05 2.772248886530e-05 2.523584773473e-05 1.000000000000e-03 1.047197551197e-05 3.613967405336e-11 2.173769685477e-11 -1.401124237273e-11
239 2 1.159558649574e-02 4.107229258606e-03 9.414048631826e-04 8.817818634267e-08 -1.166806867819e-08 4.757090937771e-08 1.089273702118e-05 -1.459566267067e-05 9.644080150010e-05 1.000000000000e-03 1.047197551197e-05 -1.034386334033e-10 -4.903172103894e-12 -6.188174520334e-11
240 2 1.254687968268e-02 2.435340944364e-03 9.377870627255e-04 1.550251258731e-07 3.324196428651e-08 -2.606552650224e-08 -3.999562566164e-05 1.824569440139e-04 -5.369553087465e-05 1.000000000000e-03 1.047197551197e-05 -2.131853814160e-10 -5.930837436999e-11 2.618975624904e-11
241 2 1.476693169482e-02 3.683075041297e-03 3.015261767713e-03 -2.648064173782e-08 6.796148405978e-08 6.668872824920e-08 1.822737314737e-05 -7.809271986896e-05 9.198867072290e-05 1.000000000000e-03 1.047197551197e-05 3.317429583656e-11 -9.711380663598e-11 -8.331276577714e-11
242 2 1.325604934512e-02 4.765767645330e-03 5.356549749571e-03 -5.903527214389e-08 -1.314979913303e-08 3.655710797545e-08 2.691982876630e-05 -1.351923665522e-05 1.273600203784e-05 1.000000000000e-03 1.047197551197e-05 9.828385760885e-11 2.981321031526e-11 -5.242728595209e-11
243 2 2.318194792086e-03 3.750458562937e-03 5.402039620116e-03 -1.052885570514e-08 2.561826135141e-08 -8.278336905698e-09 8.901384414867e-05 -3.569602479608e-05 2.386469463521e-05 1.000000000000e-03 1.047197551197e-05 2.988836435077e-11 -4.330387616000e-11 1.342409123894e-11
244 2 1.352589145822e-02 3.098967851950e-03 4.452335788752e-03 -2.194639507279e-08 2.371994403551e-09 -3.867927389083e-09 1.017004449292e-05 -1.182735507807e-05 1.019037612981e-05 1.000000000000e-03 1.047197551197e-05 4.137959422687e-11 -5.560060280404e-12 6.409361719568e-12
245 2 1.014465298214e-02 6.260159827912e-03 4.310821664338e-03 -2.277835786703e-08 -7.809113512844e-09 8.894930819991e-09 -2.299646586873e-06 -1.125368513338e-05 1.569940877498e-05 1.000000000000e-03 1.047197551197e-05 2.408873027768e-11 6.965628558707e-12 -3.769725292636e-11
246 2 1.592631882278e-03 3.976837363873e-03 2.459662835937e-03 -3.541797430623e-07 -7.550163401080e-08 8.431132375391e-08 -3.592368852558e-04 3.253165971680e-03 -1.109366955101e-03 1.000000000000e-03 1.047197551197e-05 4.741298992444e-10 1.032285218801e-10 -1.132589779427e-10
247 2 1.118961951094e-02 2.395422188188e-03 3.063965554333e-03 4.024166664220e-08 2.723964774473e-08 -6.825001030054e-08 -8.954490082437e-05 9.641750453181e-05 2.325889526181e-06 1.000000000000e-03 1.047197551197e-05 -5.577788097534e-11 -3.190385726254e-11 9.476328315484e-11
248 2 1.185982927586e-02 5.996075521164e-03 5.055656577826e-03 -2.911269864615e-08 -7.214034370314e-09 2.647464403887e-08 -3.017837361937e-05 -4.382834158117e-07 -3.105600331331e-05 1.000000000000e-03 1.047197551197e-05 4.471422203929e-11 2.103621448834e-11 -2.703947940501e-11
249 2 9.861139824183e-03 1.244494260943e-03 5.910228297910e-03 -1.363756016813e-08 -4.345166838698e-09 5.216750324167e-10 -8.758789678075e-06 2.802493742468e-05 5.029051850212e-06 1.000000000000e-03 1.047197551197e-05 2.035446833212e-11 3.689058126240e-12 3.676117505418e-12
250 2 9.750622917861e-03 2.855698024441e-03 4.388780931088e-03 8.817443520523e-09 -2.720592275488e-08 -1.395654425236e-08 -4.264395974954e-05 -1.067745597323e-05 -1.583343305413e-05 1.000000000000e-03 1.047197551197e-05 -3.853719282390e-12 3.931406489262e-11 2.325112184817e-11
251 2 1.484998607410e-02 1.419721388803e-04 5.738645607977e-03 3.653632716700e-09 2.304234744832e-09 -7.852318330670e-09 -7.986520308728e-06 -1.151575787536e-05 -7.407117268589e-06 1.000000000000e-03 1.047197551197e-05 7.286820720043e-14 -2.123954905238e-12 8.823327976788e-12
252 2 5.409864770611e-03 4.382919650672e-03 2.100507859589e-03 1.339874876257e-07 1.684213403975e-07 -8.405659224914e-08 1.480005290978e-04 -2.495216744564e-04 2.656932980594e-04 1.000000000000e-03 1.047197551197e-05 -1.794676366584e-10 -2.221797613041e-10 1.191310689123e-10
253 2 6.666400236450e-04 5.654159122069e-03 2.991155233383e-03 -1.401294831834e-07 -2.536112871492e-07 -1.051243850682e-07 -4.503819885436e-04 -2.135074879418e-03 1.545603712358e-03 1.000000000000e-03 1.047197551197e-05 1.937189538779e-10 3.448740240192e-10 1.423921260863e-10
254 2 8.311541714234e-03 2.665145645679e-03 1.557082040596e-03 -6.034562886280e-08 8.353818587842e-08 -5.928273778365e-08 1.280572123301e-04 -1.543702828796e-04 -1.183191919087e-04 1.000000000000e-03 1.047197551197e-05 7.477658808746e-11 -1.023335865565e-10 8.345342044466e-11
255 2 6.522238179162e-04 3.551453093785e-03 4.501931250889e-03 -2.479896032223e-08 4.195995557131e-08 7.201950088701e-09 6.716574955940e-05 7.737027016736e-05 3.207849503862e-05 1.000000000000e-03 1.047197551197e-05 4.916506911778e-11 -8.311261976673e-11 -1.703725924205e-11
256 2 1.203957369823e-02 1.605811589884e-03 4.638930833566e-03 2.615787702580e-08 2.972577043386e-08 -2.081221338056e-08 4.789403582077e-05 -6.206460961050e-05 -1.215073118190e-05 1.000000000000e-03 1.047197551197e-05 -3.872092571871e-11 -3.291148570221e-11 2.752337472211e-11
257 2 7.683039995108e-03 5.132056128942e-03 8.927003403591e-04 -1.678654454750e-08 1.986315673081e-08 -7.425554849739e-09 -3.234559980315e-05 -8.239192081169e-06 -3.225074570787e-05 1.000000000000e-03 1.047197551197e-05 1.495412436429e-11 -2.985215584304e-11 4.433047326133e-12
258 2 1.391604514137e-02 1.914521222466e-03 3.024300651466e-03 3.702601445657e-08 3.805928293832e-08 -4.160762437926e-08 4.938200458491e-05 -2.549954884980e-05 1.349699504997e-05 1.000000000000e-03 1.047197551197e-05 -1.872013636838e-11 -2.628776076684e-11 7.884042925485e-11
259 2 1.194196657877e-02 2.578053127249e-03 6.307029542714e-03 -1.329416384924e-08 -6.871617567385e-09 7.682764199777e-09 7.139986511126e-06 -3.876717267957e-06 5.248293028157e-07 1.000000000000e-03 1.047197551197e-05 1.652784092693e-11 1.802737844100e-12 -2.217148684378e-11
260 2 1.406502033972e-02 5.495464949867e-03 3.034631708231e-03 -1.084255055895e-07 2.242092016658e-08 9.509811772111e-08 6.785525973703e-05 1.243375991675e-06 2.556159012984e-05 1.000000000000e-03 1.047197551197e-05 1.286712732807e-10 -1.843760592094e-11 -1.337749751122e-10
261 2 1.039975391595e-02 4.745913508820e-03 5.458699061656e-03 -2.709051457336e-08 -6.291222293247e-09 1.246288237722e-08 6.450864870316e-06 -1.115151874410e-05 1.461505961279e-06 1.000000000000e-03 1.047197551197e-05 3.741924765166e-11 4.361209941597e-12 -1.522342544961e-11
262 2 1.020222077365e-02 2.766314179350e-03 9.833905105414e-04 3.829224672051e-08 -2.880674399445e-08 1.854668082991e-08 5.847715752153e-05 4.279047787909e-05 -1.092467420891e-04 1.000000000000e-03 1.047197551197e-05 -4.538966992335e-11 4.715054362834e-11 -2.437826699117e-11
263 2 1.134280599319e-02 1.567120299011e-04 5.722913745599e-03 -9.216364721175e-09 4.443538009681e-09 -2.004091499276e-08 -1.447109962147e-05 1.597479018778e-05 6.498192342528e-06 1.000000000000e-03 1.047197551197e-05 6.094876637394e-12 2.052550573005e-11 5.123236509141e-11
264 2 1.051713304938e-02 4.184464057267e-03 3.233135237412e-03 -2.398127644795e-08 1.199874014247e-08 -1.114508356271e-09 9.004249263810e-05 3.001790529620e-05 5.448332816581e-05 1.000000000000e-03 1.047197551197e-05 2.932065468312e-11 -2.177337254390e-11 7.794208164282e-12
265 2 1.508579455399e-02 1.942301674757e-03 4.538042791240e-03 -3.649870766841e-09 9.747793547954e-09 -2.157030489608e-08 6.517365389048e-06 6.708454255386e-06 1.995234159829e-06 1.000000000000e-03 1.047197551197e-05 -4.189783213636e-12 -1.484725763467e-11 3.058297726558e-11
266 2 1.522141777816e-02 1.935252601624e-03 6.471748948721e-03 -3.334706250528e-09 -1.245420628944e-09 -9.891894508604e-09 6.643952227956e-06 -3.852203104124e-06 3.223692772247e-06 1.000000000000e-03 1.047197551197e-05 -1.574204617814e-12 4.239124364813e-12 1.545062735171e-11
267 2 9.270879026194e-03 1.063332615227e-03 9.875947517145e-04 -3.706178209393e-08 2.441144093810e-08 -1.473520856172e-08 -3.833863527483e-05 -4.931200865177e-05 3.797963934259e-05 1.000000000000e-03 1.047197551197e-05 5.251334614759e-11 -4.512468004902e-11 1.938836969972e-11
268 2 8.142829046544e-03 3.326844789778e-03 6.186531784949e-03 -1.806188494392e-09 3.849645997571e-09 -1.609949419357e-08 3.371070012545e-06 3.110872750633e-05 8.565858345364e-06 1.000000000000e-03 1.047197551197e-05 -2.642262595193e-12 -1.941546867493e-12 2.065637307446e-11
269 2 1.029557558008e-02 6.593980533302e-03 2.493055620855e-03 -7.884482949177e-09 -2.293945007989e-08 1.886158331772e-09 -1.487786909431e-05 -4.954741599916e-06 1.053028058195e-05 1.000000000000e-03 1.047197551197e-05 2.255839671342e-12 2.386979655749e-11 1.593331347465e-11
270 2 1.042176788752e-02 5.622229589913e-03 8.802475845568e-04 -2.621000123932e-09 -2.720855556455e-08 4.690136459463e-09 1.906178616930e-06 -5.089550295758e-06 -4.099420199753e-06 1.000000000000e-03 1.047197551197e-05 -1.202542479921e-11 4.050560318789e-11 3.651750830700e-12
271 2 1.278194098709e-02 3.433043946704e-03 2.531596332042e-03 1.229041611321e-07 9.150264990533e-08 -1.993261137879e-10 5.987081928576e-05 -2.944565335321e-04 3.438905122195e-05 1.000000000000e-03 1.047197551197e-05 -1.594540175340e-10 -1.251986144711e-10 -4.456805114072e-12
272 2 1.237807097484e-02 8.689702500567e-04 2.889346101304e-03 3.797721887892e-08 1.982495906506e-08 -1.519349776184e-08 -6.885206285842e-05 3.018998672085e-05 -3.708757471426e-06 1.000000000000e-03 1.047197551197e-05 -6.605284595104e-11 -4.342980301443e-11 3.445992878967e-11
273 2 7.419078044192e-03 3.756010834751e-03 4.397308228505e-03 -3.393238163699e-08 1.400255803926e-08 -1.288255343503e-08 2.173436021715e-05 -1.245529579879e-05 9.347307265556e-06 1.000000000000e-03 1.047197551197e-05 4.937168502121e-11 -2.426045654580e-11 -8.776845094327e-13
274 2 8.018402948527e-03 1.976294799850e-03 4.204821669554e-03 -2.376797962455e-08 2.329836278527e-08 -4.759918014252e-08 5.345923211976e-05 -7.722577345732e-05 8.578770442378e-08 1.000000000000e-03 1.047197551197e-05 -1.421517704464e-11 -3.644300097560e-12 8.204022332525e-11
275 2 1.365947756913e-02 9.571229797032e-04 1.322373006017e-03 1.696193233674e-07 4.936457239128e-08 -3.715598210916e-08 -5.206811922296e-05 -6.505115413194e-05 5.347934406651e-05 1.000000000000e-03 1.047197551197e-05 -2.396118594665e-10 -3.768164383414e-11 5.944883697504e-11
276 2 8.501928372847e-03 6.712859257250e-03 3.317271751644e-03 -1.898296092293e-08 5.138826192230e-09 -3.411069865425e-09 -2.144997067777e-05 -1.092292502804e-05 -4.619576941306e-05 1.000000000000e-03 1.047197551197e-05 1.856284209960e-11 -1.383807452106e-11 1.467535218057e-11
277 2 9.212540732050e-03 4.622497161792e-03 1.936558164123e-03 -3.642668685763e-08 2.455097093368e-08 1.739523673589e-08 -5.053098234026e-05 -1.581959577381e-05 -3.138691230899e-05 1.000000000000e-03 1.047197551197e-05 6.332660608323e-11 -2.936955671551e-11 -1.770190602185e-11
278 2 5.923284153788e-03 3.297953673544e-03 6.174064265098e-03 -1.402387902557e-08 3.968925282933e-09 -3.625308760214e-08 -1.593742668967e-05 -5.431711290145e-05 4.981913546917e-05 1.000000000000e-03 1.047197551197e-05 1.028893146861e-11 -6.173360002847e-12 6.471400321031e-11
279 2 8.908344735090e-03 4.867323369119e-03 4.067796159583e-03 -3.108683705523e-08 -7.732651607878e-09 1.440176633586e-08 -4.257373452671e-05 -2.793911692461e-05 -3.265647390123e-05 1.000000000000e-03 1.047197551197e-05 4.980137516525e-11 1.458542539353e-11 -2.378956982194e-11
280 2 1.010054183414e-02 3.032719391851e-03 6.261403832096e-03 -1.602436228901e-08 -5.122628307925e-09 -4.517520122104e-09 9.065412888379e-06 -9.586194406317e-06 3.898658630655e-06 1.000000000000e-03 1.047197551197e-05 2.046345513564e-11 8.944658671170e-12 -3.379149979470e-12
281 2 9.229732028279e-03 6.177948399554e-03 5.957446851505e-03 -1.615532600494e-08 -5.791226905397e-09 7.890723823548e-09 -9.679715879468e-06 1.552614179183e-05 -1.160265706168e-06 1.000000000000e-03 1.047197551197e-05 2.722713414100e-11 -4.073360462878e-12 -2.233383178042e-11
282 2 1.228870199242e-02 4.929801228554e-03 3.563846077991e-03 -6.877831111942e-08 7.986730485254e-09 2.729027440059e-08 6.361938095651e-05 4.284769676897e-06 -1.349355771161e-05 1.000000000000e-03 1.047197551197e-05 9.054913493664e-11 -1.132290689199e-11 -1.791911629280e-11
283 2 1.354541131618e-02 4.176087180371e-03 9.119585600002e-04 2.710956477380e-07 1.974711741771e-07 -2.884836071022e-09 -1.530898783970e-04 1.847475931203e-04 9.513280086884e-05 1.000000000000e-03 1.047197551197e-05 -3.649764799136e-10 -2.735416711075e-10 1.063791612396e-11
284 2 1.529800556821e-02 4.725887862940e-03 1.458254992114e-03 1.320611493083e-06 -1.306587048745e-06 -3.552452082836e-07 -1.022609079006e-03 -1.991202982618e-04 -2.290607837258e-03 1.000000000000e-03 1.047197551197e-05 -1.770233274889e-09 1.751124927778e-09 4.715171212298e-10
285 2 7.358452794554e-03 6.400548118887e-03 5.561119194061e-03 -2.071414255171e-08 -7.011730091487e-09 5.093953411410e-09 -3.604733839331e-06 -1.279734058372e-05 -9.998736715715e-06 1.000000000000e-03 1.047197551197e-05 2.611535264697e-11 1.854605630864e-11 -2.152233456962e-11
286 2 1.715050883789e-03 2.286478086378e-03 3.497820787930e-03 1.703818229832e-07 1.697648602159e-07 -5.712693351602e-08 1.835968457792e-04 -2.840682121430e-04 1.765183188541e-05 1.000000000000e-03 1.047197551197e-05 -2.315447524724e-10 -2.319516594412e-10 9.251580611913e-11
287 2 1.044810874799e-02 5.468970623217e-04 2.765508905216e-03 1.762254416307e-08 1.094923410392e-08 2.278612420542e-08 7.313633348423e-06 -3.411101516211e-06 7.034357673365e-06 1.000000000000e-03 1.047197551197e-05 -1.178006466889e-10 2.741712359667e-11 1.090600894084e-10
288 2 1.338026705485e-02 1.344661416443e-03 6.292871128122e-03 -7.055781283690e-09 -3.691630615478e-09 1.457272518019e-09 -4.084037820124e-06 1.032924851382e-05 9.099602195840e-07 1.000000000000e-03 1.047197551197e-05 1.396756416381e-11 2.229332031061e-11 -6.706275937413e-12
289 2 1.504537791922e-02 5.143216464792e-03 4.639213827461e-03 -1.110371333820e-07 2.425822729654e-08 9.845492096101e-08 -3.277297750295e-06 -5.022320681069e-05 4.859700887831e-05 1.000000000000e-03 1.047197551197e-05 1.325829454736e-10 -9.026470189522e-13 -1.278719828232e-10
290 2 7.069568033752e-03 5.494611556744e-03 3.814794588953e-03 -5.438888053640e-08 2.340105606918e-08 1.423236915452e-08 1.644192505596e-05 2.855222573733e-05 1.116035435760e-05 1.000000000000e-03 1.047197551197e-05 6.418693473509e-11 -2.496249730479e-11 -1.184156509944e-11
291 2 8.926942906195e-03 2.854220923578e-03 1.025953951456e-02 -8.104134786814e-09 -2.923153065086e-09 -2.449875956177e-09 -6.996817415237e-07 3.126075311117e-06 -3.962500471368e-06 1.000000000000e-03 1.047197551197e-05 8.155394718716e-12 -2.239665727640e-12 6.728141270543e-12
292 2 1.530693104998e-02 1.815695696160e-03 1.440596261546e-02 -7.548237390745e-10 -4.531956903847e-09 -1.126032709593e-09 -8.311362221720e-08 5.546327784137e-06 -1.013754421102e-06 1.000000000000e-03 1.047197551197e-05 1.765500801596e-12 6.184895091947e-12 1.446013950972e-12
293 2 1.191380803080e-02 4.435328740681e-03 6.672650449926e-03 -3.071185140342e-08 -1.556790949322e-08 1.389811270179e-08 -9.735182140779e-06 1.396490039832e-05 -1.607767800547e-06 1.000000000000e-03 1.047197551197e-05 3.331277348208e-11 3.805084725686e-11 -1.760424643442e-11
294 2 1.351629563364e-02 1.185814385990e-03 1.182285689327e-02 -3.859662477989e-09 -8.017623058882e-09 -1.155556328068e-09 4.270927358920e-06 -6.138789920028e-07 2.628373330911e-06 1.000000000000e-03 1.047197551197e-05 1.445433770251e-11 -3.647363275588e-12 -8.981775848246e-12
295 2 1.196659236237e-02 4.598672284107e-03 1.039372816727e-02 -8.329841321883e-09 -7.910441127533e-09 3.493088651061e-09 -3.356623339385e-06 -3.132541451354e-06 -1.350303900931e-06 1.000000000000e-03 1.047197551197e-05 1.256018487477e-11 8.821006643953e-12 -5.715840332425e-12
296 2 8.595945382821e-03 4.941865063266e-03 9.478439897591e-03 -8.278580296428e-09 -5.052702659852e-09 -8.493190545012e-09 -3.118128775603e-07 -7.966267093138e-06 -1.957733636990e-06 1.000000000000e-03 1.047197551197e-05 1.364345617530e-11 7.713753089561e-12 2.604845188871e-12
297 2 1.454248677979e-02 4.519900044823e-03 7.526348307959e-03 -1.504475312130e-08 -2.020509218129e-08 1.397062793545e-08 1.554368713661e-05 1.334668424192e-05 -1.585205865559e-05 1.000000000000e-03 1.047197551197e-05 1.012481075427e-12 3.852879339930e-11 -9.430019290310e-12
298 2 1.026442841972e-02 4.456892087756e-03 1.122534511930e-02 -7.384425264993e-09 -3.771345311775e-09 1.994141871971e-11 -6.051452156222e-06 2.124767639698e-06 2.517043127184e-06 1.000000000000e-03 1.047197551197e-05 1.096913643780e-11 3.259826488162e-12 2.200050139840e-12
299 2 5.968534294604e-03 5.872712458104e-03 6.804060863088e-03 -2.220716480416e-08 -7.543561423313e-09 -1.699715981460e-08 8.024852858586e-06 6.557804348803e-06 5.665052984557e-06 1.000000000000e-03 1.047197551197e-05 2.964740474089e-11 9.290789842450e-12 2.042935146260e-11
300 2 7.545387017570e-03 1.576819291524e-03 1.386151791389e-02 -5.291528166619e-09 -6.842578727415e-10 -1.519769760357e-09 -5.702824982884e-08 -5.655022409371e-07 -2.560179807142e-07 1.000000000000e-03 1.047197551197e-05 1.109193406976e-11 2.775515849397e-13 4.328385958586e-12
301 2 1.335897981681e-02 3.753186558048e-03 9.246780504780e-03 -9.526610282436e-09 -1.040527821704e-08 7.310876638717e-09 5.182329183949e-06 -3.712803824150e-06 5.872087217482e-06 1.000000000000e-03 1.047197551197e-05 1.720531391585e-11 2.948819580652e-11 -1.107646008954e-12
302 2 1.016891848515e-02 3.962730738249e-03 9.406091851267e-03 -7.519118186577e-09 -7.670917574788e-09 9.835096805435e-10 2.567750466249e-06 -3.118828373554e-06 -1.246898677774e-06 1.000000000000e-03 1.047197551197e-05 -1.554289605427e-12 9.606530501288e-12 -1.553993871266e-12
303 2 2.075802108705e-03 3.693746379851e-03 1.165409577944e-02 -3.784179394624e-09 -3.193909766234e-09 7.383066648927e-10 3.095294893024e-06 4.109823967624e-07 2.073264548954e-06 1.000000000000e-03 1.047197551197e-05 -1.630611985129e-11 3.649698160288e-12 -2.755987559759e-12
304 2 1.036216622600e-02 5.831621057211e-03 9.613463709573e-03 -9.160658460146e-09 -6.541142294127e-09 -5.818847054886e-10 -6.355634241669e-06 -4.486030766816e-06 1.309062665730e-06 1.000000000000e-03 1.047197551197e-05 1.317398058505e-11 1.321941479212e-11 -2.863207290793e-12
305 2 1.379161446687e-03 5.270506823649e-03 7.610131438967e-03 -3.360361113446e-08 -4.935497554980e-09 1.381290835266e-08 2.277983645966e-06 2.309457116253e-05 9.015698364036e-06 1.000000000000e-03 1.047197551197e-05 4.902965062453e-11 7.802547663232e-12 1.515605184443e-11
306 2 1.011794202952e-02 1.712720980433e-03 9.161934479716e-03 -8.492673936245e-09 -6.892467497228e-09 -4.679106681024e-09 -3.730619821075e-06 3.569267152763e-06 -9.455184315178e-06 1.000000000000e-03 1.047197551197e-05 6.721388414426e-12 1.142987055170e-11 5.632946481668e-12
307 2 1.403111085457e-02 1.727034043885e-03 9.539155619778e-03 -5.777966756519e-09 -1.007496696294e-08 1.872036898715e-10 4.478472487743e-07 1.330696255597e-06 2.507467066141e-06 1.000000000000e-03 1.047197551197e-05 7.100749053494e-12 1.746294859358e-11 7.940018134718e-12
308 2 1.630514427551e-03 1.230647700339e-03 1.324591788357e-02 -2.995112221524e-09 -4.071197271952e-09 -4.028296303310e-09 6.471600347727e-07 1.535682888187e-06 -8.011913590997e-07 1.000000000000e-03 1.047197551197e-05 6.326847457253e-12 2.527282955680e-12 6.340459482952e-12
309 2 5.235668653837e-04 2.772453164018e-03 1.282028959140e-02 -3.364589365995e-09 -5.000765472680e-09 -1.787767897230e-09 1.107045930857e-06 -1.053894375277e-06 1.421721981369e-06 1.000000000000e-03 1.047197551197e-05 5.187272831004e-12 1.308782809226e-11 1.244006755225e-11
310 2 1.363028350881e-02 2.781263879721e-03 1.451133683340e-02 -1.045332106447e-09 -3.436389033148e-09 9.997535888182e-10 -3.728394507331e-06 -3.568121324453e-07 -5.069454793274e-07 1.000000000000e-03 1.047197551197e-05 -2.276549554591e-11 4.139779033326e-11 -7.502721859007e-12
311 2 7.772664307023e-03 5.706614298759e-03 1.341555546676e-02 -1.052044011718e-08 -1.318219172944e-09 -3.921458980781e-09 8.963065208937e-07 -7.297491788313e-08 -1.634450913535e-06 1.000000000000e-03 1.047197551197e-05 1.083562274505e-11 -1.050633084558e-12 3.550427063449e-12
312 2 1.182243253519e-02 9.131438001445e-04 1.270246758879e-02 -4.956396721489e-09 -4.309118280168e-09 -2.970123029240e-09 -3.073378793942e-06 -8.400679662046e-07 -6.500325926024e-06 1.000000000000e-03 1.047197551197e-05 3.717609763852e-12 6.927638068256e-12 9.139403671395e-12
313 2 1.192500509387e-02 6.354866875536e-03 6.986257869016e-03 -2.389726531414e-08 -6.746610241384e-09 1.647227882259e-08 1.390318915439e-05 4.865027671901e-06 6.996905656387e-06 1.000000000000e-03 1.047197551197e-05 2.944137463416e-11 1.680577336634e-11 -1.423107836226e-11
314 2 9.422540345090e-03 3.857483539313e-03 7.736854273644e-03 -1.228564420429e-08 -7.345426120649e-09 2.670430565632e-09 -3.537904910865e-06 9.362939218873e-06 -3.539556963309e-06 1.000000000000e-03 1.047197551197e-05 1.804325872231e-11 1.379288949091e-11 4.763775350208e-13
315 2 8.834200772304e-03 1.422013605614e-03 7.443040122626e-03 -2.202129674913e-09 -1.349287062390e-09 6.005200778526e-09 -6.932139709024e-07 -1.016318022407e-05 4.435993403557e-06 1.000000000000e-03 1.047197551197e-05 1.497917525338e-11 -5.405398446578e-12 -1.847209948148e-11
316 2 1.093614200597e-02 5.767943634014e-04 1.440385997942e-02 -3.226160166313e-09 -8.034745913900e-10 -1.054008863275e-09 -6.403994889247e-08 2.848193199514e-06 2.947951353531e-06 1.000000000000e-03 1.047197551197e-05 2.639188297347e-12 8.653478926188e-13 6.206838853804e-13
317 2 1.489097614777e-02 5.844541487083e-03 1.192881458998e-02 -7.759552527394e-09 -7.236680575196e-09 6.813371130982e-09 7.245414565393e-06 -5.789226826137e-06 5.165148788326e-07 1.000000000000e-03 1.047197551197e-05 9.723911887183e-12 8.095470901667e-12 -8.591381370012e-12
318 2 1.154254679615e-02 5.973275609977e-03 1.443738175018e-02 -4.530225417093e-09 -2.085151200223e-09 -9.621077369012e-10 -1.536613084127e-06 2.591921269807e-06 2.673838478253e-06 1.000000000000e-03 1.047197551197e-05 2.462639183654e-12 4.933850095637e-12 5.640279630917e-12
319 2 1.379051558855e-02 3.220041406611e-03 6.351610303723e-03 -2.500124458996e-08 -7.659277353681e-09 3.640398462790e-09 6.498474079101e-06 1.147531149697e-05 1.782336789572e-05 1.000000000000e-03 1.047197551197e-05 3.721859375701e-11 -4.324787344736e-12 -5.706548067342e-12
320 2 1.302276765531e-02 2.380300031197e-03 7.949656190281e-03 -7.866885678046e-09 -1.101605783988e-08 4.249052463562e-09 -2.568898836719e-06 2.826407622067e-06 -3.308446954055e-06 1.000000000000e-03 1.047197551197e-05 5.436127419209e-12 4.043103742332e-12 -1.716920575752e-11
321 2 9.171199309357e-03 3.237613763322e-03 1.218033993831e-02 -5.769811353066e-09 -1.747685366064e-09 4.469058564772e-10 1.380274521202e-06 -2.417605010851e-06 -1.764606597072e-06 1.000000000000e-03 1.047197551197e-05 1.338417404116e-11 -4.784042270642e-13 1.066785516153e-11
322 2 5.487728284230e-05 8.214650568169e-04 1.200645144809e-02 -2.266464522620e-09 -7.009503092374e-09 -5.163734620402e-09 6.683796294193e-06 3.609855331788e-06 1.277178613124e-07 1.000000000000e-03 1.047197551197e-05 2.326890908289e-12 2.314961760396e-11 -5.028709747634e-12
323 2 8.219589939973e-04 4.705066478277e-03 9.323703182354e-03 -1.350492486276e-08 -9.296541316373e-09 6.392719210759e-09 2.629316119613e-06 -2.882922743249e-06 -3.393456235707e-06 1.000000000000e-03 1.047197551197e-05 2.565976561948e-11 2.984131542059e-11 -3.530817474362e-11
324 2 1.018072754156e-02 5.605329337960e-03 7.496689809981e-03 -1.187825112021e-08 -7.601938668206e-09 5.909988937107e-09 7.605530172459e-06 -7.517056634484e-06 6.286866393204e-07 1.000000000000e-03 1.047197551197e-05 2.002117035344e-11 4.767229364319e-12 -4.728936098988e-12
325 2 1.335403835009e-02 2.781352664719e-03 1.270242006640e-02 -4.545342764293e-09 -8.722701469349e-09 2.748135015387e-09 4.731578645439e-07 2.124749846617e-06 -1.960575857795e-06 1.000000000000e-03 1.047197551197e-05 -1.036294253360e-11 1.902791047641e-11 -2.915117023183e-12
326 2 1.485883268212e-02 2.442518674344e-03 1.118819400759e-02 -4.961491689992e-09 -7.433748086882e-09 -7.709859063910e-11 -3.623526302135e-06 1.696232371219e-06 -1.055092588407e-06 1.000000000000e-03 1.047197551197e-05 -4.104251286869e-11 4.625070233101e-12 -1.674941618318e-11
327 2 2.505133834976e-04 4.127950094447e-03 1.124117973419e-02 -5.138448565243e-09 -6.235378212793e-09 2.018205166395e-09 4.226469049242e-06 -3.138350040882e-06 2.523473628430e-06 1.000000000000e-03 1.047197551197e-05 2.627181572015e-11 -2.620197150284e-12 2.667348057833e-12
328 2 7.791799932708e-03 3.118533456663e-03 8.347148226634e-03 -8.258004046657e-09 -3.317817830282e-09 1.617940370078e-09 6.076822989660e-06 -6.298877016463e-06 -2.254892830373e-06 1.000000000000e-03 1.047197551197e-05 2.731548171319e-11 5.694401367172e-12 -2.675820113658e-12
329 2 1.346017024729e-02 4.837800977464e-04 8.288049838749e-03 -1.008723207492e-08 -1.214258347675e-08 -9.923503879777e-10 4.948431534515e-07 1.840788598212e-06 -3.507761374590e-06 1.000000000000e-03 1.047197551197e-05 2.156546191762e-11 3.940912614669e-11 2.595715656652e-11
330 2 8.199694982124e-03 5.025858502885e-03 7.008572891194e-03 -6.684609245715e-09 -4.384528416387e-09 -2.803750197246e-09 7.883088227085e-06 -2.383902619471e-05 4.521302570490e-06 1.000000000000e-03 1.047197551197e-05 7.479803134493e-12 -4.774064969996e-12 -2.264056162857e-12
331 2 8.217532020863e-03 1.450601526008e-03 9.219399446345e-03 -7.906722869688e-09 -3.568564808781e-09 -1.867120327480e-10 -9.688142465865e-07 2.271070838377e-07 6.889624478743e-06 1.000000000000e-03 1.047197551197e-05 1.308246393038e-11 -2.745935683492e-12 1.121869007511e-12
332 2 9.574375320152e-03 6.128396176695e-03 1.444536761481e-02 -4.627958909309e-09 1.231194437150e-09 4.327890214214e-10 2.586329381244e-06 3.289977349489e-06 -7.430822614997e-06 1.000000000000e-03 1.047197551197e-05 4.694237238853e-12 6.850595855993e-13 -3.696208572993e-12
333 2 1.438420374025e-02 5.960175324016e-03 6.278580656083e-03 -7.079121937932e-08 -8.171524627577e-09 5.674453228611e-08 8.231785413405e-06 6.595466164848e-05 1.868486483263e-05 1.000000000000e-03 1.047197551197e-05 9.252793794685e-11 1.422877801361e-11 -1.090168591141e-10
334 2 7.569380925773e-03 3.375464209783e-03 1.314888217874e-02 -6.735054224274e-09 3.518741978240e-11 -1.993844703499e-09 -5.586808318508e-07 3.690342257174e-07 4.156045254982e-07 1.000000000000e-03 1.047197551197e-05 5.954320759102e-12 2.640083372231e-11 2.677702153091e-11
335 2 1.114771777845e-02 3.043450769290e-03 8.031339558541e-03 -1.049801276578e-08 -9.161599692304e-09 2.554473268962e-09 -3.842234979163e-06 1.507516239089e-06 -3.475470530417e-07 1.000000000000e-03 1.047197551197e-05 1.546316168579e-11 -3.649844439874e-12 -1.365945809194e-11
336 2 1.536748799170e-02 2.902838321790e-03 8.138716219239e-03 -1.209755294619e-08 -1.837515484791e-08 -2.266191290834e-09 1.825343798219e-06 -2.149204612448e-06 1.401749695898e-05 1.000000000000e-03 1.047197551197e-05 1.608944947885e-11 2.376599164361e-11 -3.198537079708e-12
337 2 1.342475151614e-02 4.456780780338e-03 1.151702646455e-02 -9.614485221322e-09 -9.673905940147e-09 6.676903561481e-09 4.572713572348e-06 -2.179097994138e-06 2.730689063945e-07 1.000000000000e-03 1.047197551197e-05 1.652623823235e-11 7.335013449592e-12 -1.079830193039e-11
338 2 1.300995830633e-02 6.224869051632e-03 1.036821294058e-02 -8.172143313210e-09 -6.500485139233e-09 1.042423058584e-08 2.137924433120e-06 -6.263388861198e-06 -1.405623614318e-06 1.000000000000e-03 1.047197551197e-05 8.493618702777e-13 9.129698874922e-12 -8.989311033646e-12
339 2 8.063143632150e-04 2.868097441331e-03 9.862832153203e-03 -9.336126805692e-09 -8.379712478617e-09 -1.402982662028e-09 9.512648964459e-08 1.799600397848e-06 7.988943751773e-06 1.000000000000e-03 1.047197551197e-05 3.546768129183e-12 3.041112537114e-12 -6.988678805928e-12
340 2 1.054445343726e-02 2.379562952485e-03 1.309661142311e-02 -4.623371073058e-09 -3.923030730994e-09 -4.784284853559e-10 4.331976918976e-06 1.761449265369e-07 2.593711464459e-06 1.000000000000e-03 1.047197551197e-05 -5.140302554975e-13 8.532003823568e-12 2.742027917205e-11
341 2 1.259116114108e-02 4.317977792318e-03 1.418663808788e-02 -1.758661858629e-09 -2.354841504324e-09 -4.587104410077e-10 2.514781290351e-06 -3.060067766800e-07 4.995055125059e-07 1.000000000000e-03 1.047197551197e-05 4.190483647476e-11 -2.234040629782e-11 4.177387875779e-12
342 2 1.146957370041e-02 4.972321119096e-03 1.277131045310e-02 -5.470824260504e-09 -4.190083397199e-09 -2.471368883502e-10 -1.161787899939e-07 8.327719613392e-07 7.350408167977e-06 1.000000000000e-03 1.047197551197e-05 1.390193450374e-11 1.432963280151e-11 -2.256782702581e-12
343 2 1.333434604016e-02 5.565300362574e-03 8.553157272628e-03 -8.735689087414e-09 -1.217620880685e-08 1.550988242381e-08 4.018092278870e-07 -1.502120489598e-05 -1.019237879712e-06 1.000000000000e-03 1.047197551197e-05 1.466508711571e-11 -4.781423825968e-12 -3.605635460288e-11
344 2 1.510106968781e-02 3.987606328870e-03 1.456623815642e-02 8.467270004940e-11 -3.934364325813e-09 7.300391863088e-11 -3.375952152733e-06 -1.054924155410e-06 -3.294868143904e-07 1.000000000000e-03 1.047197551197e-05 -2.919942422156e-12 2.570612088735e-12 -3.537449289591e-12
345 2 1.306438278432e-02 2.676683258588e-03 1.080794623764e-02 -7.176592728788e-09 -1.004532146039e-08 1.544008237446e-09 -2.263118626769e-06 2.005895206402e-07 1.524229482840e-06 1.000000000000e-03 1.047197551197e-05 5.846000311052e-11 -1.808037519557e-12 -3.766696158073e-12
346 2 7.544951187677e-03 4.575865505015e-03 1.173435413705e-02 -9.278486220508e-09 -8.008154859858e-10 -5.289734390554e-09 -1.857265549771e-06 2.890977740254e-06 -3.505437928943e-06 1.000000000000e-03 1.047197551197e-05 3.377830819958e-11 -1.648340496259e-11 4.053972246665e-11
347 2 6.718738931535e-03 4.803988557852e-03 8.276765396483e-03 -1.552366635542e-08 -1.714920895209e-08 -1.903410083747e-08 2.840823895803e-06 -1.039234860801e-06 7.255746926627e-06 1.000000000000e-03 1.047197551197e-05 2.094096796655e-11 3.011860390620e-11 1.867106270833e-11
348 2 1.463328625667e-02 4.216239958211e-03 1.286490679415e-02 -5.212659658415e-09 -9.760913813032e-09 1.462590905423e-09 -1.132665026513e-06 5.497140128020e-06 2.654297375467e-06 1.000000000000e-03 1.047197551197e-05 1.100298278753e-11 5.483972299046e-12 1.034297637773e-12
349 2 1.469548413858e-03 1.957533544307e-03 1.136032859569e-02 -2.391322031265e-09 -3.800435599436e-09 -3.714363202163e-09 4.179085474021e-07 4.503819373699e-07 -1.101245030824e-08 1.000000000000e-03 1.047197551197e-05 5.239972017575e-12 -8.210090167196e-13 1.247527075591e-11
350 2 8.841364076468e-03 3.654987712614e-03 1.447543408578e-02 -2.753477245125e-09 -1.613728785593e-09 -1.339610466474e-09 -1.405141188941e-06 1.721708486922e-06 -4.540981512427e-06 1.000000000000e-03 1.047197551197e-05 -2.407367341586e-12 4.648362571612e-13 -2.062783607652e-12
351 2 9.378402505539e-03 1.734936992174e-03 1.445218360763e-02 -3.398267495899e-09 -3.037159167493e-09 -5.640683328179e-10 -3.852403982169e-06 1.432085916053e-06 -2.305755703674e-06 1.000000000000e-03 1.047197551197e-05 1.654574361820e-11 1.315786193313e-11 -6.610520129451e-12
352 2 1.296854394161e-02 9.621832028392e-04 1.433836436653e-02 -1.515437986835e-09 -2.711144476772e-09 1.791109718513e-11 3.508783593541e-06 -5.451259702063e-07 4.651841871768e-07 1.000000000000e-03 1.047197551197e-05 -3.003557820719e-12 -4.555597357137e-13 4.094207301781e-12
353 2 1.447771362646e-02 5.082483510020e-03 1.002493030354e-02 -1.173413283983e-08 -8.037526157973e-09 9.748056738333e-09 -1.250708654738e-06 8.607205820663e-06 1.006724427560e-06 1.000000000000e-03 1.047197551197e-05 2.036659007625e-11 9.352091501791e-12 -1.255300422409e-11
354 2 6.824914400246e-03 4.415872031757e-03 1.451501900852e-02 -5.430020507951e-09 -1.461290227515e-09 -4.900186153445e-10 -1.396712807633e-06 5.548223335665e-06 4.636522715595e-06 1.000000000000e-03 1.047197551197e-05 1.588332616230e-11 -1.824498382293e-11 -3.379220505967e-11
355 2 1.489716526530e-03 4.700946298554e-03 1.447555270642e-02 -1.644312251132e-09 -2.271657532913e-09 2.486391676186e-10 -1.320700794200e-06 5.136559019466e-07 2.789326317733e-06 1.000000000000e-03 1.047197551197e-05 2.754104908122e-13 3.848260995514e-12 -7.387401063040e-12
356 2 9.502284714961e-03 4.962033353402e-03 1.293579020235e-02 -8.942521576915e-09 3.192722247202e-10 -7.140461294973e-10 -3.794528196205e-06 -1.916896913250e-06 4.017239267238e-06 1.000000000000e-03 1.047197551197e-05 1.466008850691e-11 1.183791579420e-11 -8.790527517683e-12
357 2 1.067320321655e-02 4.201345561791e-03 1.439200281212e-02 -1.967860868751e-09 -5.240468856248e-09 -1.034302046794e-09 1.981385164857e-07 -1.467886971307e-06 1.162337443895e-06 1.000000000000e-03 1.047197551197e-05 5.763098592675e-12 1.196474217356e-11 5.411338792499e-12
358 2 7.295562609811e-03 7.322746273712e-03 1.440632003570e-02 -6.080315197050e-09 -1.795068215888e-09 -2.151409576206e-09 -2.126383374230e-06 6.056712782577e-06 2.883604555339e-07 1.000000000000e-03 1.047197551197e-05 8.593938165009e-12 2.284615292986e-12 9.035266530304e-13
359 2 7.122897101749e-03 1.809343213466e-03 6.637608914171e-03 1.972953034179e-09 1.021571783668e-08 -1.177642735552e-08 5.422677306673e-06 -9.130117066928e-06 -1.733284960232e-05 1.000000000000e-03 1.047197551197e-05 -2.420499178318e-13 -5.156704238521e-12 9.420886441557e-12
360 2 1.148964267116e-02 2.785826715211e-03 9.916737301172e-03 -6.579294594166e-09 -1.073629202167e-08 -9.228766098868e-10 7.134041722454e-06 -2.188819655115e-06 3.333135219853e-06 1.000000000000e-03 1.047197551197e-05 9.792829549896e-12 1.196799206668e-11 -1.175144028624e-12
361 2 1.397973964829e-02 5.619076813189e-03 1.415856916847e-02 -3.634290875087e-09 9.247975731417e-11 1.490813704501e-09 -7.757730039417e-08 8.071458333634e-07 2.479791483846e-06 1.000000000000e-03 1.047197551197e-05 -8.781011633764e-12 -1.181474158107e-11 -7.760415423937e-12
362 2 1.162537090175e-02 4.861065136779e-03 8.536491173505e-03 -9.513438997356e-09 -9.106707351274e-09 4.435100301825e-09 1.954392586300e-06 4.242046627253e-06 -1.574362462451e-07 1.000000000000e-03 1.047197551197e-05 1.460472670411e-11 2.197017429467e-11 -6.431331107993e-12
363 2 1.249253691186e-03 5.242745559309e-03 1.251712114958e-02 -5.618025424506e-09 -5.079380473601e-09 5.333285980052e-09 -3.113950361968e-06 4.691631143671e-06 2.503354428282e-06 1.000000000000e-03 1.047197551197e-05 -1.760780491556e-11 2.350957352798e-11 -1.377721010598e-11
364 2 1.309620796920e-02 6.096551112183e-03 1.248638413340e-02 -8.761522832400e-09 -6.166405452714e-09 3.180094030342e-09 -7.317237056508e-06 3.213664086309e-06 -2.035827270246e-06 1.000000000000e-03 1.047197551197e-05 6.918099080439e-12 1.673248261490e-11 -1.016003358282e-11
365 2 1.173678485972e-02 2.489178380502e-03 1.448613511367e-02 -1.966894726999e-09 -3.049949836480e-09 1.000025182792e-10 -3.007369637064e-06 8.665244106539e-07 -3.690834422119e-08 1.000000000000e-03 1.047197551197e-05 4.202073685561e-12 7.056095218664e-12 9.872397795715e-12
366 2 1.168036821390e-02 3.314257013075e-03 1.193827210930e-02 -4.678643810320e-09 -4.407089215710e-09 8.170737623939e-10 -1.203361411227e-06 2.224623300812e-06 -5.438037402937e-06 1.000000000000e-03 1.047197551197e-05 2.790589753955e-11 -4.500804459655e-12 1.519568730948e-11
367 2 1.031368845025e-02 7.929738306964e-03 1.451524904222e-02 -3.277744446021e-09 -2.202776119954e-09 -1.999696057190e-09 -2.911525448959e-06 3.617425043632e-06 4.931061187046e-06 1.000000000000e-03 1.047197551197e-05 3.091296154423e-13 6.259110310200e-12 -1.460159862755e-11
368 2 1.327290734162e-02 1.126868840497e-04 4.604158259307e-03 1.382620959349e-08 2.046651528995e-09 -6.652428338948e-09 -2.541928813040e-05 -2.203482635664e-07 -1.187909995012e-05 1.000000000000e-03 1.047197551197e-05 -1.904860339221e-11 -3.685303268350e-12 7.065295903499e-12
369 2 1.069220730836e-02 7.990998851125e-03 4.849181295601e-03 -1.022986531142e-08 -3.111980651922e-09 -5.168525967077e-10 -2.045272536782e-05 -1.552762627997e-05 -3.206061318623e-05 1.000000000000e-03 1.047197551197e-05 1.631960008627e-11 1.232547344765e-11 8.090530578450e-12
370 2 1.036039541119e-02 1.037558744906e-02 3.836798062093e-03 4.687253325009e-09 -1.483770672034e-08 9.045058782361e-10 -6.660400355022e-06 -5.609008970391e-07 -3.668004523538e-06 1.000000000000e-03 1.047197551197e-05 -6.383945363122e-14 3.092993941340e-11 -3.297629995317e-11
371 2 5.813480933344e-04 6.456433905396e-03 9.347843563646e-04 2.196472911622e-06 -1.636259485261e-06 -3.302481482755e-07 1.775506629698e-03 2.256542729735e-03 1.070055535276e-03 1.000000000000e-03 1.047197551197e-05 -2.938218053396e-09 2.196703082694e-09 4.435459275879e-10
372 2 1.102534197334e-02 7.465425553777e-03 9.146336456818e-04 -1.899971537736e-08 -1.849283089170e-08 -1.051953481784e-08 3.183901961554e-06 -1.157508969157e-06 1.007043030289e-05 1.000000000000e-03 1.047197551197e-05 1.991519606291e-11 2.906811285515e-11 2.028000549415e-11
373 2 6.668042749788e-03 7.365949726260e-03 4.030582450162e-03 -1.321986700017e-08 3.320736439183e-09 2.307752767151e-08 1.090149670533e-06 3.715165332731e-05 -4.228347720711e-05 1.000000000000e-03 1.047197551197e-05 1.800237314072e-11 -9.189184813096e-13 -4.019389369152e-11
374 2 7.839804928157e-03 1.067949400717e-02 7.842586073377e-04 1.009725944368e-08 4.121294904705e-09 -2.312132878898e-10 -1.454922437983e-06 6.335346715943e-06 3.168096937512e-05 1.000000000000e-03 1.047197551197e-05 -1.304128414588e-11 1.061139237344e-11 -2.784609838888e-12
375 2 9.425792164334e-03 9.267204339038e-03 9.093715208252e-04 6.366691601676e-09 2.808508504615e-09 -3.638289999385e-09 -4.581781619325e-06 1.448342283950e-05 5.299921080428e-05 1.000000000000e-03 1.047197551197e-05 -8.716508934420e-12 -3.946344854940e-12 6.370247566986e-12
376 2 8.722729161204e-03 1.237804189120e-02 3.536347812207e-03 2.988485148270e-09 -4.331142055307e-09 -6.110721257094e-09 -5.554298756347e-06 4.527751909789e-07 -1.745978324360e-06 1.000000000000e-03 1.047197551197e-05 3.315280883366e-12 3.959819543229e-12 -5.474697796908e-12
377 2 1.136092051212e-02 9.618358905421e-03 8.395905590326e-04 -2.208059709430e-08 -1.655126753865e-09 -8.158556697259e-09 1.874743188412e-06 -1.502036260633e-05 -5.362101632083e-05 1.000000000000e-03 1.047197551197e-05 3.713392560939e-11 2.604924078755e-11 4.708006510770e-11
378 2 9.491733590980e-03 9.529569970568e-04 4.142937836412e-03 -1.581959738237e-08 -1.622486498635e-09 6.959705126574e-09 9.636187778172e-06 -3.061092014315e-05 -1.042188365641e-05 1.000000000000e-03 1.047197551197e-05 1.287498978839e-10 -5.242884293569e-11 -1.346913242679e-10
379 2 9.569203148651e-03 9.852131128850e-03 5.423530323838e-03 -2.603661214033e-09 -3.336112625908e-09 2.011446658139e-09 5.557849810310e-07 -5.189750491623e-06 -1.124198746493e-05 1.000000000000e-03 1.047197551197e-05 -1.263763145904e-11 9.791982668113e-12 1.538016430844e-11
380 2 1.483398106465e-02 1.281503514277e-02 8.462352220986e-04 -2.825147180345e-08 -7.402539738211e-08 -2.374885592613e-08 4.822008407411e-05 -2.691759858696e-05 1.769637585254e-04 1.000000000000e-03 1.047197551197e-05 2.618400410735e-11 1.021896313040e-10 2.354852828938e-11
381 2 1.392208949735e-02 8.633866160806e-03 4.936771170131e-03 -2.594459958029e-08 1.375248490660e-08 3.614787014232e-08 -4.213816532428e-05 4.221889147754e-06 -3.039497123844e-05 1.000000000000e-03 1.047197551197e-05 3.890948691773e-11 -3.995337575185e-11 -3.546083022721e-12
382 2 7.227828157594e-03 1.436586961188e-02 3.906813324105e-03 -3.148987912687e-09 2.334167367512e-08 -3.802443227348e-09 1.983594695338e-05 8.696691074840e-06 -3.927780800626e-06 1.000000000000e-03 1.047197551197e-05 6.555641251668e-13 -3.761086700460e-11 1.732645500333e-12
383 2 1.221993180044e-02 1.212778247311e-02 7.981173225430e-04 1.840365349776e-08 -1.697123454322e-09 2.548212543115e-09 1.226014183769e-05 1.542660030429e-05 -3.825158104045e-05 1.000000000000e-03 1.047197551197e-05 -1.455086745328e-11 1.510973277176e-11 -3.121528615013e-11
384 2 1.060856100576e-02 1.229126651685e-02 3.471577262368e-03 7.629144766098e-09 -1.297195557781e-08 -1.839246106260e-09 -4.178554989999e-06 -8.404109285715e-06 1.534017364032e-06 1.000000000000e-03 1.047197551197e-05 -2.061940147587e-11 5.948550303357e-13 9.663462645294e-12
385 2 7.856337326928e-03 1.324411977971e-02 5.818361999411e-03 -6.381769076426e-09 6.891742032939e-10 -3.183020914087e-09 1.081512359573e-05 3.895600399593e-08 8.375867418339e-06 1.000000000000e-03 1.047197551197e-05 1.471407731731e-11 5.794743013844e-12 1.688933768333e-11
386 2 1.196124229303e-02 1.051343480739e-02 7.160123150284e-03 -3.678653438125e-10 -3.782290032108e-09 -2.240178415065e-09 -1.614843824829e-05 2.330728852518e-06 -4.624221947304e-06 1.000000000000e-03 1.047197551197e-05 -3.304788195961e-11 -7.621326573187e-12 3.504944328014e-12
387 2 1.245543947440e-02 1.399784245444e-02 8.262654917013e-04 -1.412110949162e-08 2.940075027702e-08 -3.796364095597e-09 -1.801636349460e-05 -9.631043913657e-06 7.507136614202e-05 1.000000000000e-03 1.047197551197e-05 -8.687254485383e-13 -4.025614299863e-11 2.941266904865e-11
388 2 8.878295932129e-03 8.396851985797e-03 4.262456194391e-03 1.367897961737e-09 1.272574125578e-08 -8.609258256979e-09 1.540818102012e-05 1.566687804370e-06 9.693095340202e-06 1.000000000000e-03 1.047197551197e-05 -9.066827930356e-13 -1.806038745649e-11 1.127227836610e-11
389 2 1.463093116688e-02 1.263366682992e-02 2.700988631519e-03 -2.909469940933e-08 -4.504022906657e-08 -2.865978945192e-08 -5.024540415669e-05 1.191451803046e-05 -9.750960369736e-06 1.000000000000e-03 1.047197551197e-05 4.370791795528e-11 6.833662641475e-11 4.783405355087e-11
390 2 1.425746191918e-02 1.460478186013e-02 8.907458268839e-04 6.790979553476e-09 -6.086891117316e-08 6.812062576299e-09 2.780109841259e-05 -9.442755551826e-07 -2.293942884816e-04 1.000000000000e-03 1.047197551197e-05 -2.100282430205e-12 6.660734924549e-11 -1.607100304291e-11
391 2 1.247340956671e-02 7.664531755043e-03 5.567828488640e-03 -1.998895566801e-08 1.704344496901e-09 2.558177085287e-08 2.857742201320e-05 -9.982590075396e-06 3.398691857851e-05 1.000000000000e-03 1.047197551197e-05 2.073452545857e-11 -4.627392863975e-12 -2.696383767115e-11
392 2 8.267524642988e-04 1.578626829768e-03 9.039381950252e-04 1.511026776037e-07 -1.892778178735e-07 2.735728001232e-08 9.456089667105e-05 1.138142229294e-04 -4.442897964653e-04 1.000000000000e-03 1.047197551197e-05 -2.075075481179e-10 2.660320535956e-10 -3.581704765572e-11
393 2 1.366127977700e-02 8.949554295131e-03 6.866409346990e-03 -3.159905235502e-08 5.071125072221e-09 3.056940140259e-08 4.974478022703e-05 -8.385936728910e-06 3.268054536583e-05 1.000000000000e-03 1.047197551197e-05 3.756323213047e-11 -6.163125721431e-12 -4.652500617531e-11
394 2 1.388798815055e-02 1.315548055027e-02 5.499633227501e-03 -2.021325768684e-09 7.004916738255e-09 -2.570940662941e-08 -1.029236691267e-05 1.002012172169e-05 -8.580293383438e-06 1.000000000000e-03 1.047197551197e-05 -1.743522758156e-11 -2.058143748230e-11 3.675552922087e-12
395 2 5.339714154501e-04 1.015099024043e-02 6.294909981376e-03 -4.688479079328e-09 -4.632608461789e-11 -1.457036054102e-08 -2.888854452046e-05 1.380219592828e-05 -1.927108472097e-05 1.000000000000e-03 1.047197551197e-05 3.655919804874e-11 9.596920249073e-12 -3.262056969538e-12
396 2 9.063432319933e-03 1.433380978097e-02 3.303068602222e-03 -8.467623602374e-09 -2.067088895137e-09 -4.425806279565e-10 -8.507718999437e-06 -1.142237718788e-05 -1.650466589285e-05 1.000000000000e-03 1.047197551197e-05 1.350798131522e-11 4.809255364102e-13 3.772604603862e-13
397 2 6.995792051824e-03 1.252856521934e-02 4.339308612823e-03 5.069957736331e-10 4.694437816354e-09 -4.881679609044e-09 -8.767028282311e-06 1.605463264117e-06 2.027648954244e-06 1.000000000000e-03 1.047197551197e-05 -1.593361490699e-11 -3.093890853761e-12 1.940979430525e-12
398 2 7.085136039968e-04 1.507000393371e-02 1.187195411209e-03 -2.364833866291e-08 -1.479925132795e-07 -8.075731088315e-09 -4.405891540252e-05 6.166554775151e-06 1.927773082867e-04 1.000000000000e-03 1.047197551197e-05 5.083494255259e-11 1.804708388456e-10 2.537121934830e-11
399 2 9.553361615007e-03 1.481068619841e-02 5.154288878159e-03 -1.428597799837e-08 -7.888170901465e-09 -4.643602383198e-10 5.108251897197e-06 1.492012099693e-05 1.010660449580e-05 1.000000000000e-03 1.047197551197e-05 1.472458963372e-11 3.403975608766e-11 -1.116975173265e-11
400 2 8.210126495459e-03 1.083823392522e-02 4.571332488173e-03 6.245503465829e-09 4.729443658122e-09 2.085862809572e-09 -2.783185049096e-06 5.650868289749e-06 -1.112976225952e-06 1.000000000000e-03 1.047197551197e-05 -3.598495703745e-12 -3.025683988585e-11 -4.326695595325e-12
401 3 9.927204117395e-03 1.281278922723e-02 5.319781280439e-03 -3.445229126349e-09 -4.710889035920e-09 -6.416595577868e-09 -1.160570668024e-06 -1.195673803623e-06 -2.358040649947e-06 1.250000000000e-03 2.045307717181e-05 7.969173027611e-12 1.401160589352e-11 4.437727084765e-11
402 3 1.095174756808e-02 8.633797905828e-03 2.737166116724e-03 -1.199107184137e-08 -1.628932853623e-08 -9.281471464201e-09 6.052781687893e-06 2.589986851907e-05 1.720643723420e-06 1.250000000000e-03 2.045307717181e-05 4.529705123091e-11 4.419813698512e-11 2.634205815951e-11
403 3 1.142227546753e-02 5.409812104304e-04 1.036162954647e-03 7.166308731708e-09 7.743148075233e-09 1.549836200154e-08 1.634782031487e-05 6.365292252543e-06 -4.771242901160e-05 1.250000000000e-03 2.045307717181e-05 -2.879528576220e-11 -2.998700622359e-11 -4.079749121318e-11
404 3 2.067581991609e-04 8.008766906213e-03 6.087159259535e-03 -3.475270438848e-08 4.630662336669e-09 2.596285057793e-08 6.139791280198e-07 1.133706949924e-05 -6.281089849799e-06 1.250000000000e-03 2.045307717181e-05 7.813409880751e-11 -2.387900921606e-11 -7.269157047264e-11
405 3 8.674279370532e-03 7.187229865505e-03 1.179111750260e-03 1.580802544457e-08 -9.761851333062e-09 -1.245422894679e-09 6.925495328087e-06 4.352677507327e-06 -4.194870842937e-05 1.250000000000e-03 2.045307717181e-05 -5.074804314293e-11 3.304012713401e-11 -6.221599016081e-12
406 3 8.829154612343e-03 8.152547372726e-03 6.496210771200e-03 -1.437388012479e-08 -1.624790648784e-09 -1.582970124417e-09 -1.065641998813e-06 -7.792666998275e-06 4.646774297322e-06 1.250000000000e-03 2.045307717181e-05 5.168447277947e-11 2.323687280976e-11 3.117557512598e-12
407 3 2.456223985805e-04 9.396120094592e-03 3.941871785375e-03 -6.869704185349e-09 -4.610957734342e-08 -1.618634890335e-08 -3.678153208376e-06 1.709702015828e-05 -1.197013332155e-05 1.250000000000e-03 2.045307717181e-05 5.479175288333e-11 1.070778045646e-10 2.312142709424e-11
408 3 1.242609739065e-02 5.990598248676e-03 1.694358487528e-03 -3.692309010424e-08 9.909501653485e-09 4.376886498542e-08 -4.716275889121e-05 -4.710734201741e-05 3.759451709970e-06 1.250000000000e-03 2.045307717181e-05 1.008576697244e-10 -2.565015420938e-11 -1.150008146989e-10
409 3 1.520921559968e-02 4.146898935225e-05 3.538318187637e-03 1.003519874812e-09 -5.652030212677e-09 -1.661869144625e-08 3.459648491477e-06 1.302199841421e-05 1.251828944337e-05 1.250000000000e-03 2.045307717181e-05 4.606901343924e-11 4.101467194416e-11 5.320900327637e-11
410 3 9.970504104410e-03 1.123204950739e-02 6.961611468290e-03 -1.346846799251e-09 -8.275725172657e-10 -1.024244707665e-09 -4.983775486439e-06 2.159052180736e-06 1.545719498140e-06 1.250000000000e-03 2.045307717181e-05 2.706567652675e-11 1.767707125060e-11 4.989296620133e-12
411 3 8.682755964687e-03 1.033939731170e-02 2.605971965966e-03 3.040579957663e-09 -6.357174772536e-10 -1.674479240706e-10 1.848312259057e-06 -3.171753238669e-06 -1.533724179227e-05 1.250000000000e-03 2.045307717181e-05 -8.757607964484e-12 1.586107211141e-12 2.784442720547e-11
412 3 1.400526828943e-02 1.072023817003e-02 5.521201771493e-03 2.522329516065e-09 6.206863523437e-09 -1.137134167598e-08 -5.366411194355e-06 -9.687585910696e-07 -8.720798874814e-07 1.250000000000e-03 2.045307717181e-05 -1.393516656692e-11 -8.653689952096e-12 1.933322027561e-11
413 3 1.327774260188e-02 1.429241478471e-02 2.754597023240e-03 -9.634726392135e-09 5.449283159327e-09 -6.365173080252e-09 3.310986219225e-05 1.443700076031e-05 -2.357079239861e-05 1.250000000000e-03 2.045307717181e-05 -2.996863191447e-11 -3.515634938108e-11 -9.030281567218e-12
414 3 1.483438099042e-02 7.472667789381e-03 2.644172804335e-03 -1.122477759105e-07 -6.771341611080e-08 7.976489166630e-08 -8.992145049084e-05 4.006102429389e-05 -5.399456346941e-05 1.250000000000e-03 2.045307717181e-05 2.908285961033e-10 1.672585061460e-10 -2.228014115362e-10
415 3 4.283684825082e-04 1.327312117450e-02 4.397478333533e-03 4.040205706603e-09 -2.975635099145e-09 -3.318600246041e-08 -4.118652587898e-06 -4.837806558638e-06 -3.875945963445e-06 1.250000000000e-03 2.045307717181e-05 -2.758174226950e-11 1.659696436342e-11 6.041880744910e-11
416 3 1.295355505158e-02 1.215431551949e-02 3.909382261605e-03 -4.027962808007e-09 -1.689225861778e-08 -1.808289905747e-08 -3.639110442948e-06 -1.801304385412e-06 2.375336118349e-05 1.250000000000e-03 2.045307717181e-05 2.644471513129e-11 6.107268883765e-11 6.290662678042e-11
417 3 7.329962769640e-03 1.239302619382e-02 1.910110824374e-03 -2.309257101184e-09 -5.680729087140e-09 -2.469782812091e-09 -2.020274645268e-06 3.548758008163e-06 -5.287225346271e-06 1.250000000000e-03 2.045307717181e-05 -6.858554074857e-13 1.817162030163e-11 -9.124544736756e-12
418 3 1.180513043384e-02 9.789815044094e-03 5.198017566156e-03 3.098044472570e-09 -9.591279398914e-09 -1.478865281955e-09 9.767894250228e-06 1.950308250505e-06 1.242855319910e-05 1.250000000000e-03 2.045307717181e-05 -9.606334528759e-13 3.458414313567e-11 -3.691448688822e-11
419 3 1.309007108018e-02 8.270500970377e-03 1.172658538130e-03 -7.564414632166e-08 6.128435544600e-09 2.741176884913e-08 2.658829318832e-05 -5.354438583115e-05 5.086565077813e-05 1.250000000000e-03 2.045307717181e-05 2.147554173366e-10 -2.021205620437e-11 -6.498352652370e-11
420 3 7.691430654185e-03 2.872845967295e-05 5.748831650569e-03 -1.027148045523e-08 1.215234509716e-09 -1.765662085782e-09 -5.263837472226e-06 -1.718362110726e-05 -1.101388481993e-05 1.250000000000e-03 2.045307717181e-05 5.403186177250e-11 -6.939585816657e-12 8.024676664921e-12
421 3 1.167794784535e-02 1.096757702253e-02 2.355006292067e-03 8.779629888399e-09 -1.859618425976e-08 -9.296791898570e-09 1.070794192799e-05 8.325027814059e-06 -6.900740869171e-06 1.250000000000e-03 2.045307717181e-05 -5.725816868852e-11 1.709876692575e-11 2.255896047580e-11
422 3 1.492365900188e-03 9.139899584143e-04 5.186460622858e-03 -1.098373421744e-08 3.183896093313e-08 -5.134830015928e-08 -2.217541841940e-05 -6.628588549920e-06 1.118294692819e-05 1.250000000000e-03 2.045307717181e-05 2.569752004736e-11 -1.019236534219e-10 1.194205534399e-10
423 3 1.474802619639e-02 1.076689964432e-02 1.580443780990e-03 1.931457189034e-07 -1.309196882366e-07 4.399035641664e-08 -8.513592070621e-05 -1.801506899415e-04 1.258003160055e-04 1.250000000000e-03 2.045307717181e-05 -5.050514221906e-10 3.251056486152e-10 -1.153061603221e-10
424 3 1.072560798883e-02 1.381290394862e-02 1.979680816554e-03 -8.369194344553e-09 -8.224422516099e-09 -1.129065143766e-09 3.821399397842e-06 1.077317165835e-05 6.543882438570e-06 1.250000000000e-03 2.045307717181e-05 4.659976004996e-11 5.394338237921e-11 -3.231979783057e-11
425 3 8.479460934218e-03 1.439919966870e-02 1.173727393616e-03 -2.571642506476e-09 -7.582238851670e-09 -5.138597591936e-10 5.734594695154e-06 -3.428139996060e-06 5.578883549864e-06 1.250000000000e-03 2.045307717181e-05 1.088625307119e-11 1.406868450393e-11 -8.224253973254e-12
426 3 9.857263983580e-03 1.179560503256e-02 1.099419673260e-03 3.379762764959e-09 -6.523139498851e-09 1.767920809167e-09 2.461229097342e-06 2.602114660894e-06 6.841974563543e-06 1.250000000000e-03 2.045307717181e-05 1.090598304819e-11 1.346162241616e-12 1.536483881785e-11
427 3 1.335016586621e-02 9.781917714744e-03 3.335747722099e-03 6.624905053418e-09 -3.941209071806e-08 -5.662733052230e-09 -3.956222772838e-05 -5.386877392127e-06 -2.440473906003e-05 1.250000000000e-03 2.045307717181e-05 -1.899779213320e-11 1.180182782014e-10 -1.554792158446e-11
428 3 7.520366471132e-03 7.547745774019e-04 2.589060899873e-03 1.928208448022e-08 2.566247532946e-08 -5.090194470370e-08 -5.702595463714e-05 -7.533779954780e-07 -3.309768556163e-05 1.250000000000e-03 2.045307717181e-05 -5.481516273998e-11 -5.672158951411e-11 1.331113042371e-10
429 3 6.910071619655e-03 8.810786475035e-03 1.317086432528e-03 6.751002486727e-08 3.108013426184e-09 -8.221994764382e-09 2.738420959133e-06 -2.180848094814e-05 1.285656601287e-05 1.250000000000e-03 2.045307717181e-05 -1.836399476788e-10 -2.505748060533e-11 1.784182067312e-11
430 3 1.141239837810e-02 1.428563972482e-02 4.153367315228e-03 -6.127034984431e-09 -3.485037456745e-09 -3.768715868670e-09 -3.498139451676e-06 -8.046763531645e-06 6.757336523184e-06 1.250000000000e-03 2.045307717181e-05 6.085442576881e-12 -2.997150430823e-11 -2.945646449757e-11
431 3 4.146012890832e-04 1.096524190682e-02 1.422921228527e-02 -1.381142669077e-09 7.390056017915e-10 1.708113560706e-11 1.372718041036e-06 5.189603295269e-07 3.883954386144e-08 1.250000000000e-03 2.045307717181e-05 -3.605244430145e-12 1.098520513093e-11 2.710721164388e-11
432 3 2.697416210133e-05 1.326784174565e-02 1.044445542903e-02 -4.300211310162e-09 -2.187637658687e-09 -5.825157249694e-09 -6.559962913158e-07 -3.557710543635e-06 4.129513902310e-07 1.250000000000e-03 2.045307717181e-05 -2.846881516679e-13 1.236258558784e-11 6.130229695404e-12
433 3 7.536767102728e-03 1.415430998971e-02 1.421220554447e-02 -1.997655617211e-09 -1.119778380834e-09 -1.168402618328e-09 -3.034249258196e-07 8.828204412870e-07 1.247889234153e-06 1.250000000000e-03 2.045307717181e-05 2.659712071977e-12 5.765398114327e-12 -5.614345834682e-13
434 3 6.074244822913e-03 1.873907094874e-03 8.409779502423e-03 -6.032081713642e-09 1.871382802667e-09 -8.249507301680e-09 8.021486150042e-06 4.505173101405e-06 1.081907518120e-06 1.250000000000e-03 2.045307717181e-05 5.497922240034e-11 -9.856886047306e-12 2.343366808348e-12
435 3 7.848314539418e-03 1.180586511303e-02 1.429225122737e-02 -2.572802543708e-09 -2.091636515066e-09 -1.756861956465e-09 -7.201907061176e-07 1.587603056881e-06 -2.060038122467e-06 1.250000000000e-03 2.045307717181e-05 1.094610183194e-11 7.765775263712e-12 -4.739797753776e-12
436 3 1.001773347760e-02 1.442279457415e-02 7.207057085155e-03 -1.008647016367e-09 -4.699365033231e-09 -9.205992851706e-09 -5.517914169208e-06 2.108944789267e-06 -1.026327667579e-08 1.250000000000e-03 2.045307717181e-05 3.475305608544e-12 1.104098425891e-11 5.265611104566e-11
437 3 8.842764817418e-03 4.554322872126e-05 1.271715570091e-02 -3.470154410150e-09 -7.185279955040e-10 -1.960016881829e-09 -1.041790729671e-06 -3.971416191858e-07 5.734368070100e-07 1.250000000000e-03 2.045307717181e-05 -1.110508166107e-11 2.238887736317e-11 -1.438572512689e-11
438 3 1.372340358174e-02 1.134706516407e-02 7.845641090400e-03 3.289871129506e-09 -1.013842993358e-09 -1.033969205549e-08 6.764125510997e-06 2.513285006081e-06 3.403548045824e-06 1.250000000000e-03 2.045307717181e-05 2.302251820303e-11 1.675574956442e-11 4.390796294322e-11
439 3 1.403028989003e-02 1.476387383100e-02 1.274596040289e-02 -2.279533544158e-09 -6.842756221728e-09 -3.948790687713e-09 -2.514789007067e-06 1.931498052271e-07 -9.297125766193e-07 1.250000000000e-03 2.045307717181e-05 1.062373180309e-11 4.257998279781e-11 6.538464022612e-12
440 3 1.307567934303e-02 1.067253666984e-02 1.180918053663e-02 -9.539358215668e-09 1.879600295765e-09 -4.062440739179e-09 2.315926980803e-06 7.032708012065e-07 1.258595427170e-06 1.250000000000e-03 2.045307717181e-05 2.460213864468e-11 2.343778870418e-12 1.215681516044e-11
441 3 1.464385626671e-02 9.057443465351e-03 1.263528128557e-02 -5.813669318417e-09 4.734685655240e-09 -1.918550078619e-09 -5.771753236467e-06 4.075777535204e-06 2.223774435090e-07 1.250000000000e-03 2.045307717181e-05 -3.925674881778e-13 2.656540369544e-12 1.861536067769e-11
442 3 6.760243994429e-03 8.225458191435e-03 9.738403725859e-03 -1.241115370576e-08 -5.336694442060e-09 -9.641387910980e-09 1.126528563075e-06 -5.814188542762e-07 -3.428965261611e-06 1.250000000000e-03 2.045307717181e-05 3.772377634852e-11 1.317191101337e-11 2.321547818406e-11
443 3 7.537783201016e-03 6.762313152063e-03 7.987473755902e-03 -1.820419321384e-08 -7.037034923965e-09 -9.565785306773e-09 7.191389383387e-07 -9.360476078580e-07 -2.095217512119e-06 1.250000000000e-03 2.045307717181e-05 3.833359960146e-11 1.404403481228e-11 2.346931356142e-11
444 3 1.086586833114e-02 1.125900919435e-02 1.073444723114e-02 -4.168787498863e-09 -6.601923398507e-09 -9.934791262676e-09 6.004610969437e-06 5.113477785086e-06 -2.745261434080e-07 1.250000000000e-03 2.045307717181e-05 2.131793030513e-11 2.674768672199e-11 2.094421087484e-11
445 3 1.300098372063e-02 1.464503286999e-02 6.628366316493e-03 -5.260809537109e-10 3.216655026719e-09 -1.711097351467e-08 1.729098017551e-05 -1.171087118714e-05 3.443845483898e-06 1.250000000000e-03 2.045307717181e-05 -7.257123986444e-12 -4.541120362235e-11 1.606043258768e-11
446 3 1.280838830465e-02 1.276291556269e-02 1.033666208754e-02 -4.725160522970e-09 -2.364730461335e-09 -1.124488330442e-08 2.170697594666e-07 7.003466327319e-07 1.754584239771e-06 1.250000000000e-03 2.045307717181e-05 1.021621741607e-11 6.434831316663e-12 2.833081049951e-11
447 3 1.415907455031e-04 2.706904601592e-04 7.830985215482e-03 -8.367372996063e-09 -4.720370319683e-09 -9.935988273245e-09 9.723709094924e-06 2.743891568032e-06 7.057881113715e-06 1.250000000000e-03 2.045307717181e-05 3.984280045630e-11 4.152228115357e-11 3.530551925226e-11
448 3 1.327659035299e-02 8.286080421977e-03 1.089461034423e-02 -8.129116303827e-09 -2.636222798346e-09 6.675548572937e-09 -5.007438414544e-06 -3.840600656299e-06 -1.081926755885e-06 1.250000000000e-03 2.045307717181e-05 -4.848459221545e-13 -3.625384785713e-12 -1.768188164963e-11
449 3 8.195717372496e-03 1.260457347019e-02 7.803290129215e-03 -2.435988739124e-09 -3.180434325471e-09 -3.428634842637e-09 -2.084979975369e-06 -3.424044161212e-08 5.971736230507e-07 1.250000000000e-03 2.045307717181e-05 -3.698646130555e-12 2.054883344599e-11 5.014244780267e-12
450 3 1.126539287283e-02 6.699160611825e-03 1.159734782771e-02 -9.986996945106e-09 -5.396391936892e-09 -6.640620403523e-10 -6.318428025804e-07 -3.055496973988e-06 -1.066150305730e-06 1.250000000000e-03 2.045307717181e-05 2.604648147521e-11 2.336860202142e-11 -2.254420717021e-12
451 3 8.029752316827e-03 1.025987479565e-02 9.679243302945e-03 -7.311353878626e-09 -4.665842600964e-09 -4.715658983599e-09 9.254223776407e-07 -1.499608779509e-06 -6.335765369304e-07 1.250000000000e-03 2.045307717181e-05 9.788528625767e-12 1.139802500653e-11 1.930289428794e-11
452 3 9.136738845749e-03 1.295327600678e-02 1.230699878230e-02 -5.319514644828e-09 -2.476437017939e-09 -6.673601690379e-10 -2.262420780309e-06 1.243833822331e-06 -3.572200872137e-07 1.250000000000e-03 2.045307717181e-05 1.997516616550e-11 4.741754005531e-12 5.972073030434e-12
453 3 8.641658955517e-03 9.394661524053e-03 1.423861348985e-02 -4.510126400567e-09 -3.349215170917e-09 -1.232399793922e-09 -2.846155118434e-06 3.132488575513e-06 -2.058138143400e-06 1.250000000000e-03 2.045307717181e-05 1.813911210876e-11 1.560852297591e-11 4.359873651332e-12
454 3 6.641741087300e-04 1.151219613318e-02 1.196481482613e-02 -4.965117361059e-09 9.777226728905e-10 -5.584912648393e-10 -2.110845913468e-06 2.460640985580e-06 -7.435067882304e-07 1.250000000000e-03 2.045307717181e-05 -1.937741028845e-11 -1.634962100214e-11 -2.352378119239e-11
455 3 7.193654409350e-03 8.470315624298e-03 1.253006560104e-02 -6.774231838570e-09 -3.148713339666e-09 -3.827078615422e-09 1.833599518637e-06 -3.860780144200e-06 -1.972201743246e-07 1.250000000000e-03 2.045307717181e-05 1.463504840990e-11 1.067732606036e-11 8.562725428975e-12
456 3 6.188935155367e-03 1.000517923400e-02 1.420381594735e-02 -2.472752289772e-09 -1.629417166066e-09 -2.170261645971e-09 -1.657750319029e-07 7.264326003498e-07 1.101827123926e-06 1.250000000000e-03 2.045307717181e-05 4.271368654885e-12 6.327674431543e-12 4.677314773792e-12
457 3 4.978352948608e-04 6.634333297916e-03 1.422355848098e-02 -1.356882529045e-09 -1.692571161567e-09 -5.887596044042e-10 -1.091774989953e-06 9.108754033351e-07 -3.801967375728e-06 1.250000000000e-03 2.045307717181e-05 -1.215496859807e-12 -1.921339838167e-12 -4.466223114891e-12
458 3 1.324214147143e-02 9.949159755848e-03 1.427621770261e-02 -3.671310019892e-09 2.055039539406e-09 -1.370391170888e-09 1.959240675354e-06 1.322465038773e-06 3.482696690133e-06 1.250000000000e-03 2.045307717181e-05 1.502570799430e-12 -1.615498897970e-11 -1.903149641330e-13
459 3 1.489102020706e-02 9.210223449532e-03 8.700523890996e-03 -2.026572432749e-08 -8.159066400143e-09 1.765524373462e-08 -1.051432527377e-05 2.296343608600e-05 -3.089563905859e-07 1.250000000000e-03 2.045307717181e-05 6.738181616944e-11 6.577903332402e-11 -1.454126910410e-11
460 3 1.227693519515e-02 1.205404427126e-02 1.352450201548e-02 -5.675963669347e-09 -7.254411570335e-10 8.948199816622e-10 5.792223234560e-07 1.399638862785e-06 -1.909353734944e-06 1.250000000000e-03 2.045307717181e-05 -5.188770876283e-11 -3.498148968673e-11 -9.583266438952e-12
461 3 5.370684979304e-03 7.205356878952e-03 1.159560613284e-02 -7.938654068908e-09 -3.147247553663e-09 -7.946795668406e-09 -1.819400662870e-06 2.762495322211e-06 -1.762297663517e-06 1.250000000000e-03 2.045307717181e-05 1.522592649637e-11 1.182561382654e-11 1.779232946547e-11
462 3 1.017500273142e-02 1.360390128196e-03 1.130749503194e-02 -4.712240585668e-09 -1.940130193418e-09 -3.815851928352e-09 -8.876567163375e-07 1.670452301490e-06 1.306783018387e-06 1.250000000000e-03 2.045307717181e-05 -2.277903710094e-11 2.022859731340e-11 1.705335480594e-11
463 3 6.799998872071e-03 5.859441487150e-03 1.019257932627e-02 -1.491972716842e-08 -6.607014790797e-09 -1.276985241484e-08 1.942920330276e-06 1.420895983232e-06 5.235246739316e-07 1.250000000000e-03 2.045307717181e-05 2.052090874342e-11 4.448244698847e-11 -1.585811286513e-12
464 3 7.718209689939e-03 1.028937329399e-02 7.206785055094e-03 -1.265336777342e-09 -3.469830858742e-09 -2.437186280687e-10 -7.988054737826e-07 -3.528950236404e-06 4.099384217734e-07 1.250000000000e-03 2.045307717181e-05 -5.691696021592e-12 2.037177095646e-11 -2.686966865684e-12
465 3 7.153418412518e-03 1.357889577856e-02 1.100857475848e-02 -6.046153704260e-09 -3.945357474613e-09 -1.897167009010e-09 1.462621988954e-06 -6.861944046654e-07 4.722365460197e-07 1.250000000000e-03 2.045307717181e-05 1.332365207951e-11 -1.482626659460e-12 5.024536809044e-12
466 3 1.130175318490e-02 1.411581678799e-02 1.180606899829e-02 -4.626227360626e-69 1.086037285835e-68 2.402519903920e-68 1.399861034412e+03 1.236973601158e+03 -9.156501520427e+02 1.250000000000e-03 2.045307717181e-05 4.628490340569e-70 -1.086568535253e-69 -2.403695128122e-69
467 3 1.235070812121e-02 1.423287167311e-02 1.426334327838e-02 -1.627573393444e-09 -1.367152180248e-09 -1.060472611835e-09 -1.790706179104e-06 7.703564982429e-07 -9.158008204345e-07 1.250000000000e-03 2.045307717181e-05 -1.380345078974e-12 5.031016234011e-12 -1.154294918602e-13
468 3 1.008676503626e-03 9.515860396888e-03 1.073957847375e-02 -8.187646280506e-09 -1.288007521726e-09 1.302433455330e-09 7.855766841730e-08 5.875482974481e-06 1.089799544511e-06 1.250000000000e-03 2.045307717181e-05 2.320825231068e-11 -6.822543239347e-12 -8.546985823719e-12
469 3 9.524759363585e-03 7.895087246274e-03 1.260014269929e-02 -9.043588265512e-09 -4.662117845495e-09 -1.985913472777e-09 2.547612092236e-06 8.053937801993e-07 -1.445116370023e-06 1.250000000000e-03 2.045307717181e-05 3.121509880567e-11 2.074138416523e-11 1.796706774614e-11
470 3 1.160843779473e-02 9.043766852523e-03 1.274275629392e-02 -6.225773222873e-09 -2.569776205861e-09 -2.569454675481e-09 7.779232429247e-08 2.411722375107e-06 2.141023138705e-06 1.250000000000e-03 2.045307717181e-05 1.246368356750e-11 1.618317639203e-12 1.710069113459e-11
471 3 7.685992980932e-03 1.819767530513e-03 1.165579929168e-02 -6.376124446113e-09 -5.940525319940e-10 -2.749321149195e-09 7.301179725672e-07 6.221847461851e-07 1.024619908073e-06 1.250000000000e-03 2.045307717181e-05 2.295886458564e-11 -2.477997524904e-11 3.005081510983e-11
472 3 1.422699239736e-02 1.365834964029e-02 8.400868094683e-03 -3.448315938485e-09 -6.619542063888e-09 -1.091002462578e-08 -5.630439797193e-06 1.099881604220e-06 2.013330982843e-07 1.250000000000e-03 2.045307717181e-05 -1.038667664043e-11 8.328405897066e-12 4.132045109795e-11
473 3 7.848095782582e-03 1.496378802658e-02 8.176495809258e-03 -1.127882552555e-09 -3.724793649030e-09 -7.310825410411e-10 2.853903781654e-06 4.110920368335e-06 1.032451133400e-06 1.250000000000e-03 2.045307717181e-05 -1.835397845870e-12 2.065909523708e-11 2.051091947425e-11
474 3 1.252708826216e-02 7.575931391263e-03 8.732335376133e-03 -1.559291580757e-08 -1.021629408975e-08 1.371674548070e-08 -2.140698672314e-06 1.060787523927e-05 4.693906429665e-06 1.250000000000e-03 2.045307717181e-05 2.633076206784e-11 3.742614215490e-11 -4.428368618555e-11
475 3 9.992753046381e-03 1.395868187274e-02 1.425466861835e-02 -1.946095604988e-09 -2.178302590471e-10 -9.107622459124e-10 2.680829864639e-07 4.678084704925e-07 -4.512761377824e-07 1.250000000000e-03 2.045307717181e-05 -1.653809846437e-12 3.649098354007e-12 3.401354894527e-12
476 3 1.442138788286e-02 1.292716134238e-02 1.421021834230e-02 -2.290907434481e-09 -1.957653084975e-09 -1.615717302338e-10 -2.010001704649e-06 9.159747901032e-07 7.337090540076e-07 1.250000000000e-03 2.045307717181e-05 2.042501556194e-12 -1.821279773018e-12 6.891956767564e-12
477 3 1.255181346040e-02 1.020783528549e-02 9.507587029359e-03 -1.518119027193e-09 -6.435267124266e-09 -8.363534462175e-09 -8.143031322750e-06 -6.247660674926e-06 1.841057436351e-06 1.250000000000e-03 2.045307717181e-05 3.662351988346e-11 2.972902438839e-11 1.977076332258e-11
478 3 3.525362561581e-05 7.331082316654e-03 1.047119626729e-02 -9.001887774750e-09 -2.964808569850e-09 1.185739036732e-08 -1.384949802288e-06 5.668282782635e-06 2.167324277240e-08 1.250000000000e-03 2.045307717181e-05 4.560513334924e-11 -1.146153401448e-11 -2.311468363797e-11
479 3 9.241170860414e-03 7.626465269581e-03 9.365128810159e-03 -1.014403262932e-08 -6.045936019304e-09 -8.105185984368e-09 -7.761901405677e-07 1.613345737207e-06 -1.664911788138e-06 1.250000000000e-03 2.045307717181e-05 1.388194533747e-11 -3.284235012695e-11 4.303591248743e-11
480 3 9.060517124624e-03 1.002897072132e-02 1.178121862975e-02 -4.985246142257e-09 -3.544446253270e-09 -3.827008421806e-09 -4.458100836289e-06 1.975963756192e-06 -3.493151200753e-06 1.250000000000e-03 2.045307717181e-05 8.987045685112e-12 3.963587245041e-12 8.687161802345e-12
481 3 1.384851168518e-02 1.502257604357e-02 1.037185812065e-02 -3.426746793075e-09 -3.145928260625e-09 -7.537476395980e-09 3.574963696237e-06 -1.334625202673e-07 -1.306241936113e-06 1.250000000000e-03 2.045307717181e-05 1.637326066144e-11 2.119544647815e-11 2.645369205516e-11
482 3 8.982335628933e-03 1.245934987255e-02 1.000913527946e-02 -5.266765281989e-09 -3.583084182718e-09 -9.706740702541e-10 1.496377886022e-06 -1.654078455405e-06 -3.047718392234e-07 1.250000000000e-03 2.045307717181e-05 9.637110280212e-12 5.697598983188e-12 1.575260456545e-11
483 3 9.354020547814e-03 1.483817831098e-02 1.007231718573e-02 -3.393115567651e-09 -4.677464991134e-09 -6.068728581554e-10 -3.035007226043e-06 -5.573824489131e-06 -2.210422208333e-06 1.250000000000e-03 2.045307717181e-05 7.551215823091e-12 8.983533942271e-12 7.582617678541e-13
484 3 4.870476605221e-04 1.504566785571e-02 1.422997649092e-02 -1.949415300523e-09 -2.904877793096e-09 -1.874242368306e-09 -1.895045994595e-06 4.574386517221e-07 7.777288050457e-07 1.250000000000e-03 2.045307717181e-05 5.155365866350e-12 9.394533072526e-12 -7.149174306809e-12
485 3 1.011865191114e-02 1.114729296205e-02 1.361502886590e-02 -4.620023343741e-09 -2.347849843734e-09 -2.308303253789e-09 3.596488526137e-06 -2.060021013643e-06 2.382715826781e-06 1.250000000000e-03 2.045307717181e-05 7.318755466477e-11 2.777398570509e-11 -1.058645102106e-12
486 3 1.464144609711e-02 1.109819636583e-02 1.008044832497e-02 -4.356281247007e-09 -1.682021875300e-09 -1.667586794525e-09 -5.749833525636e-06 -6.108433415154e-06 -2.967212518654e-06 1.250000000000e-03 2.045307717181e-05 -2.095791842749e-14 -2.138806591427e-11 -1.785849163860e-11
487 3 1.359639171175e-03 1.424849673439e-02 6.422438323502e-03 1.958110137501e-09 1.171815672587e-08 -2.935297042358e-08 4.001697357197e-06 9.491232416589e-07 3.810870938102e-06 1.250000000000e-03 2.045307717181e-05 1.035365400038e-12 -1.545000706450e-11 8.250829856734e-11
488 3 1.485512518596e-02 6.921403327765e-03 8.137569807292e-03 -1.811947720842e-08 -5.532815330571e-09 2.879604512225e-08 1.457743847733e-06 5.229233743190e-06 1.062348179765e-05 1.250000000000e-03 2.045307717181e-05 4.809756477275e-11 2.568342513413e-12 -9.763413201764e-11
489 3 1.100149693986e-02 8.706468468154e-03 1.044283263619e-02 -7.231914973841e-09 -5.006942245455e-09 -4.193107755041e-09 -1.019798382474e-06 -2.188069283781e-06 1.102961857313e-06 1.250000000000e-03 2.045307717181e-05 3.509145232895e-11 3.572739874915e-12 1.660858629645e-11
490 3 1.114564433859e-02 8.424788910090e-03 7.038006619287e-03 -1.497741762777e-08 -1.016704781017e-08 1.139029888023e-08 -1.262208260333e-05 -3.863784255585e-06 -1.979650943527e-05 1.250000000000e-03 2.045307717181e-05 3.543571464562e-11 -1.824782708986e-11 -1.250268980780e-11
491 3 1.177248912722e-02 1.272596355402e-02 7.249921072715e-03 3.940498244560e-09 -1.481372272419e-09 -2.723666477140e-08 -5.422795466108e-06 1.701548955886e-05 -2.250231646415e-06 1.250000000000e-03 2.045307717181e-05 -2.892926841610e-11 -5.004413420717e-11 7.305651410982e-11
492 3 1.297729482503e-02 7.562461488078e-03 1.411520190004e-02 -3.917780231242e-09 -1.713934923053e-10 -2.101045576936e-09 -1.284405971204e-06 -1.540115074598e-06 -1.993390343247e-06 1.250000000000e-03 2.045307717181e-05 3.364145967808e-12 7.195379946030e-12 1.465740465428e-11
493 3 7.996860750779e-04 1.391688907638e-04 1.010336137171e-02 -4.049934150022e-09 -5.232561295667e-09 -8.037707783792e-09 -4.420831877264e-06 -9.522517212135e-07 2.375265086904e-07 1.250000000000e-03 2.045307717181e-05 1.460439559756e-11 2.239745666629e-11 2.294793410103e-11
494 3 1.165035177723e-02 2.475671492497e-04 9.825378465207e-03 -5.952480059008e-09 -6.835336188500e-09 -4.693452675538e-09 -9.574283245396e-06 5.018586460341e-06 3.373233196860e-06 1.250000000000e-03 2.045307717181e-05 4.873146336418e-11 -1.418170369276e-12 -1.612051025470e-11
495 3 6.354958534419e-03 1.500957409942e-04 1.263376797648e-02 -4.473582593004e-09 -2.481668093939e-09 -3.508222221729e-09 -3.324032669651e-07 -1.372574112215e-06 8.832920925777e-07 1.250000000000e-03 2.045307717181e-05 6.733350803999e-12 1.786211934869e-12 1.812610978117e-11
496 3 1.045947063979e-04 1.228132820474e-02 6.621669359885e-03 3.608914553678e-09 6.876595188536e-09 -2.704374058526e-08 -2.703697484559e-06 6.447139485120e-06 -2.188814843222e-07 1.250000000000e-03 2.045307717181e-05 -3.289339194454e-12 -1.238807509705e-11 7.209860652037e-11
497 3 8.903590918795e-03 6.150509426975e-03 1.123149316539e-02 -1.121206460973e-08 -4.546443695698e-09 -7.078163291707e-09 -4.016808513131e-07 -1.567801777937e-06 7.413131902369e-07 1.250000000000e-03 2.045307717181e-05 3.288289757900e-11 2.484633009533e-11 1.696658709781e-11
498 3 1.141659660186e-02 9.465510226251e-04 7.614746102921e-03 -7.564254569269e-09 -6.152296160452e-09 -7.661919816174e-09 1.131240193061e-05 -5.167622156238e-06 2.733188706815e-06 1.250000000000e-03 2.045307717181e-05 1.968472609360e-11 4.518738016404e-11 5.776248616244e-11
499 3 9.960096167835e-03 9.748740609061e-03 8.614313369289e-03 -4.238996432951e-09 -4.360019950947e-11 -1.051750634900e-09 7.096278958872e-06 -3.626185945988e-06 9.778623982836e-08 1.250000000000e-03 2.045307717181e-05 2.653537485354e-11 3.084037296541e-11 1.719607591640e-11
500 3 6.647520058704e-03 3.166909200599e-04 1.015806238506e-02 -4.611517521721e-09 -3.236345172635e-09 -3.509927884688e-09 -3.527247385299e-06 -3.560832548039e-06 -1.068211619125e-06 1.250000000000e-03 2.045307717181e-05 8.472788009784e-12 -1.574252387058e-12 2.098980564150e-11
