ITEM: TIMESTEP
200000
ITEM: NUMBER OF ATOMS
500
ITEM: BOX BOUNDS pp pp ff
0.0000000000000000e+00 1.5370634520482899e-02
0.0000000000000000e+00 1.5370634520482899e-02
0.0000000000000000e+00 1.5370634520482899e-02
ITEM: ATOMS id type x y z radius mass fx fy fz
1 1 0.00550689 0.00349668 0.000686198 0.00075 4.41786e-06 1.0327e-11 -6.10364e-11 8.47257e-13
2 1 0.00249395 0.00585537 0.00482392 0.00075 4.41786e-06 2.43145e-11 2.65715e-12 -3.40135e-11
3 1 0.0041066 0.00328575 0.006116 0.00075 4.41786e-06 1.83811e-12 2.14396e-11 4.40244e-11
4 1 0.00561151 0.00647095 0.00526389 0.00075 4.41786e-06 1.27542e-11 6.61789e-12 2.70414e-11
5 1 2.42939e-05 0.00156594 0.00236242 0.00075 4.41786e-06 -3.28758e-11 -2.59551e-12 -2.17878e-12
6 1 0.00179908 0.00665713 0.00211948 0.00075 4.41786e-06 -2.92645e-10 1.83722e-10 -6.02785e-11
7 1 0.00133805 0.00105984 0.0024456 0.00075 4.41786e-06 -1.11416e-11 2.99996e-11 -4.36275e-11
8 1 0.00214207 0.00261392 0.0015091 0.00075 4.41786e-06 -1.08694e-322 -1.08694e-322 -1.08694e-322
9 1 0.00554388 0.00605261 0.00382144 0.00075 4.41786e-06 1.83644e-11 7.19253e-12 4.49358e-11
10 1 0.00313501 0.00307318 0.00298214 0.00075 4.41786e-06 -8.01267e-11 -5.98962e-11 3.31188e-11
11 1 0.0038531 0.00235394 0.000711511 0.00075 4.41786e-06 2.22972e-12 4.96943e-12 -3.10444e-12
12 1 0.00170073 0.00522778 0.00593541 0.00075 4.41786e-06 1.20239e-11 5.71737e-12 -1.18619e-11
13 1 0.0071411 0.00473506 0.00571942 0.00075 4.41786e-06 4.66392e-12 1.31802e-12 -1.5238e-11
14 1 0.0033139 0.00564192 0.00358773 0.00075 4.41786e-06 8.9651e-11 -1.59184e-10 7.67737e-11
15 1 0.00581798 0.0017131 0.00532974 0.00075 4.41786e-06 2.21123e-11 -1.01073e-11 -1.54979e-11
16 1 0.00258733 0.00540315 0.00230476 0.00075 4.41786e-06 -1.86372e-10 3.3393e-10 2.4455e-10
17 1 0.00371979 0.0044434 0.0024888 0.00075 4.41786e-06 -5.15042e-11 2.11635e-10 8.07028e-11
18 1 0.00139097 0.00506449 0.00438947 0.00075 4.41786e-06 9.32597e-11 -6.6562e-11 -7.46528e-11
19 1 0.00363331 0.00202692 0.00210854 0.00075 4.41786e-06 -8.07555e-12 7.03073e-12 -5.28087e-12
20 1 0.00547363 0.00431059 0.00734205 0.00075 4.41786e-06 2.07499e-11 -2.94345e-12 7.67462e-12
21 1 0.0069116 0.00247756 0.00517251 0.00075 4.41786e-06 1.15433e-11 -5.62405e-12 -1.54813e-12
22 1 0.00376651 0.00341335 0.00466333 0.00075 4.41786e-06 1.7585e-11 -3.06307e-11 5.13612e-11
23 1 0.00566928 0.00385805 0.00452799 0.00075 4.41786e-06 -6.5347e-13 -7.11786e-12 2.06279e-11
24 1 0.0028411 0.0022776 0.00479037 0.00075 4.41786e-06 -3.53842e-12 -1.22912e-11 2.4667e-11
25 1 0.00395633 0.00598947 0.00485175 0.00075 4.41786e-06 3.01827e-11 -6.63705e-13 3.37211e-11
26 1 0.00577934 0.00503363 0.00534765 0.00075 4.41786e-06 -2.00281e-11 4.8054e-12 1.43921e-11
27 1 0.00222341 0.00433104 0.000865445 0.00075 4.41786e-06 1.08694e-322 -1.08694e-322 -1.08694e-322
28 1 0.0042801 0.00180751 0.00403021 0.00075 4.41786e-06 7.86414e-13 1.18186e-11 8.83659e-12
29 1 0.0049168 0.00559251 0.000746631 0.00075 4.41786e-06 1.39592e-11 -1.14618e-11 1.86267e-11
30 1 0.0043407 0.00081113 0.0069584 0.00075 4.41786e-06 1.57709e-11 -2.80313e-12 2.05464e-12
31 1 0.00323104 0.00112408 0.00606413 0.00075 4.41786e-06 4.20755e-12 -4.28125e-12 7.35386e-12
32 1 0.00208365 0.00638867 0.00353942 0.00075 4.41786e-06 1.90331e-10 -9.01435e-11 -1.57734e-10
33 1 0.00613784 0.00589434 0.00243719 0.00075 4.41786e-06 3.50674e-11 -3.36857e-11 -4.51618e-12
34 1 0.00437971 0.00468808 0.00654191 0.00075 4.41786e-06 1.60408e-11 1.86562e-11 1.73779e-11
35 1 0.00408069 0.00382328 0.0010165 0.00075 4.41786e-06 3.60978e-09 1.05478e-08 -9.1644e-10
36 1 0.000648104 0.00614414 0.00638396 0.00075 4.41786e-06 1.85763e-12 7.18622e-13 -5.81116e-12
37 1 0.00350936 0.00520477 0.0011384 0.00075 4.41786e-06 -2.25516e-09 6.65363e-09 -1.54736e-09
38 1 0.00128945 0.00263205 0.00705594 0.00075 4.41786e-06 -1.67686e-12 5.5338e-12 -9.86133e-13
39 1 0.00468373 0.00488099 0.0035498 0.00075 4.41786e-06 3.54362e-11 -1.56331e-12 4.6799e-11
40 1 0.00299235 0.00426512 0.00377243 0.00075 4.41786e-06 5.22505e-11 -9.10007e-11 4.82898e-11
41 1 0.00124165 0.00689749 0.00467173 0.00075 4.41786e-06 3.66972e-10 -1.94999e-10 -1.45505e-10
42 1 0.00459491 0.0032944 0.00341849 0.00075 4.41786e-06 -2.70722e-11 3.65142e-12 3.97817e-11
43 1 0.00492991 0.00269759 0.00492854 0.00075 4.41786e-06 1.14606e-11 -1.36472e-11 2.39686e-11
44 1 0.00221262 0.00585074 0.000749906 0.00075 4.41786e-06 -4.85418e-09 -3.04923e-09 -1.92894e-09
45 1 0.00446763 0.00140979 0.00544735 0.00075 4.41786e-06 -6.48832e-12 -1.84569e-11 1.16316e-12
46 1 0.00634032 0.00202916 0.00382219 0.00075 4.41786e-06 1.74932e-11 -1.31605e-11 2.95236e-11
47 1 0.00705685 0.00356821 0.00070511 0.00075 4.41786e-06 4.67834e-11 -1.49132e-11 5.69315e-12
48 1 0.00613246 0.00335497 0.00326221 0.00075 4.41786e-06 1.03488e-11 -1.53784e-11 2.04334e-11
49 1 0.000859128 0.00331936 0.00101654 0.00075 4.41786e-06 -4.05139e-11 2.95039e-10 -1.45021e-10
50 1 0.00196974 0.00662513 0.00595458 0.00075 4.41786e-06 3.78641e-12 1.47727e-11 -1.11398e-11
51 1 0.00312921 0.00100357 0.00417749 0.00075 4.41786e-06 -1.32227e-11 -1.31576e-11 -1.42275e-11
52 1 0.0044334 0.00463656 0.00494686 0.00075 4.41786e-06 -1.02289e-11 -1.04125e-11 3.30101e-11
53 1 0.00285917 0.00463886 0.00717933 0.00075 4.41786e-06 -1.38387e-12 -1.08364e-12 -9.92036e-12
54 1 0.00224499 0.00602247 0.00984185 0.00075 4.41786e-06 3.46723e-12 1.00492e-12 1.88542e-12
55 1 0.00217056 0.00153604 0.00689481 0.00075 4.41786e-06 3.34354e-12 -9.85109e-12 -6.85081e-12
56 1 0.00267088 0.00498028 0.0133956 0.00075 4.41786e-06 -7.30958e-13 2.11186e-13 -1.2024e-12
57 1 0.00231302 0.00208493 0.00995972 0.00075 4.41786e-06 -3.58876e-12 1.10464e-12 5.03095e-12
58 1 0.00409134 0.00455158 0.0115774 0.00075 4.41786e-06 4.41191e-13 -1.65032e-13 2.01085e-12
59 1 0.00079249 0.00557602 0.0107359 0.00075 4.41786e-06 8.35512e-13 2.99344e-12 2.42495e-12
60 1 0.00347473 0.0035988 0.00789535 0.00075 4.41786e-06 1.04004e-11 -3.63578e-12 4.99422e-12
61 1 0.0061913 0.00576354 0.0126624 0.00075 4.41786e-06 -2.72154e-12 1.32949e-12 2.09626e-12
62 1 0.00318038 0.00514828 0.0058573 0.00075 4.41786e-06 1.33338e-11 -2.19141e-12 1.24461e-11
63 1 0.00243443 0.00355989 0.00995527 0.00075 4.41786e-06 1.02071e-12 2.30389e-12 -1.79876e-12
64 1 0.00374239 0.0042062 0.010179 0.00075 4.41786e-06 3.41428e-12 1.99267e-12 -5.57517e-13
65 1 0.00271112 0.00298466 0.00685241 0.00075 4.41786e-06 4.49146e-12 -7.31316e-13 9.90882e-13
66 1 0.00718322 0.00654246 0.0120025 0.00075 4.41786e-06 5.76633e-12 3.09528e-12 1.93823e-12
67 1 0.00186262 0.00364748 0.01329 0.00075 4.41786e-06 -1.55226e-13 9.95714e-13 -1.50102e-12
68 1 0.00407076 0.00489165 0.0136487 0.00075 4.41786e-06 2.13314e-12 1.81945e-12 2.25309e-12
69 1 0.00246311 0.00500609 0.00882307 0.00075 4.41786e-06 3.88397e-12 2.00325e-12 9.51606e-13
70 1 0.00607948 0.00211658 0.0106307 0.00075 4.41786e-06 3.20339e-12 3.07661e-12 -4.13118e-13
71 1 0.00383811 0.00604449 0.00809802 0.00075 4.41786e-06 9.33235e-12 1.01463e-11 7.48383e-12
72 1 0.00650129 0.000548744 0.014655 0.00075 4.41786e-06 -6.91599e-13 8.54749e-13 -4.31391e-13
73 1 0.00288205 0.00509096 0.0120454 0.00075 4.41786e-06 -2.49354e-12 -2.36786e-12 3.90604e-12
74 1 0.00375956 0.00679939 0.0146595 0.00075 4.41786e-06 4.60514e-12 -8.50114e-13 -4.29722e-13
75 1 0.00615564 0.00296774 0.0139927 0.00075 4.41786e-06 -1.76746e-13 1.6864e-14 -7.27654e-14
76 1 0.00469309 0.00303903 0.00816763 0.00075 4.41786e-06 4.81039e-12 -3.11221e-13 2.8475e-12
77 1 0.0033453 0.00146348 0.0107647 0.00075 4.41786e-06 1.06717e-11 -4.49878e-12 5.68676e-12
78 1 0.00320836 0.000655687 0.00785389 0.00075 4.41786e-06 1.01e-11 2.98357e-12 3.37445e-12
79 1 0.00523722 0.001872 0.00664445 0.00075 4.41786e-06 -1.46808e-12 -4.78811e-12 5.25267e-12
80 1 0.0031499 0.00462909 0.0147029 0.00075 4.41786e-06 -1.63796e-13 -4.47215e-15 -1.08036e-12
81 1 0.00614279 0.00260323 0.0125672 0.00075 4.41786e-06 3.72961e-12 -4.24823e-14 4.44437e-13
82 1 0.00507859 0.00372488 0.0132502 0.00075 4.41786e-06 1.12494e-12 -8.47699e-13 -9.19983e-14
83 1 0.00701172 0.00332778 0.0108136 0.00075 4.41786e-06 1.19985e-12 -2.97513e-12 7.48674e-12
84 1 0.00579781 0.0040555 0.00973329 0.00075 4.41786e-06 8.95544e-12 9.40266e-13 1.17252e-12
85 1 0.00189002 0.00259356 0.0143588 0.00075 4.41786e-06 1.08694e-322 1.08694e-322 -1.08694e-322
86 1 0.00420675 0.00683232 0.0094255 0.00075 4.41786e-06 -3.37177e-12 -2.29488e-11 -1.69893e-12
87 1 0.0043409 0.00218392 0.0122015 0.00075 4.41786e-06 -9.87428e-13 1.77444e-13 -1.54895e-14
88 1 0.00336505 0.0029206 0.0109103 0.00075 4.41786e-06 1.6783e-12 -7.67542e-13 4.02122e-12
89 1 0.00206618 0.00486939 0.0105402 0.00075 4.41786e-06 -7.39181e-13 1.46788e-12 1.00351e-12
90 1 0.00521997 0.00457387 0.0143828 0.00075 4.41786e-06 2.63248e-12 2.08465e-12 -1.70237e-12
91 1 0.00495642 0.00511542 0.0103778 0.00075 4.41786e-06 4.06549e-12 2.30659e-13 1.94397e-12
92 1 0.00626942 0.00435055 0.0128169 0.00075 4.41786e-06 1.0463e-12 -3.53285e-13 9.44307e-13
93 1 0.00247239 0.00612882 0.0143322 0.00075 4.41786e-06 2.87845e-12 -1.19848e-12 -5.73197e-13
94 1 0.00184576 0.00687912 0.0129793 0.00075 4.41786e-06 -1.77386e-12 1.57367e-12 1.36226e-11
95 1 0.00723671 0.00400854 0.00962651 0.00075 4.41786e-06 -5.54658e-12 4.96529e-12 -4.03769e-12
96 1 0.00356587 0.00558509 0.0094607 0.00075 4.41786e-06 1.72702e-11 2.43081e-11 -1.45149e-12
97 1 0.00288105 0.00196297 0.0123841 0.00075 4.41786e-06 -3.29265e-13 2.68115e-12 5.18703e-13
98 1 0.00394098 0.00221464 0.00713954 0.00075 4.41786e-06 6.54626e-12 -1.35013e-11 3.91144e-12
99 1 0.0025793 0.00647648 0.0085953 0.00075 4.41786e-06 -1.9343e-12 2.31637e-12 -7.95516e-13
100 1 0.00337431 0.00222301 0.0143338 0.00075 4.41786e-06 1.08694e-322 -1.08694e-322 -1.08694e-322
101 2 0.00349438 0.00343213 0.0129404 0.001 1.0472e-05 -1.21807e-12 4.20658e-12 -1.97552e-12
102 2 0.00549768 0.00371292 0.0114357 0.001 1.0472e-05 5.43393e-12 7.09669e-12 3.06808e-12
103 2 0.00189414 0.0035208 0.00832031 0.001 1.0472e-05 1.0065e-11 -2.74705e-13 -2.07766e-12
104 2 0.00512582 0.00171795 0.0136687 0.001 1.0472e-05 1.58391e-12 1.48037e-12 4.00495e-12
105 2 0.00454722 0.0045732 0.00868955 0.001 1.0472e-05 9.90105e-12 -9.89534e-14 -2.65173e-12
106 2 0.00338694 0.00210725 0.00871892 0.001 1.0472e-05 2.18737e-11 2.22437e-12 1.10068e-11
107 2 0.00564376 0.0139408 0.00505524 0.001 1.0472e-05 -6.72392e-12 -5.70539e-12 -5.97216e-12
108 2 0.0014785 0.00832182 0.00260598 0.001 1.0472e-05 6.01907e-11 8.01016e-11 -1.64375e-11
109 2 0.004669 0.00736679 0.00419267 0.001 1.0472e-05 4.54344e-11 -3.30454e-11 2.58684e-11
110 2 0.00435486 0.00952824 0.00266932 0.001 1.0472e-05 -2.21221e-166 3.25194e-166 -5.55054e-167
111 2 0.00602008 0.0106068 0.00292852 0.001 1.0472e-05 3.03479e-161 -1.10568e-160 1.76399e-160
112 2 0.0036382 0.0133115 0.00495927 0.001 1.0472e-05 -1.05632e-11 1.57565e-11 -8.48798e-12
113 2 0.00562036 0.000245854 0.00610147 0.001 1.0472e-05 4.91119e-12 -1.65155e-11 3.03301e-12
114 2 0.00745116 0.00925433 0.00532742 0.001 1.0472e-05 -2.0516e-11 -2.89373e-11 1.12821e-11
115 2 0.00448759 0.00861317 0.00631525 0.001 1.0472e-05 6.07652e-12 2.06075e-12 1.55279e-12
116 2 0.00296046 0.00780181 0.00358274 0.001 1.0472e-05 -2.44995e-11 1.72194e-11 -1.49907e-11
117 2 0.00338553 0.0148693 0.00659845 0.001 1.0472e-05 -1.12632e-11 -2.52165e-12 1.19809e-11
118 2 0.00592233 0.000422719 0.00418585 0.001 1.0472e-05 4.6698e-12 -1.39717e-11 -1.3117e-11
119 2 0.00259807 0.00843522 0.00689015 0.001 1.0472e-05 1.83721e-11 -1.56866e-11 1.00804e-12
120 2 0.00341844 0.00998628 0.000945989 0.001 1.0472e-05 -5.43838e-11 -4.41329e-11 8.89506e-12
121 2 0.00512033 0.00137358 0.00266168 0.001 1.0472e-05 1.37033e-12 7.99001e-11 1.69984e-11
122 2 0.00200901 0.0124504 0.00551338 0.001 1.0472e-05 3.40394e-12 1.32079e-11 2.968e-11
123 2 0.00665526 0.00796492 0.00644584 0.001 1.0472e-05 1.37628e-11 5.6893e-12 -2.46758e-12
124 2 0.00518719 0.0120419 0.00479259 0.001 1.0472e-05 2.94595e-11 1.00422e-11 -9.43983e-12
125 2 0.00417995 0.00634827 0.00649208 0.001 1.0472e-05 -1.10665e-11 3.1875e-11 -4.19224e-12
126 2 0.00292068 0.0100645 0.00619603 0.001 1.0472e-05 2.68781e-11 9.99597e-12 6.58996e-12
127 2 0.00248616 0.014625 0.00425626 0.001 1.0472e-05 2.1597e-12 -4.0104e-11 9.63787e-12
128 2 0.00408533 0.0141499 0.00320158 0.001 1.0472e-05 -6.03619e-12 -1.11977e-11 -7.84024e-12
129 2 0.00550421 0.00771997 0.0025297 0.001 1.0472e-05 -5.89665e-12 -5.1276e-11 -1.26196e-11
130 2 0.015198 0.00879237 0.000933848 0.001 1.0472e-05 -1.45678e-11 1.8977e-10 -4.02501e-11
131 2 0.00323857 0.00751304 0.00169857 0.001 1.0472e-05 -1.02397e-10 -2.50797e-10 3.33111e-11
132 2 0.00290152 0.000536442 0.00257866 0.001 1.0472e-05 -4.86378e-11 4.83161e-11 2.40391e-12
133 2 0.00626471 0.000394324 0.00090202 0.001 1.0472e-05 6.98481e-13 1.76807e-11 2.65782e-11
134 2 0.00167457 0.0107169 0.00489772 0.001 1.0472e-05 -1.38272e-11 1.26951e-11 5.97552e-11
135 2 0.00542765 0.0103481 0.000920133 0.001 1.0472e-05 -2.61191e-11 -1.16701e-11 2.53434e-12
136 2 0.00443025 0.0153537 0.00152027 0.001 1.0472e-05 -1.70482e-11 1.37378e-11 1.6977e-11
137 2 0.00459132 0.0132962 0.00660491 0.001 1.0472e-05 7.92894e-12 2.56359e-12 -8.51494e-12
138 2 0.00472339 0.00850045 0.000936511 0.001 1.0472e-05 -6.79215e-11 -5.21613e-11 4.5187e-13
139 2 0.00173921 0.0143355 0.00259254 0.001 1.0472e-05 -1.41987e-11 3.79503e-12 -1.99499e-11
140 2 0.00245518 0.0124237 0.000870872 0.001 1.0472e-05 2.8188e-12 -4.5007e-12 -2.09947e-11
141 2 0.00487193 0.0104525 0.00590612 0.001 1.0472e-05 1.38066e-11 1.03239e-11 4.113e-12
142 2 0.000990653 0.0127461 0.00195513 0.001 1.0472e-05 3.91452e-11 -9.72625e-12 -5.0431e-12
143 2 0.000694662 0.0113931 0.00327687 0.001 1.0472e-05 4.91178e-12 2.00794e-11 6.61179e-12
144 2 0.00312294 0.0109931 0.00786704 0.001 1.0472e-05 6.55684e-12 1.31876e-12 1.44361e-11
145 2 0.00433211 0.00960194 0.00840004 0.001 1.0472e-05 2.26514e-11 1.55206e-11 -1.32647e-13
146 2 0.0063825 0.00246836 0.0017547 0.001 1.0472e-05 7.78491e-11 -1.01407e-11 1.68053e-11
147 2 0.00566444 0.00896825 0.00454793 0.001 1.0472e-05 -1.28661e-11 1.09312e-11 -3.98673e-11
148 2 0.00558199 0.0128664 0.00310081 0.001 1.0472e-05 -2.33502e-12 -7.6929e-12 -7.75725e-12
149 2 0.00592708 0.0137259 0.000927311 0.001 1.0472e-05 -7.07638e-12 8.34288e-13 1.36299e-13
150 2 0.006592 0.0109205 0.00534099 0.001 1.0472e-05 -1.13024e-11 -3.4243e-14 -2.63716e-12
151 2 0.0041128 0.0115878 0.0032861 0.001 1.0472e-05 -2.50085e-12 -6.92787e-12 -1.06363e-11
152 2 0.00198444 0.00880895 0.005006 0.001 1.0472e-05 1.63182e-11 3.81788e-11 -1.05226e-11
153 2 0.00158941 0.00975002 0.00781982 0.001 1.0472e-05 2.94427e-12 -2.36184e-11 2.563e-11
154 2 0.00723415 0.00911615 0.00348012 0.001 1.0472e-05 -4.98699e-12 3.83528e-12 -1.2811e-12
155 2 0.00197719 0.0124807 0.0075854 0.001 1.0472e-05 3.59582e-11 -4.75812e-13 2.76203e-11
156 2 0.00396855 0.0135807 0.000892407 0.001 1.0472e-05 -2.57094e-12 2.03177e-11 -1.40289e-12
157 2 0.00262031 0.014977 0.000916098 0.001 1.0472e-05 -8.42553e-12 -4.47553e-12 -1.07475e-11
158 2 0.00638669 0.00670426 0.000959682 0.001 1.0472e-05 2.47074e-11 -1.66191e-11 -1.38506e-11
159 2 0.00347765 0.0114149 0.00508477 0.001 1.0472e-05 -1.75146e-11 -9.21402e-12 1.35897e-11
160 2 0.00145657 0.0103353 0.000944839 0.001 1.0472e-05 -6.32548e-11 3.93472e-11 -7.3468e-12
161 2 0.00417452 0.015254 0.00484684 0.001 1.0472e-05 6.16083e-12 -2.2208e-12 -1.38501e-11
162 2 0.00588877 0.0147066 0.00257328 0.001 1.0472e-05 3.06138e-12 4.20923e-12 -3.06282e-13
163 2 0.00323351 0.00751739 0.00540983 0.001 1.0472e-05 2.9322e-11 2.20371e-12 2.52127e-11
164 2 0.00237807 0.00976905 0.00339288 0.001 1.0472e-05 -3.49552e-12 8.39206e-11 2.60148e-11
165 2 0.0038128 0.00945952 0.00461609 0.001 1.0472e-05 -2.27132e-12 5.78159e-11 -1.10949e-11
166 2 0.00260923 0.0111784 0.00222973 0.001 1.0472e-05 -2.3201e-11 7.694e-12 2.60016e-11
167 2 0.00441928 0.00608606 0.00234575 0.001 1.0472e-05 9.06976e-11 -5.77518e-11 1.29496e-10
168 2 0.0062542 0.0123542 0.0064365 0.001 1.0472e-05 5.37614e-12 1.15935e-13 -9.57201e-13
169 2 0.00483284 0.0120362 0.00156416 0.001 1.0472e-05 -2.10582e-12 -3.13623e-13 1.04526e-11
170 2 0.0016153 0.00807563 0.000830446 0.001 1.0472e-05 -4.20163e-11 6.79083e-11 3.82403e-11
171 2 0.00551207 0.00820059 0.00790648 0.001 1.0472e-05 5.83825e-12 6.39342e-12 6.6287e-12
172 2 0.00243615 0.0126361 0.00354801 0.001 1.0472e-05 2.17598e-11 3.64124e-11 -3.3861e-11
173 2 0.00274349 0.0118322 0.00960017 0.001 1.0472e-05 5.5218e-12 5.4716e-12 1.17046e-11
174 2 0.00514563 0.0141863 0.0114768 0.001 1.0472e-05 2.35715e-12 4.80229e-12 2.62159e-12
175 2 0.00327331 0.00977703 0.0129013 0.001 1.0472e-05 -2.03464e-12 3.36818e-12 1.17042e-11
176 2 0.00247294 0.0116802 0.0144672 0.001 1.0472e-05 2.40987e-13 8.928e-14 -6.06038e-13
177 2 0.000895667 0.0143074 0.0121816 0.001 1.0472e-05 1.21861e-11 7.51728e-12 1.08941e-11
178 2 0.00561151 0.0125904 0.00816894 0.001 1.0472e-05 1.58158e-13 -1.34758e-11 1.29462e-11
179 2 0.00111091 0.0111171 0.00906271 0.001 1.0472e-05 -1.95576e-11 2.14449e-13 1.3962e-11
180 2 0.00548946 0.0119861 0.0107566 0.001 1.0472e-05 7.11315e-12 3.82604e-12 4.70289e-12
181 2 0.00384559 0.000568991 0.0127041 0.001 1.0472e-05 3.63278e-12 3.89618e-13 4.81704e-12
182 2 0.00514602 0.0061911 0.0138844 0.001 1.0472e-05 -9.88146e-12 6.84344e-12 -1.20088e-11
183 2 0.0054494 0.0110859 0.0124353 0.001 1.0472e-05 3.67694e-12 1.82613e-12 -1.25238e-11
184 2 0.00219134 0.00822193 0.0120913 0.001 1.0472e-05 2.45619e-12 1.59594e-12 2.09988e-12
185 2 0.00367205 0.0139743 0.0144539 0.001 1.0472e-05 2.03745e-12 -3.57405e-12 1.23128e-12
186 2 0.00556864 0.0138778 0.00956007 0.001 1.0472e-05 -1.7231e-12 6.52266e-13 2.25365e-12
187 2 0.00565231 0.0107524 0.00757463 0.001 1.0472e-05 -5.29402e-12 -1.17071e-11 1.62941e-11
188 2 0.00228446 0.000390167 0.0116318 0.001 1.0472e-05 4.04457e-12 1.7463e-12 -5.8691e-13
189 2 0.00466319 0.00835851 0.0098249 0.001 1.0472e-05 4.16417e-12 4.1006e-12 3.87212e-12
190 2 0.00364968 0.00609395 0.0109984 0.001 1.0472e-05 6.88513e-12 1.29884e-12 -1.5005e-12
191 2 0.00488553 0.000928784 0.0112255 0.001 1.0472e-05 -9.70916e-12 3.81116e-12 -7.60407e-13
192 2 0.00659043 0.0126699 0.012827 0.001 1.0472e-05 5.555e-13 -3.71843e-12 1.08552e-11
193 2 0.00286391 0.00756216 0.0100168 0.001 1.0472e-05 6.41645e-12 2.94723e-12 -4.62411e-13
194 2 0.00734726 0.0109571 0.0124358 0.001 1.0472e-05 4.14585e-12 3.00238e-12 2.28782e-12
195 2 0.00371072 0.012813 0.00825338 0.001 1.0472e-05 -2.35859e-11 -6.27158e-12 1.48518e-12
196 2 0.00463099 0.000764512 0.00939229 0.001 1.0472e-05 -9.19012e-13 1.97716e-12 3.37532e-12
197 2 0.00434558 0.0146718 0.00826079 0.001 1.0472e-05 -2.45783e-11 1.4518e-12 1.5375e-11
198 2 0.00348534 0.00644053 0.0129185 0.001 1.0472e-05 1.44126e-11 -3.79495e-13 1.19207e-11
199 2 0.001543 0.00169206 0.00844973 0.001 1.0472e-05 -9.94801e-12 -6.11364e-12 1.49644e-12
200 2 0.00383857 0.0124039 0.0116383 0.001 1.0472e-05 3.44361e-12 6.09081e-12 2.30719e-12
201 2 0.00453515 0.0102526 0.0107538 0.001 1.0472e-05 4.41292e-13 -5.66675e-12 8.13285e-12
202 2 0.00125487 0.00930691 0.0131188 0.001 1.0472e-05 4.7759e-12 3.89111e-13 3.06454e-12
203 2 0.00687684 0.0120782 0.00949811 0.001 1.0472e-05 8.95236e-12 4.013e-12 1.00106e-11
204 2 0.00398549 0.0116106 0.013439 0.001 1.0472e-05 1.43509e-12 1.7509e-12 -2.05784e-12
205 2 0.0018653 0.00661493 0.0113342 0.001 1.0472e-05 4.38848e-12 -3.70687e-12 -1.37594e-11
206 2 0.00244177 0.0142657 0.00829864 0.001 1.0472e-05 -1.62864e-12 -5.52706e-13 7.98508e-12
207 2 0.00330563 0.014246 0.0116456 0.001 1.0472e-05 -4.88739e-13 7.79365e-12 3.23575e-12
208 2 0.00516824 0.00919381 0.0124956 0.001 1.0472e-05 2.49912e-12 4.93911e-12 2.03301e-12
209 2 0.00272771 0.00973349 0.0094295 0.001 1.0472e-05 9.89573e-12 2.18757e-12 2.7334e-12
210 2 0.00224975 0.00984401 0.0145437 0.001 1.0472e-05 1.49291e-12 1.07663e-12 -4.98551e-12
211 2 0.0047209 0.00276063 0.00992216 0.001 1.0472e-05 5.91503e-12 3.99762e-12 2.81838e-12
212 2 0.00226809 0.0126573 0.012806 0.001 1.0472e-05 -6.42003e-14 2.19953e-12 4.41991e-13
213 2 0.00545427 0.00624021 0.00861104 0.001 1.0472e-05 2.59534e-12 6.23185e-12 1.25769e-11
214 2 0.00280749 0.000380307 0.00950131 0.001 1.0472e-05 2.1995e-12 -1.93489e-12 -1.86733e-13
215 2 0.0036072 0.0138469 0.00983508 0.001 1.0472e-05 2.63489e-12 8.61571e-12 -5.38175e-12
216 2 0.006386 0.00995776 0.0111527 0.001 1.0472e-05 2.25337e-12 3.36113e-12 5.99428e-12
217 2 0.00185329 0.0134416 0.014493 0.001 1.0472e-05 1.02836e-12 -1.59428e-12 2.63184e-12
218 2 0.00482232 0.0132905 0.0131115 0.001 1.0472e-05 2.8576e-12 -2.94144e-13 4.11757e-12
219 2 0.00364877 0.00777059 0.00824814 0.001 1.0472e-05 8.03187e-12 9.62616e-12 1.69451e-12
220 2 0.00561309 0.0121207 0.0144337 0.001 1.0472e-05 1.66421e-12 1.63388e-14 2.19041e-12
221 2 0.00244963 0.0147904 0.0132769 0.001 1.0472e-05 -1.09189e-12 -3.11369e-12 1.50059e-12
222 2 0.00208788 0.0130251 0.0109315 0.001 1.0472e-05 4.08147e-12 5.92372e-12 9.69041e-12
223 2 0.00143792 0.00827659 0.00903511 0.001 1.0472e-05 1.46446e-11 1.57031e-11 -1.70417e-11
224 2 0.00250377 0.00790481 0.0142206 0.001 1.0472e-05 5.08697e-12 -1.36949e-12 -4.87682e-12
225 2 0.00387311 0.000554317 0.0145237 0.001 1.0472e-05 5.08357e-13 1.60987e-12 2.20709e-12
226 2 0.00594262 0.0101888 0.00934363 0.001 1.0472e-05 6.09805e-12 -1.42751e-12 5.75829e-12
227 2 0.00271519 0.0108187 0.011325 0.001 1.0472e-05 2.88743e-12 -3.75184e-12 4.30383e-12
228 2 0.00542424 0.0146565 0.0144121 0.001 1.0472e-05 2.36737e-12 8.21002e-13 -1.29211e-12
229 2 0.00152566 0.00710478 0.00749418 0.001 1.0472e-05 -2.80757e-13 1.09488e-11 -2.6962e-11
230 2 0.00530093 0.00802233 0.0144111 0.001 1.0472e-05 6.01512e-12 4.04639e-12 -3.8673e-13
231 2 0.00450492 0.011367 0.00920312 0.001 1.0472e-05 3.94243e-12 -1.66641e-12 6.52697e-12
232 2 0.00598883 0.0142874 0.00739128 0.001 1.0472e-05 2.35252e-11 1.34746e-11 -1.90665e-11
233 2 0.00374384 0.00866361 0.0113834 0.001 1.0472e-05 4.24228e-12 6.99896e-12 4.63379e-12
234 2 0.000616326 0.00399673 0.00635507 0.001 1.0472e-05 4.82912e-12 1.13467e-11 -7.20843e-12
235 2 0.014642 0.00267487 0.00135665 0.001 1.0472e-05 -1.88178e-10 -7.34083e-11 -3.15522e-11
236 2 0.014153 0.00681157 0.00461387 0.001 1.0472e-05 7.16032e-11 5.65625e-12 -2.41681e-11
237 2 0.00742918 0.00414606 0.00250186 0.001 1.0472e-05 2.41186e-12 -9.24122e-12 -4.69087e-12
238 2 0.0116425 0.00352485 0.00467782 0.001 1.0472e-05 3.18482e-11 1.21251e-11 -9.55493e-13
239 2 0.0115956 0.00410723 0.000941405 0.001 1.0472e-05 -4.20252e-11 -6.2183e-12 -2.98873e-11
240 2 0.0125469 0.00243534 0.000937787 0.001 1.0472e-05 -1.03858e-10 -2.77173e-11 1.05204e-11
241 2 0.0147669 0.00368308 0.00301526 0.001 1.0472e-05 1.64682e-11 -4.65516e-11 -2.92949e-11
242 2 0.013256 0.00476577 0.00535655 0.001 1.0472e-05 5.4563e-11 -9.68426e-13 -2.0722e-11
243 2 0.00231819 0.00375046 0.00540204 0.001 1.0472e-05 2.24113e-11 -1.50506e-11 9.24312e-12
244 2 0.0135259 0.00309897 0.00445234 0.001 1.0472e-05 6.68103e-12 2.07129e-11 2.77678e-11
245 2 0.0101447 0.00626016 0.00431082 0.001 1.0472e-05 -8.68971e-12 1.093e-11 -2.71975e-11
246 2 0.00159263 0.00397684 0.00245966 0.001 1.0472e-05 2.27125e-10 4.83572e-11 -5.30953e-11
247 2 0.0111896 0.00239542 0.00306397 0.001 1.0472e-05 -2.38873e-11 -2.17913e-11 3.73903e-11
248 2 0.0118598 0.00599608 0.00505566 0.001 1.0472e-05 1.08085e-11 -4.35773e-11 -2.16997e-11
249 2 0.00986114 0.00124449 0.00591023 0.001 1.0472e-05 4.27996e-11 -9.77236e-13 -4.0868e-11
250 2 0.00975062 0.0028557 0.00438878 0.001 1.0472e-05 -1.05956e-11 2.61768e-11 1.49924e-11
251 2 0.01485 0.000141972 0.00573865 0.001 1.0472e-05 2.87027e-12 1.16485e-12 7.26683e-12
252 2 0.00540987 0.00438292 0.00210051 0.001 1.0472e-05 -8.62731e-11 -1.06213e-10 5.02085e-11
253 2 0.000666639 0.00565416 0.00299115 0.001 1.0472e-05 8.82743e-11 1.65502e-10 6.82009e-11
254 2 0.00831154 0.00266515 0.00155708 0.001 1.0472e-05 4.6307e-11 -5.45304e-11 3.51367e-11
255 2 0.000652224 0.00355145 0.00450193 0.001 1.0472e-05 -9.12568e-13 -2.13667e-11 -1.2463e-11
256 2 0.0120396 0.00160581 0.00463893 0.001 1.0472e-05 -1.74488e-11 -1.30776e-11 3.36909e-11
257 2 0.00768304 0.00513206 0.0008927 0.001 1.0472e-05 2.57567e-11 -2.49676e-11 2.99823e-11
258 2 0.013916 0.00191452 0.0030243 0.001 1.0472e-05 -3.13908e-11 -5.66898e-11 5.47833e-12
259 2 0.011942 0.00257805 0.00630703 0.001 1.0472e-05 8.31258e-12 -2.4364e-12 -1.56066e-11
260 2 0.014065 0.00549547 0.00303463 0.001 1.0472e-05 8.34244e-11 -3.10484e-11 -2.70745e-11
261 2 0.0103998 0.00474591 0.0054587 0.001 1.0472e-05 1.72986e-11 3.59631e-12 -7.37738e-12
262 2 0.0102022 0.00276631 0.000983391 0.001 1.0472e-05 -2.63872e-11 1.45204e-11 -1.17292e-11
263 2 0.0113428 0.000156712 0.00572291 0.001 1.0472e-05 2.45923e-12 -1.17157e-11 -3.24347e-12
264 2 0.0105171 0.00418446 0.00323314 0.001 1.0472e-05 2.7911e-11 -8.83251e-12 1.54302e-11
265 2 0.0150858 0.0019423 0.00453804 0.001 1.0472e-05 -1.22152e-12 9.22448e-12 4.65845e-12
266 2 0.0152214 0.00193525 0.00647175 0.001 1.0472e-05 1.38495e-11 -8.16603e-12 1.7284e-11
267 2 0.00927088 0.00106333 0.000987595 0.001 1.0472e-05 2.29901e-11 -1.42791e-11 9.28242e-12
268 2 0.00814283 0.00332684 0.00618653 0.001 1.0472e-05 -1.27631e-12 -1.15223e-11 8.57324e-12
269 2 0.0102956 0.00659398 0.00249306 0.001 1.0472e-05 5.55768e-12 2.36497e-11 1.41915e-11
270 2 0.0104218 0.00562223 0.000880248 0.001 1.0472e-05 -1.41021e-12 3.27041e-11 -1.69588e-12
271 2 0.0127819 0.00343304 0.0025316 0.001 1.0472e-05 -8.00812e-11 -4.46994e-11 5.27446e-12
272 2 0.0123781 0.00086897 0.00288935 0.001 1.0472e-05 -2.09029e-11 1.64092e-11 1.72956e-12
273 2 0.00741908 0.00375601 0.00439731 0.001 1.0472e-05 2.29869e-11 3.26616e-12 1.97987e-11
274 2 0.0080184 0.00197629 0.00420482 0.001 1.0472e-05 1.08832e-11 -3.23921e-11 3.1238e-11
275 2 0.0136595 0.000957123 0.00132237 0.001 1.0472e-05 -1.0613e-10 -4.52723e-11 1.86726e-11
276 2 0.00850193 0.00671286 0.00331727 0.001 1.0472e-05 1.57314e-11 -4.35564e-12 2.05113e-12
277 2 0.00921254 0.0046225 0.00193656 0.001 1.0472e-05 -4.82768e-12 8.99857e-13 -5.23924e-11
278 2 0.00592328 0.00329795 0.00617406 0.001 1.0472e-05 1.59221e-11 6.70518e-12 3.05781e-11
279 2 0.00890834 0.00486732 0.0040678 0.001 1.0472e-05 2.62119e-11 5.94349e-12 -9.69027e-12
280 2 0.0101005 0.00303272 0.0062614 0.001 1.0472e-05 8.09458e-12 9.87456e-12 -2.76978e-13
281 2 0.00922973 0.00617795 0.00595745 0.001 1.0472e-05 -8.21424e-13 5.49087e-11 1.11652e-11
282 2 0.0122887 0.0049298 0.00356385 0.001 1.0472e-05 4.81005e-11 -1.97403e-11 -1.53309e-11
283 2 0.0135454 0.00417609 0.000911959 0.001 1.0472e-05 -1.86525e-10 -1.23925e-10 2.27071e-12
284 2 0.015298 0.00472588 0.00145825 0.001 1.0472e-05 -8.42709e-10 8.37606e-10 2.22893e-10
285 2 0.00735845 0.00640055 0.00556112 0.001 1.0472e-05 1.12372e-11 9.98645e-12 -4.69878e-12
286 2 0.00171505 0.00228648 0.00349782 0.001 1.0472e-05 -1.05489e-10 -1.05073e-10 2.91151e-11
287 2 0.0104481 0.000546897 0.00276551 0.001 1.0472e-05 -1.24347e-11 2.55298e-12 -1.69977e-11
288 2 0.0133803 0.00134466 0.00629287 0.001 1.0472e-05 9.90338e-12 7.38285e-12 -1.57469e-12
289 2 0.0150454 0.00514322 0.00463921 0.001 1.0472e-05 6.27827e-11 -3.00085e-11 -8.58419e-11
290 2 0.00706957 0.00549461 0.00381479 0.001 1.0472e-05 2.80856e-11 -2.69583e-11 -2.50113e-11
291 2 0.00892694 0.00285422 0.0102595 0.001 1.0472e-05 6.27133e-12 1.60368e-12 3.823e-12
292 2 0.0153069 0.0018157 0.014406 0.001 1.0472e-05 1.86458e-12 4.42178e-12 5.77172e-12
293 2 0.0119138 0.00443533 0.00667265 0.001 1.0472e-05 1.55124e-11 2.2244e-11 -1.45949e-11
294 2 0.0135163 0.00118581 0.0118229 0.001 1.0472e-05 -9.90222e-12 4.38282e-11 2.41207e-11
295 2 0.0119666 0.00459867 0.0103937 0.001 1.0472e-05 2.79121e-12 4.31059e-12 -4.21698e-12
296 2 0.00859595 0.00494187 0.00947844 0.001 1.0472e-05 -1.41372e-11 5.53916e-12 1.83026e-11
297 2 0.0145425 0.0045199 0.00752635 0.001 1.0472e-05 1.21758e-11 5.8696e-12 -2.95331e-12
298 2 0.0102644 0.00445689 0.0112253 0.001 1.0472e-05 3.66943e-12 7.05329e-12 -3.52025e-14
299 2 0.00596853 0.00587271 0.00680406 0.001 1.0472e-05 6.5786e-12 1.0219e-12 1.42079e-12
300 2 0.00754539 0.00157682 0.0138615 0.001 1.0472e-05 1.75618e-12 1.51572e-12 -3.98896e-12
301 2 0.013359 0.00375319 0.00924678 0.001 1.0472e-05 9.59945e-12 1.27892e-11 -1.00163e-11
302 2 0.0101689 0.00396273 0.00940609 0.001 1.0472e-05 -3.69374e-12 1.1201e-12 4.81113e-12
303 2 0.0020758 0.00369375 0.0116541 0.001 1.0472e-05 -2.01159e-12 3.99e-12 8.50991e-13
304 2 0.0103622 0.00583162 0.00961346 0.001 1.0472e-05 1.52637e-12 -1.99524e-12 -8.32252e-13
305 2 0.00137916 0.00527051 0.00761013 0.001 1.0472e-05 2.36811e-11 6.54677e-12 -2.29741e-12
306 2 0.0101179 0.00171272 0.00916193 0.001 1.0472e-05 1.26785e-11 2.46246e-12 8.59275e-12
307 2 0.0140311 0.00172703 0.00953916 0.001 1.0472e-05 2.82081e-12 -1.12924e-12 -6.70547e-12
308 2 0.00163051 0.00123065 0.0132459 0.001 1.0472e-05 6.51095e-12 7.50787e-12 1.24306e-12
309 2 0.000523567 0.00277245 0.0128203 0.001 1.0472e-05 5.49227e-12 2.09833e-12 -6.66474e-12
310 2 0.0136303 0.00278126 0.0145113 0.001 1.0472e-05 2.7926e-13 -2.27824e-12 -2.61218e-13
311 2 0.00777266 0.00570661 0.0134156 0.001 1.0472e-05 7.5836e-12 -5.10233e-12 1.9165e-12
312 2 0.0118224 0.000913144 0.0127025 0.001 1.0472e-05 5.69959e-12 1.01776e-11 -2.94035e-12
313 2 0.011925 0.00635487 0.00698626 0.001 1.0472e-05 1.80993e-11 7.55407e-12 -8.71588e-12
314 2 0.00942254 0.00385748 0.00773685 0.001 1.0472e-05 2.50634e-12 1.74567e-11 7.77044e-13
315 2 0.0088342 0.00142201 0.00744304 0.001 1.0472e-05 -2.79198e-11 -3.45588e-12 5.53987e-11
316 2 0.0109361 0.000576794 0.0144039 0.001 1.0472e-05 3.23895e-12 3.74108e-12 -4.53549e-13
317 2 0.014891 0.00584454 0.0119288 0.001 1.0472e-05 -1.52921e-11 6.68203e-12 1.09106e-13
318 2 0.0115425 0.00597328 0.0144374 0.001 1.0472e-05 5.04735e-12 7.3397e-14 2.2441e-12
319 2 0.0137905 0.00322004 0.00635161 0.001 1.0472e-05 -6.79836e-13 1.05056e-11 -1.67114e-12
320 2 0.0130228 0.0023803 0.00794966 0.001 1.0472e-05 5.5373e-12 6.03272e-12 -2.26465e-12
321 2 0.0091712 0.00323761 0.0121803 0.001 1.0472e-05 4.49908e-12 -8.4529e-13 -6.54245e-12
322 2 5.48773e-05 0.000821465 0.0120065 0.001 1.0472e-05 -1.0134e-11 1.35513e-11 2.36893e-11
323 2 0.000821959 0.00470507 0.0093237 0.001 1.0472e-05 6.10963e-12 5.54086e-12 1.38104e-11
324 2 0.0101807 0.00560533 0.00749669 0.001 1.0472e-05 -3.37557e-12 1.22797e-12 -7.13214e-13
325 2 0.013354 0.00278135 0.0127024 0.001 1.0472e-05 4.12198e-12 -4.40212e-11 -4.09528e-11
326 2 0.0148588 0.00244252 0.0111882 0.001 1.0472e-05 1.18328e-11 9.86425e-12 1.9162e-12
327 2 0.000250513 0.00412795 0.0112412 0.001 1.0472e-05 -3.88125e-12 4.11729e-12 8.36065e-13
328 2 0.0077918 0.00311853 0.00834715 0.001 1.0472e-05 1.30466e-11 6.52291e-12 -5.90018e-12
329 2 0.0134602 0.00048378 0.00828805 0.001 1.0472e-05 -5.2607e-11 2.34843e-11 1.8072e-11
330 2 0.00819969 0.00502586 0.00700857 0.001 1.0472e-05 4.04312e-12 3.91631e-11 2.30493e-11
331 2 0.00821753 0.0014506 0.0092194 0.001 1.0472e-05 8.09628e-12 1.11427e-12 6.32087e-13
332 2 0.00957438 0.0061284 0.0144454 0.001 1.0472e-05 5.50214e-12 -3.78592e-12 5.86026e-12
333 2 0.0143842 0.00596018 0.00627858 0.001 1.0472e-05 4.61488e-11 2.27196e-11 -6.04263e-11
334 2 0.00756938 0.00337546 0.0131489 0.001 1.0472e-05 5.69073e-12 -2.4784e-12 1.53042e-12
335 2 0.0111477 0.00304345 0.00803134 0.001 1.0472e-05 1.06316e-12 1.06385e-11 -3.26459e-12
336 2 0.0153675 0.00290284 0.00813872 0.001 1.0472e-05 6.20316e-12 1.22977e-11 -2.74002e-12
337 2 0.0134248 0.00445678 0.011517 0.001 1.0472e-05 9.2876e-12 2.88613e-12 -6.22479e-12
338 2 0.01301 0.00622487 0.0103682 0.001 1.0472e-05 8.71168e-12 1.33562e-11 -1.90904e-12
339 2 0.000806314 0.0028681 0.00986283 0.001 1.0472e-05 -8.89774e-13 1.02071e-11 8.49479e-12
340 2 0.0105445 0.00237956 0.0130966 0.001 1.0472e-05 4.26957e-12 5.91885e-13 -1.03697e-11
341 2 0.0125912 0.00431798 0.0141866 0.001 1.0472e-05 4.03637e-12 5.41923e-12 9.91549e-13
342 2 0.0114696 0.00497232 0.0127713 0.001 1.0472e-05 1.1901e-11 8.45058e-13 9.54561e-13
343 2 0.0133343 0.0055653 0.00855316 0.001 1.0472e-05 6.52059e-12 1.89423e-11 -9.29525e-12
344 2 0.0151011 0.00398761 0.0145662 0.001 1.0472e-05 -1.63239e-12 4.75205e-14 8.23766e-13
345 2 0.0130644 0.00267668 0.0108079 0.001 1.0472e-05 -4.7736e-12 5.92271e-12 -4.17362e-12
346 2 0.00754495 0.00457587 0.0117344 0.001 1.0472e-05 7.79185e-12 2.95446e-13 3.84723e-12
347 2 0.00671874 0.00480399 0.00827677 0.001 1.0472e-05 6.37482e-12 6.90381e-12 9.84794e-12
348 2 0.0146333 0.00421624 0.0128649 0.001 1.0472e-05 -5.35916e-12 1.59182e-12 -2.67111e-12
349 2 0.00146955 0.00195753 0.0113603 0.001 1.0472e-05 -8.3064e-12 7.10415e-12 2.96991e-12
350 2 0.00884136 0.00365499 0.0144754 0.001 1.0472e-05 7.4583e-13 2.8765e-12 9.88337e-13
351 2 0.0093784 0.00173494 0.0144522 0.001 1.0472e-05 4.46848e-13 2.19758e-12 -1.52853e-13
352 2 0.0129685 0.000962183 0.0143384 0.001 1.0472e-05 2.86161e-12 3.90849e-12 9.79125e-13
353 2 0.0144777 0.00508248 0.0100249 0.001 1.0472e-05 1.70265e-11 8.17001e-12 5.35386e-12
354 2 0.00682491 0.00441587 0.014515 0.001 1.0472e-05 4.92384e-12 -5.64472e-13 -1.56681e-12
355 2 0.00148972 0.00470095 0.0144756 0.001 1.0472e-05 -1.52485e-12 -6.59825e-15 2.44855e-13
356 2 0.00950228 0.00496203 0.0129358 0.001 1.0472e-05 2.97657e-12 5.74168e-12 -1.49835e-12
357 2 0.0106732 0.00420135 0.014392 0.001 1.0472e-05 1.44897e-12 3.66832e-12 1.33671e-12
358 2 0.00729556 0.00732275 0.0144063 0.001 1.0472e-05 3.53304e-12 1.16474e-12 1.28001e-12
359 2 0.0071229 0.00180934 0.00663761 0.001 1.0472e-05 -1.78269e-11 -4.91171e-12 1.32325e-11
360 2 0.0114896 0.00278583 0.00991674 0.001 1.0472e-05 1.07387e-12 3.60875e-12 -1.24334e-12
361 2 0.0139797 0.00561908 0.0141586 0.001 1.0472e-05 9.34673e-12 7.87372e-12 -5.64863e-12
362 2 0.0116254 0.00486107 0.00853649 0.001 1.0472e-05 -7.41287e-12 8.69727e-12 -1.76947e-13
363 2 0.00124925 0.00524275 0.0125171 0.001 1.0472e-05 2.15391e-12 3.31474e-12 -5.40985e-12
364 2 0.0130962 0.00609655 0.0124864 0.001 1.0472e-05 2.16211e-11 1.3189e-12 -2.19271e-12
365 2 0.0117368 0.00248918 0.0144861 0.001 1.0472e-05 2.30463e-12 1.44131e-12 6.29026e-13
366 2 0.0116804 0.00331426 0.0119383 0.001 1.0472e-05 3.46864e-12 2.63116e-12 -7.30069e-13
367 2 0.0103137 0.00792974 0.0145152 0.001 1.0472e-05 1.71402e-11 -6.79237e-13 3.61602e-11
368 2 0.0132729 0.000112687 0.00460416 0.001 1.0472e-05 -1.21837e-11 4.02704e-12 7.60503e-12
369 2 0.0106922 0.007991 0.00484918 0.001 1.0472e-05 8.36764e-13 -5.41453e-12 4.86673e-12
370 2 0.0103604 0.0103756 0.0038368 0.001 1.0472e-05 2.22937e-12 1.59879e-11 -2.03273e-11
371 2 0.000581356 0.00645643 0.000934783 0.001 1.0472e-05 -1.41434e-09 1.05352e-09 2.06056e-10
372 2 0.0110253 0.00746543 0.000914634 0.001 1.0472e-05 1.34731e-11 9.12423e-12 6.68578e-12
373 2 0.00666804 0.00736595 0.00403058 0.001 1.0472e-05 2.43344e-12 -1.17535e-12 -2.06842e-11
374 2 0.0078398 0.0106795 0.000784259 0.001 1.0472e-05 2.34431e-11 -2.06862e-11 9.69134e-11
375 2 0.00942579 0.0092672 0.000909372 0.001 1.0472e-05 -5.05562e-12 -6.9709e-13 1.81721e-12
376 2 0.00872273 0.012378 0.00353635 0.001 1.0472e-05 4.37245e-13 -2.47904e-12 3.48867e-12
377 2 0.0113609 0.00961836 0.000839591 0.001 1.0472e-05 6.77068e-12 -9.56009e-12 -8.19306e-12
378 2 0.00949173 0.000952957 0.00414294 0.001 1.0472e-05 1.24129e-13 1.35448e-12 -4.49331e-12
379 2 0.0095692 0.00985213 0.00542353 0.001 1.0472e-05 -1.8476e-11 -1.53551e-11 2.10729e-12
380 2 0.014834 0.012815 0.000846235 0.001 1.0472e-05 2.12484e-11 3.839e-11 1.58932e-11
381 2 0.0139221 0.00863387 0.00493677 0.001 1.0472e-05 1.64918e-11 -3.73574e-11 -3.84094e-11
382 2 0.00722783 0.0143659 0.00390681 0.001 1.0472e-05 6.9677e-13 -1.46209e-11 -5.96556e-12
383 2 0.0122199 0.0121278 0.000798117 0.001 1.0472e-05 -1.13243e-11 1.80944e-11 -9.64512e-12
384 2 0.0106086 0.0122913 0.00347158 0.001 1.0472e-05 -1.23035e-12 5.57598e-12 -2.29237e-11
385 2 0.00785634 0.0132441 0.00581836 0.001 1.0472e-05 4.96404e-12 -4.46546e-13 2.03684e-12
386 2 0.0119612 0.0105134 0.00716012 0.001 1.0472e-05 -5.04261e-12 1.54526e-12 5.28808e-13
387 2 0.0124554 0.0139978 0.000826265 0.001 1.0472e-05 7.81324e-12 -2.71799e-11 8.32332e-12
388 2 0.0088783 0.00839685 0.00426246 0.001 1.0472e-05 -5.7389e-12 -1.80848e-11 2.14098e-12
389 2 0.0146309 0.0126337 0.00270099 0.001 1.0472e-05 3.39401e-14 2.89776e-11 3.94822e-11
390 2 0.0142575 0.0146048 0.000890746 0.001 1.0472e-05 -2.11267e-11 6.35025e-11 1.88318e-11
391 2 0.0124734 0.00766453 0.00556783 0.001 1.0472e-05 2.47335e-11 5.62635e-11 1.02427e-11
392 2 0.000826753 0.00157863 0.000903938 0.001 1.0472e-05 -8.858e-11 1.08286e-10 -2.99603e-11
393 2 0.0136613 0.00894955 0.00686641 0.001 1.0472e-05 2.02933e-11 -3.80498e-12 -1.83087e-11
394 2 0.013888 0.0131555 0.00549963 0.001 1.0472e-05 -1.7644e-12 -3.59841e-12 1.22627e-11
395 2 0.000533971 0.010151 0.00629491 0.001 1.0472e-05 2.64646e-11 1.92149e-12 -1.27681e-11
396 2 0.00906343 0.0143338 0.00330307 0.001 1.0472e-05 4.29437e-13 2.40972e-12 -2.89152e-12
397 2 0.00699579 0.0125286 0.00433931 0.001 1.0472e-05 -6.02529e-12 -9.39296e-13 -1.65856e-12
398 2 0.000708514 0.01507 0.0011872 0.001 1.0472e-05 1.15726e-11 1.08528e-10 -2.89151e-12
399 2 0.00955336 0.0148107 0.00515429 0.001 1.0472e-05 1.44298e-11 1.42193e-11 -2.2447e-11
400 2 0.00821013 0.0108382 0.00457133 0.001 1.0472e-05 -5.15378e-13 1.02072e-11 -1.33495e-11
401 3 0.0099272 0.0128128 0.00531978 0.00125 2.04531e-05 8.6001e-12 -1.10378e-11 1.46488e-11
402 3 0.0109517 0.0086338 0.00273717 0.00125 2.04531e-05 9.57317e-12 6.05518e-12 4.93182e-12
403 3 0.0114223 0.000540981 0.00103616 0.00125 2.04531e-05 -1.28488e-11 -2.1971e-11 -1.3117e-11
404 3 0.000206758 0.00800877 0.00608716 0.00125 2.04531e-05 7.16528e-11 -2.06601e-11 -7.80929e-12
405 3 0.00867428 0.00718723 0.00117911 0.00125 2.04531e-05 -2.22291e-11 1.7876e-11 6.44645e-12
406 3 0.00882915 0.00815255 0.00649621 0.00125 2.04531e-05 3.74371e-12 -5.57105e-11 -1.39687e-11
407 3 0.000245622 0.00939612 0.00394187 0.00125 2.04531e-05 2.83998e-11 5.96614e-11 2.31962e-11
408 3 0.0124261 0.0059906 0.00169436 0.00125 2.04531e-05 2.91076e-11 2.02986e-13 -8.14208e-11
409 3 0.0152092 4.1469e-05 0.00353832 0.00125 2.04531e-05 -6.96102e-12 -8.68962e-12 2.53456e-11
410 3 0.0099705 0.011232 0.00696161 0.00125 2.04531e-05 -3.93462e-12 -3.1834e-12 1.1232e-11
411 3 0.00868276 0.0103394 0.00260597 0.00125 2.04531e-05 -5.50709e-11 1.66594e-11 -8.11889e-11
412 3 0.0140053 0.0107202 0.0055212 0.00125 2.04531e-05 7.77544e-12 -2.56752e-11 2.75759e-11
413 3 0.0132777 0.0142924 0.0027546 0.00125 2.04531e-05 3.65546e-11 -2.62237e-11 -1.74992e-11
414 3 0.0148344 0.00747267 0.00264417 0.00125 2.04531e-05 1.46628e-10 8.53487e-11 -9.77354e-11
415 3 0.000428368 0.0132731 0.00439748 0.00125 2.04531e-05 -2.08073e-11 -2.55422e-13 2.40571e-11
416 3 0.0129536 0.0121543 0.00390938 0.00125 2.04531e-05 -1.39529e-12 2.94806e-11 -1.03805e-11
417 3 0.00732996 0.012393 0.00191011 0.00125 2.04531e-05 6.91324e-12 2.82503e-12 2.43489e-11
418 3 0.0118051 0.00978982 0.00519802 0.00125 2.04531e-05 -1.46245e-11 6.0707e-12 8.81538e-12
419 3 0.0130901 0.0082705 0.00117266 0.00125 2.04531e-05 1.01348e-10 -5.95881e-12 -3.17708e-11
420 3 0.00769143 2.87285e-05 0.00574883 0.00125 2.04531e-05 -5.69355e-12 4.30903e-12 9.11303e-12
421 3 0.0116779 0.0109676 0.00235501 0.00125 2.04531e-05 -2.14957e-11 4.07693e-11 2.52321e-11
422 3 0.00149237 0.00091399 0.00518646 0.00125 2.04531e-05 9.81392e-12 -5.00058e-11 8.59628e-11
423 3 0.014748 0.0107669 0.00158044 0.00125 2.04531e-05 -2.35426e-10 1.54688e-10 -6.33546e-11
424 3 0.0107256 0.0138129 0.00197968 0.00125 2.04531e-05 2.68585e-11 1.83008e-11 -1.27059e-11
425 3 0.00847946 0.0143992 0.00117373 0.00125 2.04531e-05 -1.97132e-13 1.69839e-11 1.9763e-13
426 3 0.00985726 0.0117956 0.00109942 0.00125 2.04531e-05 5.64443e-12 4.20189e-12 1.23841e-11
427 3 0.0133502 0.00978192 0.00333575 0.00125 2.04531e-05 -2.63001e-12 4.00058e-11 1.00307e-11
428 3 0.00752037 0.000754775 0.00258906 0.00125 2.04531e-05 -2.28413e-11 -2.02566e-11 5.78188e-11
429 3 0.00691007 0.00881079 0.00131709 0.00125 2.04531e-05 -6.66644e-11 6.77826e-12 -4.8242e-12
430 3 0.0114124 0.0142856 0.00415337 0.00125 2.04531e-05 6.08089e-12 1.65044e-11 2.66148e-11
431 3 0.000414601 0.0109652 0.0142292 0.00125 2.04531e-05 2.6626e-12 -3.41819e-12 4.21316e-14
432 3 2.69741e-05 0.0132678 0.0104445 0.00125 2.04531e-05 1.0217e-11 6.01953e-12 1.78701e-11
433 3 0.00753677 0.0141543 0.0142122 0.00125 2.04531e-05 8.88714e-13 4.03673e-12 2.19746e-12
434 3 0.00607424 0.00187391 0.00840978 0.00125 2.04531e-05 -1.29716e-13 -1.66295e-11 -5.41479e-12
435 3 0.00784831 0.0118059 0.0142923 0.00125 2.04531e-05 4.21859e-12 1.03208e-12 1.99134e-12
436 3 0.0100177 0.0144228 0.00720706 0.00125 2.04531e-05 1.4932e-11 -1.07672e-11 1.33215e-11
437 3 0.00884276 4.55432e-05 0.0127172 0.00125 2.04531e-05 2.61822e-12 6.35645e-15 2.00045e-12
438 3 0.0137234 0.0113471 0.00784564 0.00125 2.04531e-05 4.59445e-12 1.07628e-11 1.01891e-11
439 3 0.0140303 0.0147639 0.012746 0.00125 2.04531e-05 -1.65147e-11 7.93009e-12 1.42086e-11
440 3 0.0130757 0.0106725 0.0118092 0.00125 2.04531e-05 -9.96438e-12 -2.7794e-11 1.07156e-11
441 3 0.0146439 0.00905744 0.0126353 0.00125 2.04531e-05 -2.60537e-11 -1.43047e-11 -2.95408e-11
442 3 0.00676024 0.00822546 0.0097384 0.00125 2.04531e-05 1.1415e-11 -4.84834e-12 5.16335e-12
443 3 0.00753778 0.00676231 0.00798747 0.00125 2.04531e-05 1.585e-11 -4.89049e-12 8.78522e-12
444 3 0.0108659 0.011259 0.0107344 0.00125 2.04531e-05 -2.51952e-11 1.90634e-11 2.11988e-11
445 3 0.013001 0.014645 0.00662837 0.00125 2.04531e-05 -2.35016e-11 4.39826e-11 -1.90666e-11
446 3 0.0128084 0.0127629 0.0103367 0.00125 2.04531e-05 5.84959e-12 4.59246e-12 1.53505e-11
447 3 0.000141591 0.00027069 0.00783099 0.00125 2.04531e-05 9.13316e-11 4.23556e-12 -3.12156e-12
448 3 0.0132766 0.00828608 0.0108946 0.00125 2.04531e-05 1.07199e-11 2.00294e-11 1.88592e-11
449 3 0.00819572 0.0126046 0.00780329 0.00125 2.04531e-05 9.68865e-12 5.46536e-12 1.11122e-11
450 3 0.0112654 0.00669916 0.0115973 0.00125 2.04531e-05 2.04968e-11 -4.4372e-12 4.54123e-12
451 3 0.00802975 0.0102599 0.00967924 0.00125 2.04531e-05 1.84067e-11 8.24629e-12 3.78188e-12
452 3 0.00913674 0.0129533 0.012307 0.00125 2.04531e-05 1.10726e-11 -2.85123e-12 4.07555e-12
453 3 0.00864166 0.00939466 0.0142386 0.00125 2.04531e-05 1.09135e-11 4.90792e-12 -7.7929e-13
454 3 0.000664174 0.0115122 0.0119648 0.00125 2.04531e-05 1.18186e-11 1.0438e-12 5.04718e-12
455 3 0.00719365 0.00847032 0.0125301 0.00125 2.04531e-05 6.81008e-12 3.08982e-12 8.32352e-13
456 3 0.00618894 0.0100052 0.0142038 0.00125 2.04531e-05 5.75668e-12 -6.66498e-12 6.19174e-12
457 3 0.000497835 0.00663433 0.0142236 0.00125 2.04531e-05 -1.60952e-11 -5.72733e-12 -2.7468e-12
458 3 0.0132421 0.00994916 0.0142762 0.00125 2.04531e-05 -6.45056e-12 -2.43857e-12 -7.29376e-12
459 3 0.014891 0.00921022 0.00870052 0.00125 2.04531e-05 2.59104e-11 -4.65298e-12 -4.13741e-11
460 3 0.0122769 0.012054 0.0135245 0.00125 2.04531e-05 1.83253e-11 5.60545e-12 -2.06132e-12
461 3 0.00537068 0.00720536 0.0115956 0.00125 2.04531e-05 1.11011e-11 -3.69675e-12 6.28597e-12
462 3 0.010175 0.00136039 0.0113075 0.00125 2.04531e-05 1.10881e-11 3.40273e-12 2.93384e-12
463 3 0.0068 0.00585944 0.0101926 0.00125 2.04531e-05 3.87824e-11 2.83112e-13 1.10998e-11
464 3 0.00771821 0.0102894 0.00720679 0.00125 2.04531e-05 2.17304e-12 1.98332e-11 2.01261e-12
465 3 0.00715342 0.0135789 0.0110086 0.00125 2.04531e-05 1.52091e-11 -9.57297e-13 -5.76922e-12
466 3 0.0113018 0.0141158 0.0118061 0.00125 2.04531e-05 1.10509e-80 -2.59426e-80 -5.73899e-80
467 3 0.0123507 0.0142329 0.0142633 0.00125 2.04531e-05 8.5688e-13 1.20055e-12 -7.18344e-12
468 3 0.00100868 0.00951586 0.0107396 0.00125 2.04531e-05 1.23543e-11 7.22162e-12 -6.04048e-12
469 3 0.00952476 0.00789509 0.0126001 0.00125 2.04531e-05 1.03531e-11 2.65637e-12 -2.0842e-11
470 3 0.0116084 0.00904377 0.0127428 0.00125 2.04531e-05 3.3616e-11 3.25504e-11 -1.15861e-11
471 3 0.00768599 0.00181977 0.0116558 0.00125 2.04531e-05 1.2157e-11 5.15627e-13 5.98129e-12
472 3 0.014227 0.0136583 0.00840087 0.00125 2.04531e-05 3.83392e-11 -6.33322e-12 4.58364e-11
473 3 0.0078481 0.0149638 0.0081765 0.00125 2.04531e-05 2.27975e-12 1.33717e-11 4.19934e-12
474 3 0.0125271 0.00757593 0.00873234 0.00125 2.04531e-05 2.9213e-11 1.32606e-11 -9.02513e-12
475 3 0.00999275 0.0139587 0.0142547 0.00125 2.04531e-05 3.92116e-12 2.52158e-12 1.28789e-12
476 3 0.0144214 0.0129272 0.0142102 0.00125 2.04531e-05 -5.56118e-12 -2.9534e-12 -6.07726e-12
477 3 0.0125518 0.0102078 0.00950759 0.00125 2.04531e-05 5.84055e-11 4.44368e-11 -1.46861e-11
478 3 3.52536e-05 0.00733108 0.0104712 0.00125 2.04531e-05 3.55185e-12 1.00547e-11 -2.43301e-11
479 3 0.00924117 0.00762647 0.00936513 0.00125 2.04531e-05 2.26704e-11 1.35959e-11 5.13325e-12
480 3 0.00906052 0.010029 0.0117812 0.00125 2.04531e-05 2.78609e-12 1.17885e-11 1.23678e-12
481 3 0.0138485 0.0150226 0.0103719 0.00125 2.04531e-05 -2.09921e-12 5.25264e-12 1.03282e-11
482 3 0.00898234 0.0124593 0.0100091 0.00125 2.04531e-05 3.58716e-12 5.21618e-12 5.37594e-12
483 3 0.00935402 0.0148382 0.0100723 0.00125 2.04531e-05 8.11882e-12 -6.80883e-13 2.75507e-12
484 3 0.000487048 0.0150457 0.01423 0.00125 2.04531e-05 -2.12792e-12 2.85431e-12 9.12523e-12
485 3 0.0101187 0.0111473 0.013615 0.00125 2.04531e-05 -2.76594e-12 -5.30234e-13 7.19788e-12
486 3 0.0146414 0.0110982 0.0100804 0.00125 2.04531e-05 2.39323e-12 3.41521e-12 5.08127e-13
487 3 0.00135964 0.0142485 0.00642244 0.00125 2.04531e-05 -2.52497e-12 -1.10473e-11 4.7006e-11
488 3 0.0148551 0.0069214 0.00813757 0.00125 2.04531e-05 2.17513e-11 1.32292e-11 -4.04921e-11
489 3 0.0110015 0.00870647 0.0104428 0.00125 2.04531e-05 -1.63476e-11 -3.44248e-11 3.83144e-11
490 3 0.0111456 0.00842479 0.00703801 0.00125 2.04531e-05 4.57391e-11 1.62707e-11 -1.44046e-11
491 3 0.0117725 0.012726 0.00724992 0.00125 2.04531e-05 -7.30076e-12 -6.31833e-13 3.91636e-11
492 3 0.0129773 0.00756246 0.0141152 0.00125 2.04531e-05 1.10758e-11 7.49741e-12 2.7308e-12
493 3 0.000799686 0.000139169 0.0101034 0.00125 2.04531e-05 8.95709e-12 -9.73927e-13 -1.41381e-11
494 3 0.0116504 0.000247567 0.00982538 0.00125 2.04531e-05 1.08389e-11 7.24094e-12 2.83154e-12
495 3 0.00635496 0.000150096 0.0126338 0.00125 2.04531e-05 1.15144e-12 4.72852e-12 6.6468e-12
496 3 0.000104595 0.0122813 0.00662167 0.00125 2.04531e-05 7.77501e-12 -7.04844e-12 3.25767e-11
497 3 0.00890359 0.00615051 0.0112315 0.00125 2.04531e-05 2.17918e-11 3.52415e-12 9.43591e-12
498 3 0.0114166 0.000946551 0.00761475 0.00125 2.04531e-05 2.03604e-11 6.52098e-12 1.40859e-11
499 3 0.0099601 0.00974874 0.00861431 0.00125 2.04531e-05 1.07063e-11 3.70299e-12 8.4037e-13
500 3 0.00664752 0.000316691 0.0101581 0.00125 2.04531e-05 8.40801e-12 4.76262e-12 -1.25103e-16
