ITEM: TIMESTEP
150000
ITEM: NUMBER OF ATOMS
500
ITEM: BOX BOUNDS pp pp ff
0.0000000000000000e+00 1.5370634520482899e-02
0.0000000000000000e+00 1.5370634520482899e-02
0.0000000000000000e+00 1.5370634520482899e-02
ITEM: ATOMS id type x y z vx vy vz omegax omegay omegaz radius mass fx fy fz
1 1 6.101353167359e-03 5.883914302259e-03 7.264574537502e-04 5.665055188141e-09 6.344262222924e-08 4.648954583364e-09 -9.131449888858e-05 3.320774314508e-07 -1.992486009963e-05 7.500000000000e-04 4.417864669111e-06 -2.062476512386e-12 -4.336281226256e-11 -3.653926893412e-12
2 1 1.171757826328e-02 4.715805103058e-03 1.473851290292e-02 -5.141047537073e-10 -5.783218663735e-10 -7.614314039973e-10 -6.747551408334e-07 5.933418005559e-07 -8.343600398245e-07 7.500000000000e-04 4.417864669111e-06 1.000238496764e-13 1.606301520887e-12 9.176155308309e-13
3 1 1.315933366600e-02 6.537978910826e-03 1.114593278165e-02 -3.465827602343e-09 -2.228386317856e-10 -2.163377512206e-09 -1.989151269274e-06 -3.038953283787e-06 -2.437428790607e-06 7.500000000000e-04 4.417864669111e-06 -2.314728867766e-14 2.073782964040e-12 1.484924004649e-12
4 1 5.642639693843e-03 4.961251699455e-03 7.819385869615e-03 -8.804526472348e-09 -2.664348213439e-08 -1.127666228063e-09 -1.649078356411e+00 -4.988158773491e+00 -2.122093521694e-01 7.500000000000e-04 4.417864669111e-06 5.351425637039e-12 1.585143499208e-11 6.593312113763e-13
5 1 1.286125773832e-02 1.048390851003e-02 1.180786183061e-02 -3.397018540443e-09 -2.045421672224e-09 -4.452327362338e-09 -3.337632807819e-06 3.489017150205e-06 1.731285518227e-06 7.500000000000e-04 4.417864669111e-06 3.919108356402e-12 2.337654132648e-12 3.884911956073e-12
6 1 1.073250220097e-02 1.093374515444e-02 1.202310992874e-02 -3.989312618298e-09 -3.867816289009e-09 -3.785867154349e-09 -2.413004255459e-06 4.004724424652e-06 4.217042615745e-06 7.500000000000e-04 4.417864669111e-06 3.262182083814e-12 2.835209895829e-13 3.758839553378e-12
7 1 1.530500872158e-02 1.828704329165e-04 1.463921316647e-02 -5.342549000340e-10 -1.049429430019e-09 7.558639136004e-12 -1.331886704192e-06 7.825694850869e-07 -5.863795988925e-07 7.500000000000e-04 4.417864669111e-06 3.234195383067e-13 2.296279478565e-13 9.908724013045e-13
8 1 4.080944352532e-04 1.354944592946e-02 1.057869399935e-02 -1.407879163263e-09 -3.864683680871e-09 -2.585630152097e-09 7.166641873168e-07 1.476062978436e-07 -1.567795474988e-06 7.500000000000e-04 4.417864669111e-06 4.592635755876e-13 2.581293485438e-12 7.456591450123e-13
9 1 3.219484692934e-03 5.307425447478e-03 6.397296392423e-04 -7.798126476597e-09 2.395286244298e-09 -5.345389435386e-09 8.098057093811e-06 2.367754538097e-06 -9.506751303348e-07 7.500000000000e-04 4.417864669111e-06 1.895587839170e-11 -1.435220409569e-11 1.333162255085e-11
10 1 1.516006009945e-02 1.132085997028e-02 6.652772929785e-03 -3.609946642180e-09 -5.263615830103e-09 -2.708266322954e-09 -1.368945255697e-06 2.391298314563e-06 1.234186469713e-06 7.500000000000e-04 4.417864669111e-06 2.583312944234e-12 2.320463195694e-12 2.494676950545e-12
11 1 1.332628846112e-02 1.064217120630e-02 7.076022184549e-03 -8.892991695444e-09 -1.260102135187e-08 -6.333211513013e-09 3.375752395079e-05 4.299842650119e-06 -1.909081266111e-05 7.500000000000e-04 4.417864669111e-06 5.549043713748e-12 7.868077566668e-12 4.847369678827e-12
12 1 3.507267399269e-03 2.574922463891e-03 6.798849891483e-03 3.240681424004e-09 -1.326687492015e-09 -3.407177724927e-09 5.413353922894e-06 -3.377377576814e-07 -2.655855540359e-06 7.500000000000e-04 4.417864669111e-06 -1.723951966586e-12 5.956210562781e-13 4.818017855822e-12
13 1 9.297780375523e-03 4.160145716541e-03 5.995227568703e-04 -3.537161345568e-09 1.170943492097e-08 9.337838644585e-09 -1.144750334460e-05 9.720112219887e-06 -3.258467856961e-05 7.500000000000e-04 4.417864669111e-06 1.186602256036e-11 -6.289477832313e-12 -1.889005183869e-11
14 1 1.229710142354e-02 1.175982175882e-02 4.035347378276e-03 -4.891334804856e-09 -2.451701154856e-09 -1.597241169702e-09 -1.121257670940e-06 2.261055938174e-06 -5.111131558144e-06 7.500000000000e-04 4.417864669111e-06 3.082235790870e-12 6.393626622707e-13 -8.166470351941e-13
15 1 3.249351086568e-03 5.132985159558e-03 4.022307906616e-03 3.521425431867e-09 -6.202391897449e-09 -9.104319588652e-09 -1.230994523485e-05 -1.975217089525e-05 9.032100796183e-06 7.500000000000e-04 4.417864669111e-06 -1.262348779145e-12 5.386080301584e-12 5.972935088341e-12
16 1 1.417886653891e-02 1.520142896848e-02 7.225029379326e-03 -1.736196109776e-09 -4.232501430980e-09 4.267247220034e-10 -2.240564694278e-06 1.612602602959e-06 -6.975916738059e-07 7.500000000000e-04 4.417864669111e-06 4.229732385038e-13 1.796841310549e-12 -1.265794912235e-12
17 1 1.321897768170e-02 1.225802110525e-02 1.459186082366e-02 1.392633112250e-290 1.018646863086e-290 -9.510532349722e-292 -1.900668377723e+03 3.361672874693e+03 -6.080980550617e+02 7.500000000000e-04 4.417864669111e-06 -1.395792540265e-291 -1.020957838897e-291 9.532108629993e-293
18 1 4.202461021250e-03 1.305518377630e-03 6.959966474850e-03 4.340824280524e-10 -5.099629355508e-09 -3.770640400978e-09 -5.821063452694e-06 3.503819382977e-06 -3.149036700745e-06 7.500000000000e-04 4.417864669111e-06 -4.247634862770e-12 -8.471833728576e-13 4.301074142529e-12
19 1 6.729531516627e-03 1.549973823486e-03 2.926040379395e-03 3.609815414767e-10 7.183373399052e-09 2.842547815280e-09 3.474517435452e-06 -1.697407551017e-06 -4.011311765502e-06 7.500000000000e-04 4.417864669111e-06 5.403176716798e-13 -3.615609829792e-12 -5.615641146396e-12
20 1 1.342723924368e-02 5.099739751339e-03 1.467695758102e-02 -6.924096590136e-10 -2.325732064561e-10 -2.797349788654e-12 -3.126076917846e-07 9.375132552584e-07 -3.509668621708e-07 7.500000000000e-04 4.417864669111e-06 6.293307364330e-13 8.894224073597e-13 -5.866787710092e-13
21 1 1.025593199555e-02 1.220119585505e-02 1.182388677496e-02 -3.807005033989e-09 -3.169279195948e-09 -1.848891763427e-09 3.634196158140e-06 1.790042130231e-07 -5.023338417467e-06 7.500000000000e-04 4.417864669111e-06 2.896832939751e-12 4.105563215121e-12 1.718798071836e-13
22 1 9.064840469177e-04 8.763434117322e-03 2.033253148250e-03 -2.752913517259e-09 -1.196886018603e-09 2.624855501477e-10 -5.323247661999e-07 -2.423259876605e-06 -1.031526419766e-06 7.500000000000e-04 4.417864669111e-06 3.318536206397e-12 2.155668479626e-12 -1.474267677482e-12
23 1 1.186282988973e-02 1.039605165369e-02 1.285769971407e-02 -1.486719696778e-09 -1.283918651356e-09 -1.643030116085e-09 8.143436119323e-07 3.191212240540e-07 -7.233028161807e-08 7.500000000000e-04 4.417864669111e-06 1.218244431094e-12 -2.623442289551e-13 1.263060607633e-13
24 1 9.029985830886e-03 3.063555661856e-04 3.664447146170e-03 -1.730169974600e-09 5.188263601182e-09 -1.225329155747e-09 4.733628425667e-06 1.811996116522e-06 -1.116861117041e-05 7.500000000000e-04 4.417864669111e-06 7.661861902650e-13 -6.684229072273e-12 -3.422639434866e-12
25 1 7.886323834248e-03 7.266962334148e-03 8.809594560937e-03 -3.133604281822e-09 -4.337682991353e-09 -4.578060862045e-09 7.128932589202e-07 -2.027999785706e-06 1.894199276929e-07 7.500000000000e-04 4.417864669111e-06 2.063559023020e-12 5.282741568161e-12 4.441134671286e-12
26 1 1.107989624338e-02 8.232831100560e-03 6.639517636048e-04 -5.656830930312e-09 8.293534588246e-10 -1.801290548031e-09 -2.540036690891e-06 -5.659776944972e-06 -4.084336926260e-06 7.500000000000e-04 4.417864669111e-06 3.877371904275e-12 -1.453191843107e-12 1.966580573634e-12
27 1 5.940500341312e-03 3.064271703949e-03 6.842228071869e-04 2.189071571859e-08 2.918969684682e-09 7.693684269003e-09 5.140019105054e-06 2.759304443669e-05 -1.396150658548e-05 7.500000000000e-04 4.417864669111e-06 -1.319918477842e-11 -5.882804935478e-12 -4.405424887773e-12
28 1 7.468320404126e-03 5.379186432180e-04 2.002785455790e-03 1.049373123735e-09 -2.881140360613e-09 1.575669024976e-09 -2.626601012193e-07 3.635226623519e-06 6.510500085760e-06 7.500000000000e-04 4.417864669111e-06 2.440266951912e-12 -1.723744817862e-12 1.302757157571e-13
29 1 1.280374900638e-04 1.236561054725e-02 1.128896676609e-02 -1.805049379226e-09 -3.103349203294e-09 -2.107436315381e-09 -7.713856627088e-07 3.498168506973e-06 -9.423191227366e-07 7.500000000000e-04 4.417864669111e-06 8.930244800643e-13 1.090955732041e-12 3.340596446605e-13
30 1 5.949732984647e-04 1.054295676468e-02 1.466000032395e-02 -4.288847830477e-10 -1.070470876103e-09 -2.156367874420e-10 -9.560858813982e-07 -3.711921869105e-07 1.816740500184e-07 7.500000000000e-04 4.417864669111e-06 5.387138725495e-13 7.624448371480e-13 -1.691533141661e-13
31 1 1.033327231685e-02 1.536049328967e-02 1.465435013409e-02 -1.757989943744e-10 -7.193110639680e-10 -1.888347241978e-10 -1.764312101170e-07 -1.308799039873e-07 -9.362573560393e-07 7.500000000000e-04 4.417864669111e-06 -7.829171869108e-14 1.042697631927e-12 4.840925936109e-13
32 1 6.726031476600e-03 1.095012757782e-02 2.836338494305e-03 3.080173324770e-278 -3.025190595325e-277 -6.359041138979e-277 -1.648419961418e+02 -2.504815919863e+02 3.073225324936e+02 7.500000000000e-04 4.417864669111e-06 -3.087161228338e-279 3.032053761103e-278 6.373467718778e-278
33 1 6.295695519946e-03 4.462828416156e-03 1.062365516580e-03 1.713988764213e-09 4.894369682861e-08 -2.764889829857e-08 1.515582312841e-04 -4.872492741310e-05 2.812986601076e-05 7.500000000000e-04 4.417864669111e-06 1.864848698769e-12 -3.182439587059e-11 1.723906013488e-11
34 1 4.749878882461e-03 1.359965783421e-02 7.014576669589e-04 7.562438543611e-10 -1.813768273880e-09 -2.027487551352e-10 1.881912253087e-06 6.090710352477e-07 4.278777476169e-06 7.500000000000e-04 4.417864669111e-06 -1.101687573188e-12 1.070663368908e-12 -4.785519940560e-13
35 1 4.524325400072e-03 9.088915808143e-04 1.772930420890e-03 1.294079237057e-08 -1.152743201571e-08 1.854454175017e-09 5.871466156538e-06 -3.270846609444e-06 -1.576979417940e-05 7.500000000000e-04 4.417864669111e-06 -1.470430253142e-11 7.797210821415e-13 -6.630109860964e-12
36 1 8.087504559084e-04 7.973134369156e-03 5.120103975441e-03 -3.591778121102e-09 -1.200552806581e-09 -2.739466610036e-09 5.127661483962e-07 -9.846413013885e-08 4.748506906075e-07 7.500000000000e-04 4.417864669111e-06 3.152244011889e-12 3.124476978186e-12 2.549754357656e-12
37 1 2.814583688982e-03 1.283579251029e-02 5.756291794805e-03 2.066960121104e-07 -5.218135457357e-07 -8.453927382193e-07 6.383851339012e-04 1.014167620246e-03 -4.667066137485e-04 7.500000000000e-04 4.417864669111e-06 -9.828531935168e-11 2.478409197950e-10 4.017418805491e-10
38 1 1.747258549552e-03 8.282559320310e-03 3.620450755275e-03 -2.076253629359e-09 -1.483846790468e-10 -8.264929131659e-10 1.860114936861e-06 -2.742944939051e-06 3.726741780883e-06 7.500000000000e-04 4.417864669111e-06 -2.407441842092e-11 1.245815884554e-12 -1.363113407275e-11
39 1 6.925304860596e-03 1.219488344750e-02 1.405246457842e-02 7.775430444389e-10 -2.377709338098e-09 1.949017792080e-09 3.364261514467e-06 -4.307561613356e-06 -1.827729154757e-06 7.500000000000e-04 4.417864669111e-06 -1.157531063445e-12 3.530026097659e-12 -1.422491276380e-12
40 1 4.967081746178e-03 2.327082624719e-03 1.217342021605e-02 -9.779344832529e-10 -2.408993360207e-09 -1.785436123742e-10 -1.033085707610e-06 -2.188042332285e-07 8.282130731154e-07 7.500000000000e-04 4.417864669111e-06 1.451134856507e-12 -5.298798494492e-13 -8.319091904149e-13
41 1 1.485067294217e-02 2.550313406300e-03 1.025423754224e-02 -4.086542916563e-288 1.366640067657e-288 4.544194393336e-288 2.275177583602e+02 -4.419301903712e+02 3.607398096088e+02 7.500000000000e-04 4.417864669111e-06 4.095813942839e-289 -1.369740525974e-289 -4.554503680790e-289
42 1 6.085164784519e-03 2.572675281954e-03 1.472321515346e-02 -2.672587405347e-10 -9.272280637255e-10 -8.679648888712e-11 -5.681432720017e-07 1.971422081924e-07 6.074874801947e-07 7.500000000000e-04 4.417864669111e-06 -1.030702327354e-12 7.895228192370e-13 9.105929663883e-13
43 1 9.878863311406e-03 1.240541158638e-02 7.109254816216e-03 -1.198437394468e-09 -5.813185063822e-11 -3.369683045749e-09 4.368618804649e-06 3.858142835436e-06 6.774622223815e-06 7.500000000000e-04 4.417864669111e-06 4.610996684206e-13 1.950297322189e-12 2.488247669224e-12
44 1 9.331598455369e-03 1.154257817314e-02 8.249005755837e-03 -6.033783532196e-09 -3.969371374549e-09 -7.199920726241e-09 5.318846202005e-06 7.261404093511e-07 -4.662820056707e-06 7.500000000000e-04 4.417864669111e-06 4.114090407319e-12 9.277972741598e-12 7.766944133843e-12
45 1 4.983891378039e-04 9.255240722211e-03 9.318559330936e-03 -3.690110372358e-09 -6.044788903539e-09 -2.665942300481e-09 1.753443388572e-06 -6.691174321083e-07 -6.071389231228e-07 7.500000000000e-04 4.417864669111e-06 3.701862553263e-12 2.215670322017e-12 2.399110196531e-12
46 1 7.313903681607e-03 9.278873196751e-03 6.766330386485e-04 3.436494635872e-09 -4.058017828387e-09 -1.553327549280e-11 -2.278276818336e-07 3.440966479960e-07 -6.323650564519e-06 7.500000000000e-04 4.417864669111e-06 8.121268674756e-12 -2.432743799293e-12 2.168748232320e-12
47 1 7.633786361387e-03 1.898495897443e-03 5.823743592106e-03 -4.399073807930e-288 -1.061377402889e-287 6.535420742587e-288 2.624551791848e+01 -6.608426248987e+01 -3.109620793890e+02 7.500000000000e-04 4.417864669111e-06 4.409053864348e-289 1.063785320288e-288 -6.550247469887e-289
48 1 8.283647949811e-03 6.681881106627e-03 1.211863359913e-02 -1.220065859077e-09 -1.463959788557e-09 -2.558716603829e-09 -1.960130282958e-06 6.086567031484e-07 -1.636567589881e-07 7.500000000000e-04 4.417864669111e-06 1.499426990491e-12 7.879465303473e-13 1.037968705418e-12
49 1 6.001092584040e-03 1.358579815895e-02 1.507311004309e-03 2.248463728631e-09 -5.300661280347e-10 2.115388390573e-10 -1.872794994907e-06 3.976075249815e-07 -1.305180945442e-06 7.500000000000e-04 4.417864669111e-06 -2.622797091536e-12 -1.037520598717e-12 9.478476324681e-13
50 1 1.136822546550e-02 1.918261796897e-03 9.633992855555e-03 -7.318045055745e-10 -2.827736062144e-09 -1.534237615613e-09 1.251982355721e-06 1.485969987489e-06 3.876103556899e-08 7.500000000000e-04 4.417864669111e-06 5.732981537706e-14 1.566819971776e-12 2.633847586468e-12
51 1 1.410126107830e-02 1.032528468869e-02 8.322723633851e-03 7.230247520972e-279 -1.721186515502e-278 -5.040213171995e-279 2.045293327175e+03 -2.592213672932e+02 2.169152276849e+03 7.500000000000e-04 4.417864669111e-06 -7.246650582462e-280 1.725091323486e-279 5.051647763459e-280
52 1 5.221919419166e-03 1.375343413831e-02 3.597349951663e-03 9.464935287374e-10 -1.067716333404e-10 -2.433543919836e-09 -6.828060239054e-07 1.320099156992e-06 2.485825962665e-06 7.500000000000e-04 4.417864669111e-06 -1.335979705918e-13 -7.137966999435e-13 1.053091199270e-12
53 1 3.409679348592e-03 9.293352050655e-03 1.303895293472e-02 -1.563552556189e-09 -1.681306649560e-09 -1.838955894572e-09 -7.494738463734e-07 3.775234273640e-07 8.514474571273e-07 7.500000000000e-04 4.417864669111e-06 5.378542088695e-12 2.850666352168e-12 2.474038454408e-12
54 1 4.445875400118e-03 9.891827110499e-03 7.610266686738e-03 2.980123282482e-289 7.536908803788e-290 -1.180221408208e-289 -8.073452895903e+02 3.552416067658e+03 1.589281385265e+03 7.500000000000e-04 4.417864669111e-06 -2.986884205301e-290 -7.554007579204e-291 1.182898943697e-290
55 1 6.480511022169e-03 5.853777995434e-03 1.007653219929e-02 -1.347592214768e-09 -5.098167470135e-09 -2.139571637587e-09 -1.084763945201e-06 4.246269212528e-06 9.292674137065e-08 7.500000000000e-04 4.417864669111e-06 -2.846781267522e-13 4.385434613967e-12 7.543918364896e-13
56 1 8.520737662740e-03 3.419721139106e-03 8.606846664767e-03 4.427049395162e-10 -3.505953738973e-09 -3.929062644716e-09 3.254975079436e-06 -3.748104062533e-06 8.293502961288e-07 7.500000000000e-04 4.417864669111e-06 -1.037333029686e-11 6.444570790404e-12 -5.924249627647e-12
57 1 4.761710260400e-03 1.950919988594e-03 7.265420486640e-04 7.947258703002e-09 4.885960468087e-09 1.031687435508e-09 -9.662371409536e-06 9.196143279075e-06 1.307234089776e-06 7.500000000000e-04 4.417864669111e-06 -5.730176807810e-12 -4.075402280676e-12 -1.648380033312e-12
58 1 3.141554407280e-03 5.268495094323e-03 8.189870359756e-03 2.375401093013e-09 -5.925257843629e-09 -2.976730256675e-09 -1.845493430699e-06 -3.464022778704e-06 -3.600621155768e-07 7.500000000000e-04 4.417864669111e-06 -6.027009437395e-12 3.440353078958e-12 2.125921495461e-12
59 1 6.052468960496e-03 4.404868140633e-03 9.698352208266e-03 3.849089443728e-10 -4.860844655045e-09 -1.067491373940e-09 -3.331977003113e-07 -1.656733196204e-06 -3.228083232429e-07 7.500000000000e-04 4.417864669111e-06 4.236730088911e-13 2.924650746658e-12 1.469376357283e-13
60 1 2.845245490322e-03 6.652359934808e-03 6.793156360545e-04 -4.067737464155e-09 5.325612518310e-10 -8.931222950799e-10 -1.828324819677e-07 -4.334619400011e-06 -2.060235591166e-06 7.500000000000e-04 4.417864669111e-06 1.777556058217e-12 -2.586849855084e-12 2.899365158294e-12
61 1 1.312196195605e-03 8.240754738296e-03 6.870297418103e-04 -8.732414252999e-10 -5.778886290480e-12 -1.853068238201e-10 7.406167891443e-08 -9.690791317760e-07 -1.080978794482e-05 7.500000000000e-04 4.417864669111e-06 1.607350072695e-12 -1.185469664540e-12 5.859125486020e-14
62 1 1.513431656649e-02 1.530133895218e-02 1.290647291141e-02 -3.018345119515e-10 -1.508518364948e-09 -1.111568868383e-09 7.153985654707e-07 -2.296615647327e-06 2.039055138548e-07 7.500000000000e-04 4.417864669111e-06 1.793557123213e-12 1.537647677054e-12 2.667684671712e-12
63 1 6.026053352421e-03 1.004570356707e-02 8.365212261883e-03 -2.431804050953e-09 -4.624235218170e-09 -5.239974686953e-09 9.568704648507e-07 1.258616467342e-06 -6.814441224419e-07 7.500000000000e-04 4.417864669111e-06 2.468769314315e-12 2.930462260199e-13 4.936802264495e-12
64 1 3.448487772786e-03 1.265314766911e-02 3.761295567198e-03 -2.646240454459e-10 -2.692347432126e-09 -3.486131029581e-09 -1.147977162427e-06 -1.630988673367e-06 -4.202628266222e-07 7.500000000000e-04 4.417864669111e-06 -2.276611160501e-12 2.015395467892e-12 6.369535396859e-13
65 1 1.033721593440e-02 9.319237438288e-03 5.750662039415e-03 -1.879209089009e-08 -1.526908271043e-08 -1.600559325033e-08 2.159926115034e-06 1.912705370206e-06 -9.472811481414e-06 7.500000000000e-04 4.417864669111e-06 1.087501502471e-11 4.772442682580e-12 2.138468176713e-12
66 1 5.385501973511e-03 6.275915393142e-03 1.100073449007e-02 -7.722001180844e-10 -2.978347312611e-09 -2.044467518644e-09 -2.021838299368e-06 -3.072698890619e-06 -1.317693286874e-06 7.500000000000e-04 4.417864669111e-06 7.452137602507e-13 3.308851052177e-12 1.495289134065e-12
67 1 1.017458959648e-02 6.931236234834e-03 6.607168085284e-03 -5.185943453715e-09 -1.006674302784e-08 -7.566893172344e-09 -1.922141545507e-05 7.696360651670e-06 -2.721018817740e-06 7.500000000000e-04 4.417864669111e-06 1.068088555487e-11 1.718362916908e-11 -1.123090763992e-11
68 1 1.228153326783e-02 2.717337911646e-03 1.412220166926e-02 -7.429198882793e-10 -1.129256691345e-09 -5.843284361160e-10 3.626842415199e-07 -1.198400429758e-07 3.735889505143e-07 7.500000000000e-04 4.417864669111e-06 -7.679869420789e-13 1.759578859208e-12 -5.390103899119e-13
69 1 1.359428004134e-02 6.965440771837e-03 1.461993574083e-02 -6.869594301267e-09 -1.382641378060e-08 -3.104434130864e-10 -5.071428173141e+02 -8.306582338861e+02 1.494964161462e+03 7.500000000000e-04 4.417864669111e-06 3.769127595653e-12 7.586112271855e-12 1.703304013978e-13
70 1 6.433947193520e-03 1.011074969132e-02 1.504607382132e-03 2.967316334450e-09 -4.327507903595e-09 1.181945119259e-09 8.542345223280e-06 3.129720785085e-07 -1.909027070448e-06 7.500000000000e-04 4.417864669111e-06 -2.730311610836e-11 -6.203468928217e-12 -1.660194229498e-11
71 1 9.403437420654e-03 1.309563059108e-02 1.241660062481e-02 -7.827131875161e-10 -1.662954350084e-09 -4.995391865656e-10 2.069040073521e-06 -2.512804197746e-06 -2.452854221868e-06 7.500000000000e-04 4.417864669111e-06 -6.754076599206e-13 2.003838516407e-12 -5.666193529295e-13
72 1 9.888067207340e-03 1.112273129914e-04 1.137424231748e-02 -2.368643272972e-10 -2.763663179252e-09 -1.726564277498e-09 2.055384298919e-07 -1.361822968551e-06 -1.299496025858e-06 7.500000000000e-04 4.417864669111e-06 -9.774969837444e-13 2.878119667630e-12 1.683505655343e-12
73 1 1.409012948583e-04 6.203291710018e-03 5.119769595441e-03 -2.134372846999e-10 -8.010730520736e-10 -3.974140476476e-09 -5.799361630273e-07 -5.924485583130e-08 7.799862801978e-07 7.500000000000e-04 4.417864669111e-06 -1.433966359223e-12 1.417350335299e-12 9.625941012910e-12
74 1 3.029564773586e-03 8.248188441810e-03 4.186971291712e-03 -1.698524768498e-09 -4.551031838884e-09 -8.868477997366e-10 1.345506892665e-05 3.312472143108e-06 -3.478029287158e-06 7.500000000000e-04 4.417864669111e-06 2.813140271294e-11 2.244058928831e-12 1.044363598691e-11
75 1 4.650284885715e-04 1.500563068537e-02 1.064858004517e-02 -5.721614555478e-10 -3.529182578727e-09 -7.626629113873e-10 8.210290790445e-07 -3.592529105365e-07 1.034212678934e-06 7.500000000000e-04 4.417864669111e-06 -1.068095931360e-12 3.388167267300e-12 1.054648926469e-12
76 1 1.805328980187e-03 1.390589928642e-03 2.458227560557e-03 4.811656488564e-294 -2.384926301354e-293 -1.620296835275e-293 2.227846419732e+03 1.564827747967e+03 6.413044216017e+02 7.500000000000e-04 4.417864669111e-06 -4.822572559836e-295 2.390336917333e-294 1.623972757648e-294
77 1 1.485238124862e-02 1.265298471671e-02 6.092636457983e-03 -1.596537382634e-09 -5.890154450970e-09 -2.494084120974e-09 -2.158246787616e-07 -2.580861402307e-07 -9.023811999503e-07 7.500000000000e-04 4.417864669111e-06 1.707032904938e-12 4.945355753484e-12 1.731678050336e-12
78 1 8.765130654617e-03 9.602759002174e-03 1.461308160452e-02 2.512803715930e-294 -2.166523028847e-293 -8.798499088508e-294 6.362379778727e+03 -5.747344316294e+02 -1.125609938838e+03 7.500000000000e-04 4.417864669111e-06 -2.518504443844e-295 2.171438159396e-294 8.818459998720e-295
79 1 5.868165180078e-03 8.803480794254e-03 1.251411674238e-02 -1.627419434106e-09 -1.529547694471e-09 -2.586985514642e-09 -2.878473422285e-07 1.333510440346e-07 -9.816591556427e-08 7.500000000000e-04 4.417864669111e-06 3.371675556299e-12 1.305758356608e-13 4.528747621067e-13
80 1 5.463880616273e-03 1.120235884950e-03 1.143182179650e-02 -8.610313528455e-10 -3.337847546778e-09 -9.156435323957e-10 2.302753946844e-06 -1.936465181715e-06 1.895010930713e-06 7.500000000000e-04 4.417864669111e-06 -7.473240718891e-13 7.519296592442e-13 3.005966713159e-13
81 1 8.427571784067e-03 3.331490436562e-03 5.038146374076e-03 7.206974555789e-09 -4.506803694632e-10 3.716468952112e-10 9.902521371473e-06 -2.417527105124e-05 -1.573533639605e-05 7.500000000000e-04 4.417864669111e-06 -2.217981940888e-12 1.822714166972e-13 -1.078776845439e-12
82 1 1.876753466144e-03 1.327302545949e-02 1.421711257702e-02 3.719381213629e-10 -8.800567664903e-10 -2.608139633702e-10 2.519369206088e-06 -9.190826438820e-06 -3.279487459623e-07 7.500000000000e-04 4.417864669111e-06 3.905603161913e-13 1.238625132963e-12 4.743120045064e-13
83 1 1.046234995573e-02 1.243366732489e-02 1.037732687887e-02 -3.276121818100e-09 -3.960013951646e-09 -9.838089048536e-10 -3.898053235562e-06 -6.401789088115e-07 -2.563545631012e-07 7.500000000000e-04 4.417864669111e-06 3.049115471390e-12 5.270689401125e-12 2.362666167837e-13
84 1 1.471632481928e-02 1.173392010998e-02 1.472914307465e-02 6.473489080532e-11 -1.137780935097e-09 -5.428000491410e-10 -1.237855892682e-06 -1.562056483557e-07 -1.516524153873e-06 7.500000000000e-04 4.417864669111e-06 -1.100647390768e-13 1.894605197202e-12 1.565941423703e-12
85 1 1.079162047788e-02 1.156963399570e-03 1.093761652418e-02 -8.310765212511e-10 -3.123565500522e-09 -1.640889213522e-09 -3.306378234223e-07 1.518794754691e-06 1.276203865583e-06 7.500000000000e-04 4.417864669111e-06 9.172533136329e-13 1.581282241741e-12 2.221545533158e-12
86 1 2.934788709284e-04 1.074053260545e-02 7.158388174956e-04 -2.069595627208e-10 -4.868955993918e-10 9.864350133106e-12 9.058528153206e-07 1.530079870618e-07 1.856823032628e-07 7.500000000000e-04 4.417864669111e-06 7.088417482638e-13 3.190239921606e-12 1.075446306461e-13
87 1 4.556595587235e-03 5.285380490682e-03 1.468803775437e-02 -2.825574131437e-10 -8.011753653996e-10 -8.182969567224e-10 -9.390451505816e-07 4.205564722855e-07 2.195975935985e-07 7.500000000000e-04 4.417864669111e-06 3.924603576732e-13 1.908410992884e-13 1.062598706097e-12
88 1 4.713086618783e-03 1.098884989919e-02 3.866562693470e-03 -3.922098901568e-09 -5.609680159462e-09 -1.521741673198e-09 9.068530520207e-07 -4.398875131172e-06 -4.145236355936e-06 7.500000000000e-04 4.417864669111e-06 6.175305393929e-13 -7.268768358931e-13 5.871081046675e-12
89 1 9.253265686923e-03 1.420865803006e-02 1.472289437157e-02 -1.045542349112e-09 -4.877058028946e-10 -2.582913486343e-10 -4.530557856171e-07 1.051317616717e-06 2.788062319208e-06 7.500000000000e-04 4.417864669111e-06 9.788874661203e-13 7.192033163134e-14 1.022850504293e-12
90 1 3.746360513423e-03 1.029403356841e-02 4.604371918369e-03 -5.082647401524e-09 -8.385131975694e-09 -4.492297044079e-09 -4.715206936250e-07 -8.564855700933e-07 7.407648882066e-06 7.500000000000e-04 4.417864669111e-06 3.408860860813e-12 3.078394310194e-12 5.749476429910e-12
91 1 1.397465733177e-03 1.210622261880e-03 8.889401889533e-04 1.488974429045e-07 8.197094202106e-08 -1.721959567808e-08 3.333082869262e+01 7.935135589310e+00 -1.030457219749e+01 7.500000000000e-04 4.417864669111e-06 -7.690526516068e-11 -4.235366424730e-11 8.759457389902e-12
92 1 1.312653658334e-02 3.255844847299e-03 1.194634188278e-02 -5.810909267565e-10 -1.201175427250e-09 -8.894878046449e-10 4.309617126377e-07 2.798879048505e-07 -2.211028549078e-07 7.500000000000e-04 4.417864669111e-06 -7.252237380569e-13 -6.519953077369e-13 -3.648303099906e-12
93 1 8.105451719631e-03 1.116945539520e-04 7.213448484817e-04 5.541824310716e-10 -2.121890003202e-10 -2.593597121064e-10 4.356289610028e-07 9.256306518496e-07 2.693975550845e-06 7.500000000000e-04 4.417864669111e-06 -1.938972138682e-14 -1.515621949082e-12 1.150570587742e-12
94 1 9.689545391820e-04 1.016247391127e-02 1.864276384236e-03 -1.594888776324e-09 -1.207364324323e-09 1.384039847005e-10 6.246043175682e-07 -3.228907387284e-06 6.865787002550e-07 7.500000000000e-04 4.417864669111e-06 1.861171584072e-13 -5.706580124674e-13 -1.931276578931e-13
95 1 1.421726766225e-02 1.261669429659e-02 2.135543654515e-03 -1.259531882350e-09 -6.166421031255e-10 8.418022500284e-11 -7.767796360649e-07 -1.540474221514e-07 3.466688118012e-07 7.500000000000e-04 4.417864669111e-06 -5.636597463269e-12 8.022960331367e-12 -5.514031094548e-12
96 1 2.164851285308e-03 3.668676119063e-03 6.605409756097e-03 -8.923725760708e-262 1.348387596998e-260 -2.760955125898e-261 -9.321708230130e+00 -2.482570319847e+01 1.422821172345e+01 7.500000000000e-04 4.417864669111e-06 8.943970769188e-263 -1.351446646443e-261 2.767218828015e-262
97 1 1.428795013027e-02 6.529451707648e-03 2.442072112467e-03 3.392095649039e-09 -2.253706108074e-09 -1.855225545210e-09 -4.553315118265e-06 2.116208172160e-06 3.334991547315e-07 7.500000000000e-04 4.417864669111e-06 2.229387676924e-11 1.537764572593e-11 2.694544387521e-11
98 1 4.922384032142e-03 1.390005128987e-02 1.154767103416e-02 1.579653930370e-07 4.307287284508e-08 -1.636676878645e-07 1.280341770211e-04 -2.099809647568e-04 2.369234963507e-04 7.500000000000e-04 4.417864669111e-06 -7.553359874295e-11 -2.054111233587e-11 7.862242725859e-11
99 1 8.035124616547e-03 1.441708840889e-02 9.984206119827e-03 -1.398272354357e-09 -4.100342530659e-09 -1.109514856103e-09 1.226575112249e-06 2.313864502742e-07 -2.850248879062e-07 7.500000000000e-04 4.417864669111e-06 2.881015907108e-12 2.273828652527e-12 4.991079080847e-13
100 1 1.756997513540e-03 5.362036325191e-03 1.473203767758e-02 -3.149552689715e-10 -4.136595360811e-10 -4.261553679543e-10 -1.632942976468e-07 9.811014416336e-08 5.125449209280e-07 7.500000000000e-04 4.417864669111e-06 5.014833774047e-13 2.780893551120e-13 6.755044897394e-13
101 2 1.520485777224e-02 9.719583559328e-03 5.986165536319e-03 -7.141529484941e-09 -4.312071511219e-09 -1.548704958071e-09 2.516905138017e-07 7.429883011937e-06 -8.681591230074e-07 1.000000000000e-03 1.047197551197e-05 1.287348098888e-11 5.515516711832e-12 3.389379586795e-12
102 2 6.853498802457e-03 1.442807421745e-02 2.698207824856e-03 2.779185617671e-09 1.662793607936e-09 -3.310872401719e-10 -1.433666908837e-06 -1.974497361336e-06 3.151355217825e-08 1.000000000000e-03 1.047197551197e-05 -3.872421279044e-12 -3.284772377874e-13 1.055428221074e-12
103 2 5.197312890076e-03 9.993979016752e-03 6.014038224680e-03 -3.349627036274e-09 -6.498163796573e-09 -6.029867369368e-09 -4.330482962139e-06 3.640304072047e-06 -2.066734817761e-06 1.000000000000e-03 1.047197551197e-05 -7.295231447517e-13 2.878891304003e-12 7.815849475032e-12
104 2 1.771429557070e-03 1.217127188823e-02 1.272565543151e-02 -7.105668185004e-10 -1.990055426120e-09 -1.374259972583e-09 5.828788145054e-07 -3.580482819798e-07 -2.626511622886e-07 1.000000000000e-03 1.047197551197e-05 -5.473417291022e-13 9.749575461768e-14 -1.251226568519e-12
105 2 5.541474187565e-03 1.297994308321e-02 1.451377141746e-02 2.979139128191e-10 -1.224538837738e-09 -8.921274507995e-10 -7.555493247452e-07 -5.981687926723e-07 -3.618871198100e-07 1.000000000000e-03 1.047197551197e-05 -6.760494627376e-13 4.561300172815e-13 -2.334033476337e-12
106 2 1.062444536599e-02 2.071172469791e-03 8.611084757195e-04 1.553933378266e-09 3.242785777572e-09 -2.325219769143e-09 -3.647898594158e-06 8.656636188894e-07 2.285670090274e-06 1.000000000000e-03 1.047197551197e-05 -1.308951199873e-11 5.123324325601e-12 -1.370460466008e-12
107 2 7.578617196250e-03 1.128677068707e-02 4.345561634975e-03 -5.883842989991e-09 -2.950756031460e-09 -7.659043392083e-09 -2.175400571113e-07 3.552362434861e-06 1.963714673354e-08 1.000000000000e-03 1.047197551197e-05 -6.775583870486e-12 4.382641350596e-12 1.314597764549e-11
108 2 5.894413286750e-03 4.025398180161e-03 2.793592118627e-03 5.044992412127e-09 1.599296890231e-09 -3.130566907598e-08 2.711230584792e-05 -4.039267059654e-05 -1.088258050676e-05 1.000000000000e-03 1.047197551197e-05 -3.667762344654e-11 3.902766205292e-12 3.046962611739e-11
109 2 1.501418743764e-02 1.244461827633e-03 6.324147538309e-03 -4.755836250167e-10 -6.011211836923e-09 -8.944578931487e-10 -2.397294561664e-06 9.804158640983e-07 -9.323670821105e-07 1.000000000000e-03 1.047197551197e-05 3.380154023740e-12 -4.710091747230e-12 -4.273104886752e-12
110 2 1.130872747415e-02 1.209306624523e-02 8.131243744154e-03 -2.186133230033e-09 -5.630420754485e-09 -4.727152233152e-09 1.437564496068e-06 2.667424305856e-06 -2.850732092681e-07 1.000000000000e-03 1.047197551197e-05 3.667655781934e-12 1.930217764106e-11 8.785141533704e-12
111 2 1.062743171065e-02 3.042657715585e-03 4.108130474058e-03 3.504214115245e-09 -2.242860709680e-09 -1.419059549762e-09 -1.853745370644e-06 -3.729453851668e-07 -2.418748757222e-06 1.000000000000e-03 1.047197551197e-05 2.141613976273e-12 1.023852061603e-11 -3.414008276645e-12
112 2 7.943354468732e-03 4.588656194869e-03 1.365350173130e-03 -2.927850904582e-09 3.371853698126e-08 3.841361450639e-08 5.027541995802e-05 -1.063293350607e-05 -1.057947469875e-05 1.000000000000e-03 1.047197551197e-05 -1.376030063197e-11 -4.266743733874e-11 -5.050081076295e-11
113 2 1.033789920157e-02 6.259733951472e-03 1.145284785047e-02 -3.185574461571e-09 -8.632459567734e-10 -4.696133228901e-09 -2.658283029874e-06 1.180261568384e-06 1.763754757496e-06 1.000000000000e-03 1.047197551197e-05 5.095795650789e-12 2.240719478919e-12 7.969605026074e-12
114 2 1.387704585602e-02 1.148848597172e-02 1.101398649300e-02 -2.078780834755e-09 -2.382013585652e-09 -3.227853167009e-09 4.205718560251e-06 -2.448190632278e-06 -3.349915238922e-06 1.000000000000e-03 1.047197551197e-05 8.681943392097e-12 1.021182402122e-11 1.097467226410e-11
115 2 1.366234097668e-02 9.631112145909e-03 4.806331610857e-03 -1.122184025314e-08 -5.232032833974e-09 -1.896326637964e-09 3.364771596190e-06 -5.277086486463e-06 5.812103013556e-06 1.000000000000e-03 1.047197551197e-05 2.049214957943e-11 5.090929079060e-12 2.888137461384e-12
116 2 1.322647824120e-02 1.394944364545e-03 1.446101724961e-02 -3.855182783126e-10 -9.808790484685e-10 -6.555970109767e-10 -3.184605125526e-07 3.542897647908e-07 -9.149992806272e-08 1.000000000000e-03 1.047197551197e-05 -1.488982513712e-12 1.257326799044e-12 6.443549161341e-13
117 2 1.261070428663e-02 6.264535311893e-03 5.260506072113e-03 1.162633185309e-09 -5.907973386229e-09 -6.726938177339e-09 2.072842941674e-06 -3.991796163443e-06 3.880490581628e-06 1.000000000000e-03 1.047197551197e-05 3.329673956457e-14 2.138892612700e-11 2.603991793192e-11
118 2 1.308587094222e-02 1.534091982019e-02 9.210978385936e-03 -1.404804401555e-10 -3.760326997654e-09 -1.083082229049e-09 -1.977395069127e-07 -4.215673964260e-08 6.566457063652e-08 1.000000000000e-03 1.047197551197e-05 -1.181458311300e-12 7.387756735989e-12 2.800630119775e-12
119 2 5.188216206799e-03 2.235839181473e-03 2.564585722987e-03 -6.092711359073e-10 4.228081886590e-09 -1.100637002384e-08 -2.584364752497e-05 4.527959000855e-06 3.176048836937e-05 1.000000000000e-03 1.047197551197e-05 1.484669576931e-11 -1.267096713433e-11 2.572825103773e-12
120 2 7.299896596269e-03 2.959286811765e-03 2.213957209494e-03 7.571866510567e-09 -3.469793885714e-10 -5.151573039987e-09 -1.407009408898e-05 -5.131814426844e-06 -1.429728399444e-06 1.000000000000e-03 1.047197551197e-05 -1.475930349437e-11 -7.729509739646e-12 7.720812125477e-12
121 2 1.280724558274e-02 7.740000740844e-03 9.083489210790e-03 -4.117628723946e-09 -2.984822430213e-09 -6.040406487758e-09 2.489035879831e-06 1.560000631167e-06 7.153239770565e-07 1.000000000000e-03 1.047197551197e-05 1.463208348365e-11 3.018048328208e-11 2.085219066511e-11
122 2 1.462170191419e-02 8.513660708017e-03 8.514805970138e-03 -5.948441122024e-09 -1.836762103130e-09 -4.858455509652e-09 3.988560473565e-06 7.032507349685e-07 -3.996659771495e-06 1.000000000000e-03 1.047197551197e-05 1.633826112730e-11 3.271979101900e-12 5.653401174236e-12
123 2 5.013204546369e-03 4.803837439542e-03 1.312069990628e-02 -1.100603930458e-09 -1.944663148909e-09 -1.049207571986e-09 -9.491261279219e-07 3.954658040783e-07 2.661361117883e-07 1.000000000000e-03 1.047197551197e-05 1.496081967334e-12 -4.565255985786e-12 7.606536701286e-12
124 2 1.527313802061e-02 1.227587279702e-02 1.325714084637e-02 -2.160096839323e-10 -1.802870512859e-09 -9.438387450507e-10 7.501660184982e-07 9.666957143930e-07 -3.545257552818e-07 1.000000000000e-03 1.047197551197e-05 -2.519547884454e-12 1.095588933287e-11 9.435621413324e-12
125 2 1.133465600386e-02 1.379818347549e-02 1.775779286328e-03 2.281672093283e-09 4.570292891008e-09 -2.902755429415e-09 -2.941409590437e-07 -4.180868144140e-06 -7.211428512510e-06 1.000000000000e-03 1.047197551197e-05 1.864940315575e-11 -2.820504614339e-11 5.540380177022e-12
126 2 6.098238674366e-03 1.003200676363e-02 4.191515084550e-03 -2.428986031538e-09 -6.646152919965e-09 -3.966529857857e-09 3.370771284693e-06 4.371184465299e-06 4.520878034828e-06 1.000000000000e-03 1.047197551197e-05 1.366986469746e-11 1.824178472280e-11 1.629078179707e-11
127 2 5.619650311362e-03 1.512634829625e-02 9.408673704136e-04 2.425659995426e-10 -7.323936588498e-10 -3.720290573256e-10 9.498750735479e-07 -3.875586688138e-08 3.641422693706e-06 1.000000000000e-03 1.047197551197e-05 -2.344410095888e-12 7.842401457073e-13 -1.634478525449e-12
128 2 6.941844718272e-03 8.677428604942e-03 8.894352818761e-03 -3.129911184392e-09 -4.409047583421e-09 -5.948394821024e-09 -1.302033766371e-07 -1.098829251241e-06 2.297675782057e-07 1.000000000000e-03 1.047197551197e-05 4.245591223248e-12 1.314094788228e-12 1.356775129936e-11
129 2 1.474729740712e-02 6.683412254452e-03 1.132607072857e-02 -2.523755580378e-09 -1.657301672048e-09 -1.143059008155e-09 -1.155289860426e-06 1.171233432725e-06 7.183814661640e-08 1.000000000000e-03 1.047197551197e-05 1.655195426109e-12 6.189035053500e-12 -3.017800697729e-12
130 2 8.413585176892e-03 8.425698270058e-03 5.472757810583e-03 -8.139110039234e-09 -4.798695907240e-09 -7.269040344682e-09 2.735592030054e-07 3.003777880964e-06 6.827649608276e-06 1.000000000000e-03 1.047197551197e-05 1.361698514442e-11 9.768065515809e-12 1.223548683594e-11
131 2 8.923584148268e-03 1.528920686906e-02 8.839991379058e-03 -9.494779242594e-10 -3.877602193984e-09 -1.643669527171e-09 -1.504501114419e-06 -9.978415561772e-07 3.906657058887e-07 1.000000000000e-03 1.047197551197e-05 6.170509572473e-12 9.513377423811e-12 1.745371222790e-12
132 2 1.476784268473e-03 6.431613626325e-03 1.072342537684e-02 -2.189178471655e-09 -1.961227101131e-09 -2.362708688654e-09 -1.026782520543e-06 9.256847964010e-07 -6.935423310435e-07 1.000000000000e-03 1.047197551197e-05 2.581865508893e-12 3.278047127554e-12 5.771042765396e-12
133 2 4.181300076040e-03 6.624628970744e-03 8.073534613671e-03 -1.472161223761e-09 -4.519763974206e-09 -2.808249486855e-09 4.794880020992e-07 1.669382674585e-06 7.096009214418e-07 1.000000000000e-03 1.047197551197e-05 4.516614442937e-12 8.307394929650e-12 1.092702367304e-11
134 2 5.985049299335e-03 1.181391661753e-02 7.467993211983e-03 -3.232503310395e-09 -6.999623813635e-09 -4.747850894597e-09 -1.973938642549e-06 9.930225113509e-08 -2.663221327645e-06 1.000000000000e-03 1.047197551197e-05 2.535410605193e-12 1.038263289782e-11 4.565367169878e-12
135 2 1.270167237336e-02 1.109224570090e-04 1.210497710878e-02 -1.962347793448e-09 -2.432899086528e-09 -1.616937972509e-09 2.487052202505e-07 -4.294623020363e-07 -9.708741920926e-08 1.000000000000e-03 1.047197551197e-05 3.417283250588e-12 3.181571602874e-12 -5.552809335151e-13
136 2 1.269116530025e-02 2.924245647170e-03 9.174989925474e-03 -4.383310296620e-11 -2.948219155355e-09 -2.394267146664e-10 -1.426416525468e-07 -1.058216260452e-06 -4.075810707473e-07 1.000000000000e-03 1.047197551197e-05 -4.573256934401e-12 6.849037794936e-12 5.796615485579e-12
137 2 1.225067496188e-02 4.582312812899e-03 9.866775527610e-03 -1.680049672250e-09 -2.161086416115e-09 -8.168260817360e-10 2.965730328911e-09 -1.841864335061e-06 9.475764863208e-07 1.000000000000e-03 1.047197551197e-05 5.218781360631e-12 -1.169115935440e-12 -9.357260454652e-13
138 2 4.009739333031e-04 2.482201056536e-05 7.678499806834e-03 -6.500775647240e-10 -4.236616589451e-09 -1.179452626462e-09 5.460656290692e-07 4.616301294696e-07 3.461326164448e-07 1.000000000000e-03 1.047197551197e-05 -5.514397178607e-13 4.545705748084e-12 1.756271564121e-12
139 2 3.390261801954e-03 8.127279448308e-04 1.444897525312e-02 -2.874548454716e-10 -6.892196412230e-10 -3.354560677521e-10 -2.387913318297e-07 4.245046122550e-08 -3.023026937933e-07 1.000000000000e-03 1.047197551197e-05 -1.533913170661e-12 2.163766383330e-12 5.483405778768e-12
140 2 1.701097766894e-03 2.044082122748e-03 4.915527213137e-03 -2.004961037967e-09 -4.749969946184e-10 4.994420902764e-09 1.211223546058e-05 3.569907347623e-06 1.082705313237e-05 1.000000000000e-03 1.047197551197e-05 2.568939812894e-12 -9.711623108441e-12 -9.312497702720e-12
141 2 6.947452922035e-03 1.412907822358e-02 4.727194764530e-03 -1.065823992815e-09 -1.034942377872e-09 -2.820413257480e-09 -2.045871951008e-06 -1.471247631441e-06 7.986932903470e-07 1.000000000000e-03 1.047197551197e-05 1.724550453401e-12 1.316076843291e-12 3.512354123180e-12
142 2 6.059940916500e-03 4.401034941322e-03 1.142150587318e-02 -9.301228105936e-10 -2.623803543534e-09 -1.146594515132e-09 -1.682384588407e-06 3.540922893061e-07 -1.440546534274e-07 1.000000000000e-03 1.047197551197e-05 -5.163694781818e-13 9.480936037726e-12 -7.492442009662e-12
143 2 5.680919190467e-03 1.108795413359e-02 1.445408582689e-02 -4.111392532803e-10 -1.710097680396e-09 -1.685183251093e-10 -1.113101241398e-06 4.099806190407e-07 -9.177155104271e-08 1.000000000000e-03 1.047197551197e-05 1.863103291184e-12 2.495867156991e-12 -4.309247586167e-12
144 2 1.304632315289e-02 4.907956894337e-03 1.157284384394e-02 -2.802818960808e-09 -8.342646821160e-10 -3.471289566923e-10 1.818897847340e-07 1.139287074403e-06 2.172580429979e-06 1.000000000000e-03 1.047197551197e-05 1.943678945405e-12 -5.904786792545e-12 5.792509891684e-12
145 2 6.579052026496e-03 4.129452238709e-04 5.769390546464e-03 -1.339933589468e-09 -3.304452498634e-09 -2.411872898912e-09 1.927817679747e-06 3.604135907161e-06 -1.657485999457e-07 1.000000000000e-03 1.047197551197e-05 -1.685581146297e-12 1.340676434826e-12 1.320861067343e-11
146 2 7.500129465038e-03 5.707534649386e-04 4.096245009540e-03 -3.315586372664e-09 6.556679335446e-09 -1.540333036592e-10 6.707955175346e-06 -2.947916286563e-06 5.781051707868e-06 1.000000000000e-03 1.047197551197e-05 2.087983152674e-11 -9.741097696924e-12 -8.933260669177e-12
147 2 8.421120375758e-03 1.284242909547e-02 1.435799174629e-02 8.979524201359e-10 -2.688887925690e-09 7.177598934260e-10 3.793834964715e-06 7.462997208473e-06 2.715118812817e-06 1.000000000000e-03 1.047197551197e-05 3.846639554934e-12 -2.309256167919e-12 -5.681955971468e-12
148 2 3.741677211525e-03 1.151504891860e-02 2.608247029806e-03 -5.104414178622e-10 -2.860944148580e-09 -1.605735331547e-09 1.206406879630e-07 1.343042740639e-06 -7.304061858293e-07 1.000000000000e-03 1.047197551197e-05 -1.591525049076e-12 3.847366027978e-12 -1.175760026469e-12
149 2 1.865341176951e-03 9.275305387809e-03 5.042874984154e-03 -2.527843454965e-10 -5.335718905853e-09 -2.883488059544e-09 5.964410271129e-07 2.247714150647e-06 -6.061021792093e-06 1.000000000000e-03 1.047197551197e-05 -7.941609688518e-12 8.001172530032e-12 1.184621352418e-12
150 2 8.615567097796e-03 1.163926586473e-02 2.786582212020e-03 -3.101025338594e-09 3.335697464200e-09 -4.346972764099e-09 4.620362758613e-06 -8.438467976402e-06 4.620613704988e-06 1.000000000000e-03 1.047197551197e-05 5.029929307434e-12 -1.114753333946e-11 1.200629709399e-12
151 2 2.689761185671e-03 1.135256402620e-02 8.395140592694e-03 -2.208732440353e-09 -6.510126219366e-09 -2.777872961240e-09 -3.663410458225e-07 -1.653525182276e-07 4.760127918036e-07 1.000000000000e-03 1.047197551197e-05 7.302061829198e-12 8.451916956873e-12 -7.004254805447e-12
152 2 9.528572540829e-03 1.045593444523e-02 1.033878197217e-03 -3.411912059514e-10 1.642580843271e-08 -1.328850823268e-08 2.260835832884e-05 4.151376405115e-06 -3.925920952699e-06 1.000000000000e-03 1.047197551197e-05 -1.723827687439e-12 -3.024392766212e-11 2.220558632700e-11
153 2 6.096281065034e-03 7.653673786850e-03 9.089814581955e-04 1.609551836811e-08 1.725269274647e-08 7.448545601931e-09 -2.128219597890e-05 6.185007938851e-06 5.162678307171e-05 1.000000000000e-03 1.047197551197e-05 -2.534818253504e-11 -2.164968498907e-11 -1.527231678345e-11
154 2 1.524702484812e-02 4.905387903126e-03 1.095234926230e-02 -2.565229202526e-09 -1.996800779586e-09 -2.149675464206e-09 1.688406892314e-06 4.780835901562e-07 4.041976759269e-08 1.000000000000e-03 1.047197551197e-05 4.405359153306e-12 -7.910955255802e-13 -3.755874933176e-14
155 2 6.411477032420e-03 1.521120303291e-02 1.213452491836e-02 5.789830058864e-11 -2.177039917783e-09 -1.751062692152e-09 -6.954922473486e-07 8.220872222424e-07 4.725677383043e-07 1.000000000000e-03 1.047197551197e-05 -1.715589802869e-12 6.082594745772e-13 1.683740906481e-12
156 2 9.355405044184e-03 1.389058948578e-02 1.092849610662e-02 -2.246781131707e-10 -2.975277432824e-09 -1.083777795159e-09 -2.720521113570e-06 1.333867733646e-06 6.621114386770e-07 1.000000000000e-03 1.047197551197e-05 2.907549132978e-12 1.262372120562e-11 -8.469526467434e-15
157 2 1.210922172872e-02 9.547595628955e-03 8.697775817008e-04 -1.044889586456e-09 -7.010289245175e-10 -2.183470131616e-09 1.026990925428e-06 -2.587958954516e-07 -2.074746119114e-06 1.000000000000e-03 1.047197551197e-05 4.448882409557e-13 -4.892739232341e-13 1.118630414185e-11
158 2 7.915633218013e-03 1.227539063885e-02 8.740579175425e-03 -3.000240734749e-09 -2.884337101908e-09 -3.066281015843e-09 2.016162960133e-06 1.487246672803e-06 -7.938983470334e-07 1.000000000000e-03 1.047197551197e-05 1.302787510202e-11 1.379624907044e-11 2.621231445027e-12
159 2 1.018840229643e-02 8.264672504260e-03 7.555348048877e-03 -3.302803865187e-09 -4.021820944161e-09 -9.036721389619e-09 5.758494798908e-06 -2.987825719370e-06 8.265426785816e-07 1.000000000000e-03 1.047197551197e-05 7.136667424606e-12 2.520963663078e-11 1.141430769979e-11
160 2 2.546496272067e-03 7.964514071611e-03 1.257320875973e-02 -1.488372661802e-09 -2.085694193003e-09 -6.951552986546e-10 -4.384346129851e-07 1.513873099130e-07 -2.630802523301e-07 1.000000000000e-03 1.047197551197e-05 -6.924421659167e-12 -1.315280658056e-12 -2.734039365606e-12
161 2 4.538280827744e-03 6.556864236202e-03 1.358339081766e-02 -7.901047204321e-10 -1.348389629536e-09 -1.408229326974e-09 4.056169930946e-07 8.261986754779e-07 -6.197700291592e-07 1.000000000000e-03 1.047197551197e-05 5.275603331276e-12 2.510213990322e-12 3.704505415049e-12
162 2 1.246167186614e-02 1.157000921039e-03 1.052005844482e-02 -8.595202160794e-10 -2.793476831405e-09 -1.834065700725e-09 -8.116918026734e-07 -1.055944015102e-06 1.564313205477e-07 1.000000000000e-03 1.047197551197e-05 7.376703001337e-12 1.896711395693e-12 -3.667769938381e-13
163 2 8.657295568484e-04 7.053448806857e-03 1.245332581107e-02 -1.756176483863e-09 -1.610649083956e-09 -1.593086372442e-09 1.101902102840e-06 -5.363660707185e-07 -2.683921321216e-07 1.000000000000e-03 1.047197551197e-05 2.412976069504e-12 4.820497904514e-12 2.335351421338e-12
164 2 1.030500246803e-03 7.957873565723e-03 8.105624923334e-03 -5.454868599592e-09 -5.565183096549e-09 -4.004357097426e-09 -6.802200265067e-07 -1.377695998984e-06 3.719626039462e-07 1.000000000000e-03 1.047197551197e-05 8.723490273892e-12 6.815645404244e-12 7.735237062996e-12
165 2 7.304510960262e-03 4.565789166489e-03 4.292670447165e-03 3.698439122824e-08 2.009137658996e-08 -1.323549957847e-08 3.503257901595e-05 -4.124464402469e-05 5.648201232648e-05 1.000000000000e-03 1.047197551197e-05 -6.163251597611e-11 -3.483128419819e-11 5.580453401805e-11
166 2 1.710338399935e-03 5.399655851572e-03 7.322201169858e-03 -9.428705515828e-11 -5.002233688224e-09 -3.190857800323e-09 1.489529146828e-06 3.060170712902e-06 1.962454480336e-06 1.000000000000e-03 1.047197551197e-05 -1.484705804761e-12 9.578664891644e-12 7.415066214605e-12
167 2 1.996942464760e-03 1.979985988670e-03 7.278464229398e-03 1.214301912061e-09 -2.214538450389e-09 -2.317485183726e-09 4.855376959751e-08 2.028914522877e-06 5.574203516555e-07 1.000000000000e-03 1.047197551197e-05 2.614748678762e-12 -7.316728112705e-13 -1.355479821336e-12
168 2 1.711103465693e-03 7.462064796915e-04 8.850083055843e-03 1.927519625475e-10 -3.477395781490e-09 -2.511555840744e-09 6.411263739400e-07 1.950499145540e-06 9.006515313824e-07 1.000000000000e-03 1.047197551197e-05 9.103825484856e-14 3.762285424774e-12 4.457293196260e-12
169 2 1.193077636152e-02 1.169160468292e-02 1.086672788215e-02 -3.488677834136e-09 -4.263920772658e-09 -4.169835898321e-09 2.538613799587e-06 4.281481063424e-06 -7.932891277808e-07 1.000000000000e-03 1.047197551197e-05 1.503360717627e-12 7.288624348041e-12 5.590679737194e-12
170 2 7.128089927409e-03 1.463047301193e-02 8.428687996526e-03 -8.058141346625e-10 -2.805400122758e-09 -2.336156328796e-09 1.533242597557e-06 -6.934767437537e-08 1.121068252849e-07 1.000000000000e-03 1.047197551197e-05 4.473874403642e-12 3.659602245598e-12 9.494178266852e-13
171 2 1.542532479738e-03 8.637551258289e-03 1.074220950323e-02 -3.558660877510e-09 -3.802223751988e-09 -3.182790771354e-09 9.638345766942e-06 3.198639877479e-06 1.856895651656e-06 1.000000000000e-03 1.047197551197e-05 2.271327194409e-12 5.639955741234e-12 5.274384554660e-12
172 2 8.043401430831e-03 1.342991617562e-02 7.258173115076e-03 -3.390462892292e-09 -2.369130273962e-09 -3.040669818661e-09 -4.139316802566e-07 1.695130479796e-06 -2.523523636617e-06 1.000000000000e-03 1.047197551197e-05 -8.562626430131e-14 1.374501268116e-11 4.132242867366e-12
173 2 1.114327416784e-02 6.947927284871e-03 8.541933825454e-03 -4.322795141495e-09 -4.905872709162e-09 -7.448753680055e-09 -2.020232263036e-06 9.108280861499e-07 7.742300160951e-07 1.000000000000e-03 1.047197551197e-05 4.140446948901e-12 1.533200513927e-11 2.609560503028e-11
174 2 1.524976984967e-02 7.294164279770e-03 9.618356827798e-04 -9.001811178841e-10 -1.482433798709e-09 6.701211247864e-10 1.025328621163e-06 -1.718307494251e-06 1.008435240379e-06 1.000000000000e-03 1.047197551197e-05 4.022419032538e-12 -1.543000285830e-12 -2.482214400937e-12
175 2 1.283527992309e-02 1.131422963028e-02 9.086729171419e-03 -3.712301517261e-09 -5.796455022801e-09 -5.331784042688e-09 -6.141673843175e-07 -4.928269495780e-06 2.439407488910e-06 1.000000000000e-03 1.047197551197e-05 5.106483909852e-12 4.733185779573e-12 -1.727588498022e-12
176 2 1.412834149106e-02 2.739506800478e-03 5.608831065857e-03 1.683887565627e-09 -3.920145938194e-09 8.123089143114e-10 6.147106533364e-06 -5.026401349652e-06 -5.071644536425e-07 1.000000000000e-03 1.047197551197e-05 2.082176999835e-13 6.779145730182e-12 -6.122875300211e-12
177 2 1.218217855074e-02 1.250472918348e-02 8.407858985188e-04 -4.850399963894e-10 2.940796521742e-11 -3.347720654588e-10 -1.523269657762e-07 -3.911994728402e-07 -2.289079600549e-07 1.000000000000e-03 1.047197551197e-05 1.340340948930e-12 1.411160489413e-11 1.436844602500e-11
178 2 5.949826165074e-03 6.003155574935e-03 2.465800396432e-03 1.111602126001e-07 -8.961951594770e-07 4.164751948990e-07 1.424704246947e-03 -1.821481868284e-05 -3.418983824519e-03 1.000000000000e-03 1.047197551197e-05 -2.215654212748e-10 1.158133285890e-09 -5.050615106587e-10
179 2 4.690596400681e-03 6.855568000812e-05 5.970070554228e-03 -5.287695195903e-10 -5.290012824105e-09 -1.083208906067e-09 1.079975000833e-06 -1.072104829439e-06 1.965175771658e-06 1.000000000000e-03 1.047197551197e-05 4.491170982396e-12 5.372609890446e-12 2.596831763328e-12
180 2 1.510794650600e-03 5.469369872876e-03 8.522640652020e-04 -2.072912691920e-09 -9.818262878261e-10 -9.800712306161e-10 5.890142379384e-07 -5.372775574964e-07 1.566321815078e-06 1.000000000000e-03 1.047197551197e-05 4.731405416537e-12 -8.271843224845e-13 3.278475797798e-12
181 2 1.527118490009e-02 3.413204486873e-04 1.145953712578e-03 1.142553087649e-07 -6.239873603863e-11 -6.620366314056e-08 1.822551178497e+01 1.914978910731e+01 3.071885542610e-01 1.000000000000e-03 1.047197551197e-05 -1.421167040548e-10 3.576960172702e-12 8.422625276441e-11
182 2 1.900654611689e-03 1.314540729701e-02 4.284278680857e-03 5.218798254499e-10 -3.587900614124e-09 -7.611054519100e-10 1.144005176754e-07 4.170399252856e-06 9.157523311011e-07 1.000000000000e-03 1.047197551197e-05 -2.825363178671e-12 4.590223243893e-12 8.815644343418e-12
183 2 1.534368224807e-02 1.292690431357e-02 4.518380842447e-03 -5.802765419842e-10 -2.344751923797e-09 1.931277603537e-10 3.250988762846e-06 -1.927931274710e-06 1.703332544251e-06 1.000000000000e-03 1.047197551197e-05 -3.013912344532e-11 4.428304025592e-11 -1.886136419995e-11
184 2 5.117033421859e-03 1.011764616590e-02 2.578195463633e-03 -1.485289933753e-09 -5.044247582054e-09 -1.025069390377e-09 6.650624213168e-07 -3.816173054786e-06 -2.180793633923e-06 1.000000000000e-03 1.047197551197e-05 1.070193203791e-12 8.321330286317e-12 1.964111412917e-13
185 2 1.953286492869e-03 1.156431756427e-02 1.447360937507e-02 -5.768946808967e-10 -1.003158864137e-09 -7.545669662724e-10 -1.099952998853e-06 4.220747099431e-07 2.610274644551e-07 1.000000000000e-03 1.047197551197e-05 -2.799495557713e-13 4.207643906230e-12 2.544563230064e-12
186 2 1.906455804014e-04 1.349629010563e-02 7.378439113172e-03 -8.885178051809e-10 -4.924260257637e-09 -1.974612726069e-09 -2.784539491786e-07 -1.205433741814e-06 -7.578917646985e-07 1.000000000000e-03 1.047197551197e-05 9.163862251621e-13 8.435295383077e-12 9.201738580502e-14
187 2 1.410249564472e-02 5.131384351093e-03 9.476943728254e-03 -1.795340795025e-09 -9.449598498144e-10 -3.497526679553e-09 1.172269941589e-06 -2.569835913557e-06 2.030103494906e-06 1.000000000000e-03 1.047197551197e-05 6.416802596529e-12 -3.753691347278e-12 2.451489678622e-12
188 2 3.458441634391e-03 1.344897605913e-03 8.424340029515e-03 2.137049345235e-10 -2.866897490076e-09 -2.613265340890e-09 2.235595595680e-06 -1.959018349104e-06 -9.075738982649e-07 1.000000000000e-03 1.047197551197e-05 2.888278514601e-12 3.176127387990e-12 2.467333028764e-12
189 2 1.163936641350e-03 3.173065816684e-04 5.728105691522e-03 1.520273596542e-09 -5.536710530270e-09 -2.338488485447e-09 -7.094709412941e-06 5.389002547340e-06 6.416728568190e-06 1.000000000000e-03 1.047197551197e-05 4.726878493873e-12 5.173638841182e-12 -1.325103716013e-12
190 2 6.580925990442e-03 1.534185580155e-02 1.019818806577e-02 -3.082754570892e-10 -3.563049997985e-09 -1.720270744749e-09 -2.042355595651e-07 -9.098683444296e-07 -1.730163732011e-06 1.000000000000e-03 1.047197551197e-05 3.971137886061e-14 1.498709736344e-13 2.200844173396e-12
191 2 7.136195022408e-03 1.007053123700e-02 5.758458078349e-03 -4.064206984085e-09 -2.635518323171e-09 -5.078488046694e-09 -1.152603399014e-06 -5.669256616007e-06 6.940084851024e-06 1.000000000000e-03 1.047197551197e-05 -3.938034361877e-12 -6.842580619647e-12 -1.030450798292e-11
192 2 1.512107662714e-02 5.456703998253e-03 1.545186178736e-03 -9.493031643892e-11 -3.012463020266e-09 -3.798898886550e-10 -1.769844191749e-07 1.224254311880e-06 -8.527683001855e-07 1.000000000000e-03 1.047197551197e-05 6.267935012366e-12 -1.092118225335e-12 7.841487317859e-12
193 2 2.788175502793e-04 4.831347531015e-03 6.189467660032e-03 -8.189417307547e-11 -3.230107112778e-09 -3.945651531334e-09 3.085111357320e-06 -1.600725474512e-06 -6.375508901804e-07 1.000000000000e-03 1.047197551197e-05 2.935314304634e-12 4.176993776165e-12 3.971168975209e-12
194 2 2.298013239304e-03 9.659657334171e-03 1.444969739587e-02 -8.143612338864e-10 -5.069033190328e-10 -3.273894212803e-10 1.412377246793e-07 2.225728804564e-07 -2.015191187007e-07 1.000000000000e-03 1.047197551197e-05 1.895894212680e-12 4.656577578097e-12 1.746958261036e-12
195 2 8.292894274068e-03 4.333262215307e-03 1.450693115326e-02 -3.190647896867e-10 -5.204077307888e-10 -7.774369576487e-10 -4.723806904756e-07 3.205756702419e-07 -6.481120472532e-07 1.000000000000e-03 1.047197551197e-05 5.695833230222e-12 -6.280132463511e-12 -1.860834778966e-11
196 2 1.085808413451e-02 4.437325284159e-03 1.137051947646e-02 -1.220416648264e-09 -1.687470652929e-09 -1.865800576083e-09 -8.064966326902e-07 1.027947010116e-06 2.160890235609e-07 1.000000000000e-03 1.047197551197e-05 4.699464562184e-12 4.834576163761e-13 5.195902604680e-15
197 2 1.172753207735e-02 1.450508471755e-02 1.451730291001e-02 -4.572588283108e-10 -1.417055340640e-09 2.310878515692e-10 -1.452965863269e-06 5.169743508046e-07 1.455441665092e-07 1.000000000000e-03 1.047197551197e-05 2.646387338762e-14 -2.424565674824e-13 -1.654639136212e-12
198 2 1.399520687662e-02 5.776826728010e-03 6.514818685532e-03 -9.104265268159e-10 -3.738666995522e-09 -4.229043338411e-09 8.687407395702e-08 -6.385458205859e-07 1.012274237757e-06 1.000000000000e-03 1.047197551197e-05 -1.774858832925e-13 7.954535803818e-12 9.424972421020e-12
199 2 3.646674895013e-03 8.928867674358e-03 5.579591472929e-03 -4.210123506285e-10 -8.567117674317e-09 -2.731448707368e-10 -5.250974787244e-06 -3.876450660010e-06 2.535723389755e-06 1.000000000000e-03 1.047197551197e-05 -7.111917525992e-12 2.282103754846e-11 5.063625194466e-12
200 2 8.774993463468e-03 4.776014263440e-04 1.445392905041e-02 -5.737002843925e-11 -3.688849709100e-10 -7.742672812426e-10 -9.519675391613e-07 -1.761450104797e-07 1.889742302015e-07 1.000000000000e-03 1.047197551197e-05 -5.488476930073e-13 1.260576201996e-12 1.348984346262e-12
201 2 2.180618175469e-03 4.969160143343e-03 9.545553456326e-03 4.939248553905e-12 -3.309259186509e-09 -2.652302019025e-09 -1.783939888156e-06 -7.029586261292e-07 -8.742882476305e-07 1.000000000000e-03 1.047197551197e-05 4.957716229352e-12 4.591902848333e-12 5.723422341616e-12
202 2 2.680030212634e-03 5.101712309019e-03 5.742835855524e-03 5.650489962167e-10 1.176212277971e-09 -2.651510535953e-09 1.215863310474e-06 -3.786986081917e-06 5.560440258078e-06 1.000000000000e-03 1.047197551197e-05 2.585362469638e-12 -4.123783816373e-12 4.393413260585e-12
203 2 1.445209554200e-02 9.798247928755e-03 1.188081069637e-02 -2.407061392236e-09 -2.070284057463e-09 -1.510618713098e-09 -8.662159913096e-07 2.551762122524e-07 1.423475714656e-07 1.000000000000e-03 1.047197551197e-05 3.986194046534e-12 1.129603959837e-12 -7.449910873445e-13
204 2 1.521175985406e-02 6.982260210549e-04 9.432393706694e-03 -3.782588322394e-11 -4.207717690705e-09 -8.432507087908e-10 -3.807138591938e-07 -2.956889586146e-07 -3.177513169539e-07 1.000000000000e-03 1.047197551197e-05 -4.516825645804e-12 7.484059149063e-12 1.641724139320e-12
205 2 6.206535716336e-03 8.327389509462e-03 5.237343822349e-03 4.820268722719e-07 3.105441592015e-07 -8.380758827223e-07 6.498033167130e-04 -5.106144500109e-04 4.798036360584e-04 1.000000000000e-03 1.047197551197e-05 -5.171160438952e-10 -4.484923430967e-10 9.171623918229e-10
206 2 2.513730624517e-04 1.353672054319e-02 2.220758209514e-03 5.938126003164e-10 -1.119432623342e-09 1.462631118626e-09 2.788537897472e-06 1.671946638033e-06 -9.561430682509e-07 1.000000000000e-03 1.047197551197e-05 -2.410580078265e-12 -2.980545512936e-12 -1.789500113409e-12
207 2 1.518716192112e-02 6.197549532652e-03 8.137967233347e-03 4.599377604094e-124 2.870883063580e-125 9.092660484160e-124 5.032801019256e+03 -1.293724939096e+03 7.412025128546e+03 1.000000000000e-03 1.047197551197e-05 -4.603773884318e-125 -2.873627175397e-126 -9.101351634769e-125
208 2 4.324166255281e-03 1.847558241977e-03 4.954452935571e-03 3.042131404048e-09 1.601375307728e-09 7.999137624064e-10 -8.811558818160e-06 -3.017938945665e-06 1.216390880218e-05 1.000000000000e-03 1.047197551197e-05 1.218259605269e-12 5.584020098962e-12 1.389298146389e-12
209 2 7.542022074082e-03 6.472673101414e-03 4.848056470097e-03 4.299304198359e-08 6.700998752394e-10 -2.723527194576e-08 1.484237340538e+01 2.313928677173e-01 -9.367894559246e+00 1.000000000000e-03 1.047197551197e-05 -6.225755610099e-11 -1.056300928769e-12 3.945123055697e-11
210 2 4.727939231317e-03 3.126613861302e-03 1.393505398731e-02 -6.037311044541e-10 -1.817347093561e-09 -1.628739528989e-10 5.122719512727e-08 5.412050062193e-09 2.090686568613e-07 1.000000000000e-03 1.047197551197e-05 -8.989583241686e-13 6.924369060939e-12 -5.551218668826e-12
211 2 7.504605264581e-03 1.064267543969e-02 1.393310506721e-02 -1.389752772585e-09 -2.664303886976e-09 -2.951400747621e-09 2.513763515390e-06 2.122927826007e-06 -1.107714460221e-06 1.000000000000e-03 1.047197551197e-05 4.054369213690e-12 -1.214122629629e-12 2.053426702077e-12
212 2 7.979519512798e-03 6.791505366767e-03 1.446650328210e-02 -6.116919713249e-10 -1.143391531254e-09 -1.034970400151e-09 -9.437124742232e-07 5.584633549509e-07 3.051559945301e-07 1.000000000000e-03 1.047197551197e-05 -1.257290653364e-12 -9.182640786217e-14 -3.762757071654e-12
213 2 4.257768976679e-03 2.148499914098e-03 1.067349252378e-02 -2.454344288966e-10 -3.095335656980e-09 -5.992621381330e-10 3.741917954316e-07 -7.482842620358e-07 1.123724932043e-07 1.000000000000e-03 1.047197551197e-05 -1.434140849139e-12 4.948604461243e-12 1.110044963016e-12
214 2 8.352911861064e-03 8.917966336884e-03 7.396197252584e-03 -4.917508330247e-09 -5.900182258957e-09 -7.429902990777e-09 3.953903930082e-08 3.582431490942e-07 5.458139149647e-07 1.000000000000e-03 1.047197551197e-05 4.584552969100e-12 6.882228985228e-12 8.556518251013e-12
215 2 1.416073812005e-02 1.521589391603e-02 1.078898668648e-02 -1.097256534126e-09 -3.650493900283e-09 -1.331074070409e-09 5.827908514118e-07 -7.674355480318e-07 -6.809649816595e-07 1.000000000000e-03 1.047197551197e-05 -6.576776012555e-13 3.248572029121e-12 6.061708158800e-13
216 2 1.455432024228e-02 3.553538810714e-03 2.708929168625e-03 4.663783093721e-09 -5.269803732271e-09 -3.883290421896e-10 -5.004174666443e-06 -6.851288350633e-06 -2.496252602380e-06 1.000000000000e-03 1.047197551197e-05 -4.998874328955e-12 6.123853950827e-12 -1.558275415707e-12
217 2 5.164493327079e-03 7.273658308578e-03 9.641660502684e-03 -1.435882601004e-09 -3.839145158973e-09 -3.328793313222e-09 7.346546717078e-07 1.955818961332e-06 1.993647627666e-06 1.000000000000e-03 1.047197551197e-05 3.314246210652e-12 3.359138993750e-12 7.701695853455e-12
218 2 1.764249911009e-03 1.237388624410e-02 7.102272600320e-03 -1.989962081095e-09 -7.230002961260e-09 -1.534601519508e-09 -2.840013171367e-07 1.360555329721e-06 -1.741010802798e-06 1.000000000000e-03 1.047197551197e-05 4.291223735547e-12 1.243924089965e-11 -3.000115537698e-12
219 2 1.020734412818e-02 1.416628932080e-02 1.339710742846e-02 -3.279639020445e-10 -2.615686911493e-09 3.445305209263e-10 -2.676194017674e-06 -1.447129184253e-06 -1.761460247528e-06 1.000000000000e-03 1.047197551197e-05 -2.128151359193e-12 3.980516735110e-12 8.402969947983e-13
220 2 1.150541751153e-04 3.232684671087e-03 4.365387230087e-03 3.881749035526e-09 -3.547574313143e-09 2.308314400332e-09 -1.936193757570e-07 5.310458299583e-06 -4.368291834231e-06 1.000000000000e-03 1.047197551197e-05 -6.481726587193e-12 7.552870552707e-12 -4.813141399896e-12
221 2 1.229214746505e-02 1.076403128049e-02 1.448321852700e-02 -9.111429431244e-10 -8.690362125718e-10 -7.829660543777e-10 -9.192271192675e-07 -1.827706858503e-09 -5.234946450030e-07 1.000000000000e-03 1.047197551197e-05 1.477630605121e-12 -8.595524954926e-13 -2.903645488307e-13
222 2 9.887122686051e-03 1.006308344726e-02 7.859268835218e-03 -7.179278428032e-09 -4.974338358172e-09 -7.290354793324e-09 -2.995307926915e-06 -2.822253262293e-06 2.203166983196e-06 1.000000000000e-03 1.047197551197e-05 1.278461716903e-11 1.637163393041e-12 4.783475832569e-12
223 2 2.270131947827e-03 3.719708755072e-03 9.540073633864e-04 3.087024940892e-09 1.026737116625e-09 2.084691635516e-09 -1.141305694115e-06 -9.400531742636e-07 5.955202929695e-06 1.000000000000e-03 1.047197551197e-05 -1.894496472890e-12 -5.495110639354e-13 -1.913275218379e-12
224 2 8.397604979436e-03 9.550996164483e-03 3.905557150197e-03 -2.936667488383e-09 -1.832962484270e-09 -7.666223890887e-09 1.513145045276e-06 -1.436096854315e-05 1.085572584429e-06 1.000000000000e-03 1.047197551197e-05 4.039023215140e-12 4.099161577689e-12 1.441507737984e-11
225 2 1.206990965447e-02 1.473567322079e-02 4.872532699040e-03 -2.954039403792e-09 -4.713933526555e-09 -5.873002306628e-10 -2.227636957080e-06 2.160568832258e-06 -1.179735008311e-06 1.000000000000e-03 1.047197551197e-05 1.055627237635e-11 5.828850188951e-12 1.266641979433e-11
226 2 5.615071152213e-03 4.106709412224e-03 6.291143385592e-03 1.159894768121e-09 3.560909410142e-09 -5.615929479330e-09 -3.222468977383e-05 -7.552077622727e-06 -1.279635636991e-05 1.000000000000e-03 1.047197551197e-05 -7.044022747587e-12 -1.645829253721e-11 2.617882327323e-11
227 2 3.354309051324e-03 1.262071395938e-02 1.056946480747e-03 6.902971166781e-10 -1.050080103341e-09 -4.653953084945e-11 7.090925251157e-07 -1.369078962352e-06 -8.782412363170e-07 1.000000000000e-03 1.047197551197e-05 -1.517777265916e-12 1.507576225059e-12 2.065608746096e-12
228 2 9.959565410524e-03 1.422278242464e-03 8.771199273070e-03 -6.358479081729e-10 -4.141410736729e-09 -1.450212849817e-09 3.648137624480e-07 -7.942293477613e-07 -9.423947320185e-07 1.000000000000e-03 1.047197551197e-05 7.544375748857e-13 1.047865123073e-11 5.325008400087e-12
229 2 4.805074075643e-03 8.237774290783e-03 2.000274053022e-03 -2.522736169144e-09 -4.447917283293e-09 -1.404358192916e-09 -1.358046650092e-06 -7.354481436544e-06 -1.470442395292e-06 1.000000000000e-03 1.047197551197e-05 4.771658229416e-12 1.145147541580e-11 -2.343319826850e-12
230 2 8.843819594043e-03 8.645098925096e-03 9.529998202325e-04 2.751389382149e-08 1.806181068410e-08 -2.935160857326e-08 2.003450183405e-06 1.939183070790e-05 3.048645981069e-05 1.000000000000e-03 1.047197551197e-05 -4.631209126047e-11 -4.476447583589e-11 4.840739479826e-11
231 2 1.358969415011e-02 8.724899881744e-03 2.922429523165e-03 -4.240858455505e-09 -3.688337704646e-10 -2.270193667505e-09 2.414715031182e-06 -1.473973357011e-06 5.443271143200e-06 1.000000000000e-03 1.047197551197e-05 8.623311306548e-12 -2.810946073836e-12 -5.833139664360e-12
232 2 9.260357293940e-03 1.338024643218e-02 3.307433727609e-03 -1.622471948690e-09 -1.062348523695e-10 -4.897164647631e-10 -2.879937470522e-07 2.187454830710e-06 -8.276793868037e-06 1.000000000000e-03 1.047197551197e-05 8.888199038266e-13 9.085645001660e-12 -7.894490724923e-13
233 2 5.083606982691e-03 1.432278389109e-02 1.323817331724e-02 5.552336833170e-10 -1.723538582968e-09 -1.654792784913e-09 1.422101443773e-08 -1.752090660040e-07 -2.815582636383e-07 1.000000000000e-03 1.047197551197e-05 6.470892249846e-12 8.374198279901e-12 -3.559434042042e-12
234 2 1.343314932023e-02 8.163120169068e-03 1.047720537975e-03 -4.776561861329e-10 -3.377992234382e-10 -2.223680212678e-09 -9.263973165212e-07 -2.992562754259e-06 2.096007211379e-06 1.000000000000e-03 1.047197551197e-05 4.817799874282e-12 -5.449016454403e-12 1.040451804895e-11
235 2 1.105651620393e-02 1.291416092627e-02 3.750250212311e-03 -3.384580623100e-09 -3.992740379467e-09 -1.962741476331e-09 -4.943214037992e-07 -7.335686813579e-07 3.267017973486e-06 1.000000000000e-03 1.047197551197e-05 9.450106169464e-12 1.192016988371e-11 3.592821486100e-12
236 2 1.496988523596e-02 8.033922249382e-03 1.445094714630e-02 -7.559610095274e-10 -8.978076321541e-10 -3.854400732377e-10 -8.624986209942e-07 5.754212690044e-07 6.513075830741e-07 1.000000000000e-03 1.047197551197e-05 2.630773052491e-12 2.477035699526e-12 -2.044147272641e-13
237 2 9.884295996868e-03 5.697060350641e-03 9.491078135715e-04 1.444202470463e-08 -1.355861728388e-09 2.084279321130e-10 7.323383010694e-06 1.269175827675e-05 -5.024294316494e-06 1.000000000000e-03 1.047197551197e-05 -2.269722944373e-11 -5.679579247262e-13 3.208700786345e-12
238 2 3.522208474308e-03 1.440069620875e-03 3.289063808278e-03 6.654177645487e-09 -1.192979339871e-09 -1.062654839271e-09 8.939969639223e-06 -2.050209741250e-06 -5.127431987109e-06 1.000000000000e-03 1.047197551197e-05 -8.966884932294e-12 -1.655613326472e-11 3.242820572829e-11
239 2 1.531839305758e-02 1.046584938273e-02 1.028199757876e-02 -2.680675138281e-09 -4.368438522135e-09 -2.222332400875e-09 -1.199101179274e-06 -4.072509136976e-07 -1.065957132762e-06 1.000000000000e-03 1.047197551197e-05 8.608870032951e-12 8.147560318747e-12 5.749348334007e-12
240 2 7.759948227419e-03 9.763741900683e-04 1.295440981843e-02 -2.054808203793e-10 -1.148143708083e-09 -1.694609014701e-09 1.016693892768e-06 -1.201510318648e-07 8.067239679002e-07 1.000000000000e-03 1.047197551197e-05 -3.645049010311e-12 -6.496661828567e-13 2.631254934905e-12
241 2 6.687480606732e-03 1.340638299470e-02 1.010685118064e-02 -1.894214573321e-09 -4.169899014308e-09 -2.208425098915e-09 6.406853374853e-07 -4.188835522023e-07 3.039381478938e-07 1.000000000000e-03 1.047197551197e-05 5.366592578549e-12 4.831794835034e-12 -9.944893056758e-13
242 2 2.837449890488e-03 5.199303826233e-03 2.299150788703e-03 -6.041654322815e-10 -7.272992643374e-09 -9.318917621885e-09 5.027457290464e-06 6.204825483643e-06 -6.869127500531e-06 1.000000000000e-03 1.047197551197e-05 -4.784318268133e-12 1.099786784228e-11 1.832860915052e-11
243 2 6.187830859871e-03 2.525795275709e-03 1.069641203649e-02 -7.565784642884e-10 -3.315018446249e-09 1.836519205362e-10 -1.844887642648e-06 -5.278727285733e-07 -3.359111430536e-07 1.000000000000e-03 1.047197551197e-05 6.613409900647e-13 2.328902271245e-12 2.199251571503e-12
244 2 1.129080907589e-02 1.384500706010e-03 1.443917504119e-02 -1.366330801696e-10 -1.308917155057e-09 -5.182929267260e-10 -1.027046007318e-06 -2.991450413979e-07 4.624867351354e-07 1.000000000000e-03 1.047197551197e-05 -7.086506368152e-13 2.540270552972e-13 2.076730543640e-13
245 2 1.559042275307e-03 1.495619810519e-02 1.445652858879e-02 1.214847979714e-11 -9.113629504309e-10 -4.335027297720e-10 -6.957509115416e-07 -3.688732807652e-07 -4.253562063435e-07 1.000000000000e-03 1.047197551197e-05 3.179953381744e-12 1.771694742768e-12 1.720995474028e-12
246 2 3.471258667646e-03 8.412210568204e-03 8.214533463112e-03 -2.676468798179e-09 -5.091689534668e-09 -1.680759162414e-09 -4.188389159397e-07 -1.289585210718e-06 8.753346020709e-07 1.000000000000e-03 1.047197551197e-05 6.763612102812e-12 6.277335438470e-12 9.147277717179e-13
247 2 6.259655548487e-03 4.166750296484e-03 1.449214141015e-02 -5.222956593166e-10 -8.347426702540e-10 -7.530063042671e-10 -7.812602318310e-07 4.220363404454e-07 -2.169515466546e-07 1.000000000000e-03 1.047197551197e-05 -2.285236724597e-13 6.174134829856e-13 1.214609458624e-12
248 2 2.318455931240e-03 3.736219688944e-03 4.341606508398e-03 -3.119112895366e-09 -4.487627297485e-10 2.892243152236e-09 -1.513729772958e-05 -4.026011822637e-07 -1.057307588890e-05 1.000000000000e-03 1.047197551197e-05 4.220929427489e-12 -5.865830483496e-14 -6.932776730286e-12
249 2 3.332692604490e-03 2.277020331991e-03 1.619192530738e-03 1.168000742925e-08 6.697524515021e-09 2.234307165557e-09 -6.516796297196e-07 -2.508022377198e-07 9.899735177022e-07 1.000000000000e-03 1.047197551197e-05 -2.450925365187e-11 -5.763762527845e-12 -2.232358678053e-11
250 2 6.453927845782e-03 8.992852760758e-03 7.107081315267e-03 -4.086452645911e-09 -5.678965714674e-09 -7.059087613995e-09 -4.638435069877e-07 1.390068159509e-06 -5.862260919792e-07 1.000000000000e-03 1.047197551197e-05 7.712931789788e-12 6.696162580452e-12 1.341752008682e-11
251 2 8.457958346573e-03 3.839563082319e-03 1.267549183472e-02 -5.937806006522e-10 -1.358164355150e-09 -1.257550356945e-09 -5.521758457926e-07 5.591055352022e-08 3.555016760411e-08 1.000000000000e-03 1.047197551197e-05 1.653620746907e-12 5.497933864898e-12 1.256080820856e-11
252 2 1.121984491620e-02 8.401472836979e-03 9.876125227883e-03 -3.768156550591e-09 -4.729762544765e-09 -5.178178674786e-09 3.430603651292e-06 -2.688552666535e-06 -1.834768050506e-06 1.000000000000e-03 1.047197551197e-05 1.032162869025e-11 8.517173088496e-12 5.408615872687e-12
253 2 1.381138824604e-02 1.140777598938e-02 5.584359627048e-03 -8.405250344926e-09 -3.616534533424e-09 6.198616071042e-10 -2.016148931220e-06 4.522355571352e-06 -7.483414072076e-06 1.000000000000e-03 1.047197551197e-05 7.528446561885e-12 3.442310165998e-12 4.119585561490e-13
254 2 4.600042863141e-03 8.774972958172e-03 3.848887656534e-03 -3.533094904684e-09 -6.556374833214e-09 -1.156602468980e-09 2.667231308150e-06 5.252413740345e-06 -2.465326795149e-06 1.000000000000e-03 1.047197551197e-05 3.080810944066e-12 1.342175203052e-11 2.233891283290e-12
255 2 6.575154868582e-03 1.027780777687e-02 1.229784245347e-02 -2.091468809197e-09 -1.468854390827e-09 -3.592396972688e-09 -1.289680372922e-06 -1.418847499545e-06 5.600180903917e-07 1.000000000000e-03 1.047197551197e-05 7.289205480255e-12 3.494341489148e-13 1.929470956179e-12
256 2 6.863077148471e-03 9.748146889481e-03 1.045625037722e-02 -2.663680543084e-09 -4.117773747076e-09 -4.033627908766e-09 6.969650671938e-07 1.100885192373e-06 -4.455569554748e-07 1.000000000000e-03 1.047197551197e-05 5.916270531975e-12 -3.346869964715e-12 1.457962164599e-11
257 2 1.292516569076e-02 1.179151493395e-02 1.292125712402e-02 -1.398748009767e-09 -3.121958892686e-09 -7.461583291649e-10 8.851723145595e-07 2.228342901147e-06 -3.160896035245e-06 1.000000000000e-03 1.047197551197e-05 -4.605069792563e-12 -4.120827354813e-12 4.684568593487e-12
258 2 9.555893987732e-06 1.230072287271e-03 1.128740198251e-02 -7.464796893043e-10 -2.960201860790e-09 -9.511117371724e-10 -1.229707462740e-06 -1.583195153618e-07 1.756425519115e-07 1.000000000000e-03 1.047197551197e-05 7.187099315294e-12 2.181637007270e-12 2.434286762416e-12
259 2 1.291696313214e-02 1.267462394265e-04 3.256977097084e-03 -1.229676220187e-09 -4.413182053583e-09 2.742778010275e-10 3.167286947957e-06 -2.480440680944e-06 -5.216677276447e-07 1.000000000000e-03 1.047197551197e-05 -2.138252551311e-11 3.500916656136e-11 6.536645421220e-12
260 2 1.415586348113e-02 1.415473956960e-02 3.201787254995e-03 -9.729157417245e-10 -3.497990771246e-09 1.054651164490e-09 1.269082185552e-06 -2.986380119451e-06 1.226988086283e-06 1.000000000000e-03 1.047197551197e-05 -5.123398728846e-12 1.304825336298e-11 -1.415033571008e-12
261 2 1.536382565288e-02 1.236093140924e-02 8.601886223457e-04 -7.563341623103e-10 1.732871775240e-10 3.394539413767e-10 -5.708593370629e-07 -3.432211402744e-07 4.355054600041e-07 1.000000000000e-03 1.047197551197e-05 -8.661626710099e-13 4.866887187487e-12 1.634151364464e-12
262 2 1.073943549539e-02 2.323967620745e-03 7.338284738702e-03 5.871350569624e-10 -4.297985599544e-09 -9.313905862411e-10 2.203531267576e-07 -3.125583559102e-07 3.197318801795e-08 1.000000000000e-03 1.047197551197e-05 -7.370534269903e-14 1.425080537257e-11 6.179858167446e-12
263 2 9.892600558295e-03 9.298005906489e-03 2.633992145337e-03 -8.114853168543e-09 -1.361285483253e-08 -5.349925603947e-09 -1.923661602992e-05 1.376811215650e-05 -6.622360525573e-07 1.000000000000e-03 1.047197551197e-05 1.392052306611e-11 1.979536450953e-11 9.259278907453e-12
264 2 9.257516437743e-03 2.402574967737e-03 1.420565069024e-02 -4.693137978277e-07 1.833701105109e-07 -3.280686996846e-07 -1.585152877660e+03 -1.758267837620e+03 8.028657249461e+02 1.000000000000e-03 1.047197551197e-05 4.880059363811e-10 -1.903781224560e-10 3.409504144153e-10
265 2 1.415955004683e-02 3.351759192741e-03 1.450421829155e-02 -4.231809163311e-10 -4.879326553383e-10 -3.555353873103e-10 -2.425715900116e-07 4.019646217949e-07 -2.646767227826e-07 1.000000000000e-03 1.047197551197e-05 -9.579288426567e-13 2.111986214425e-12 2.598266543302e-14
266 2 1.642296287376e-03 5.439887441378e-03 1.304173855436e-02 -1.358540481084e-09 -1.492183156952e-09 -1.590555741791e-09 -1.193836868949e-06 1.055797565390e-06 4.786419061389e-07 1.000000000000e-03 1.047197551197e-05 3.580777897715e-12 3.345338004829e-12 3.912220454454e-12
267 2 1.922643624642e-04 7.636438895879e-03 9.886128170305e-03 -4.517705947926e-09 -4.024892259074e-09 -4.323459182500e-09 -3.112895382709e-06 7.741983707981e-07 1.701836388908e-06 1.000000000000e-03 1.047197551197e-05 1.459590117303e-12 4.514442758275e-12 1.148438151162e-11
268 2 1.107813574779e-02 8.896964648039e-03 1.263604186047e-02 -1.987344272417e-09 -1.514852694059e-09 -1.122841133508e-09 -1.203622699127e-06 4.683763332036e-07 -1.507931210000e-07 1.000000000000e-03 1.047197551197e-05 3.161142367923e-13 1.212044426685e-11 2.479317562570e-12
269 2 1.412131547064e-02 1.976796394478e-03 1.091035115993e-03 7.956795181167e-09 -7.290079340622e-09 -1.500034472324e-09 -1.978748084418e-06 -1.893518306041e-06 -7.019906830134e-06 1.000000000000e-03 1.047197551197e-05 -9.364001408490e-12 1.290092998016e-11 2.412493933926e-12
270 2 2.454454456891e-03 1.049307441824e-02 1.237964464207e-02 -1.743693877393e-09 -2.321351002311e-09 -2.014473106557e-09 -1.516462221003e-07 4.607439925136e-07 -6.355387954988e-07 1.000000000000e-03 1.047197551197e-05 3.661550304529e-12 3.703365985701e-12 6.792509935331e-12
271 2 1.149297438359e-02 9.840417783883e-03 1.107108303414e-02 -3.413837473630e-09 -4.521909076895e-09 -3.220022978937e-09 -2.366244227084e-06 4.819441175743e-07 8.958042320169e-07 1.000000000000e-03 1.047197551197e-05 2.761200666250e-12 -1.575289088150e-12 8.104135500634e-12
272 2 1.644173744813e-03 7.883536862704e-03 1.447021544959e-02 -5.401015084262e-10 -4.615937622744e-10 -3.345156667064e-10 -2.136331762075e-07 4.182058031885e-07 5.470346222756e-07 1.000000000000e-03 1.047197551197e-05 4.100715507534e-12 5.994813351371e-14 -5.562059342007e-13
273 2 8.922119015872e-03 1.804691324263e-03 7.186576031727e-03 6.868345884442e-10 -4.016529362269e-09 -1.456533985655e-09 -6.786384760897e-07 -3.774166665615e-07 2.356072019648e-07 1.000000000000e-03 1.047197551197e-05 1.240082823890e-13 9.344486521763e-12 7.240092613933e-12
274 2 8.780204443699e-03 1.485123947734e-02 5.095429730207e-03 -3.203466660242e-09 5.454400589528e-10 -2.940837937896e-09 1.962398644199e-06 2.287202169040e-06 -3.665048772082e-06 1.000000000000e-03 1.047197551197e-05 5.380004907661e-12 1.305830723013e-12 9.864679187258e-13
275 2 6.069775873626e-03 7.167845376210e-03 1.226355826355e-02 -1.335158261703e-09 -1.669675152674e-09 -2.003906457065e-09 -7.604836132571e-07 7.127576686848e-07 8.171781663217e-08 1.000000000000e-03 1.047197551197e-05 3.781439056204e-12 2.381501990812e-12 5.244536381819e-12
276 2 9.356181568585e-03 6.647636283312e-03 9.023396336101e-03 -3.415340260291e-09 -4.396000219309e-09 -4.266087326192e-09 -1.265048342804e-06 1.342253252787e-06 -5.210720804471e-07 1.000000000000e-03 1.047197551197e-05 1.923024530338e-12 1.229146915552e-11 8.138113115772e-12
277 2 2.951396950647e-03 9.776787941660e-04 5.879327217229e-03 1.390076332953e-09 -2.591147598893e-09 -3.611803865574e-09 3.407594406348e-06 -4.981228502188e-06 -3.716743290066e-06 1.000000000000e-03 1.047197551197e-05 4.980309034216e-12 1.529935235125e-12 6.948605609077e-12
278 2 1.304476597706e-02 6.942032470670e-03 3.484861796675e-03 4.171348711042e-09 -5.311061793435e-10 -4.126891024445e-09 6.982521438215e-07 -1.286602386876e-06 -1.541595763059e-07 1.000000000000e-03 1.047197551197e-05 -7.602555146621e-12 -1.031503097424e-12 4.879458823897e-12
279 2 7.971393025336e-03 9.972817160140e-03 2.074778552583e-03 8.187914677821e-09 -1.209365504222e-09 -8.454263442908e-09 6.973747998005e-07 7.065621417262e-06 9.185153676646e-06 1.000000000000e-03 1.047197551197e-05 -5.730020200953e-12 -3.068414837628e-13 1.177089343036e-11
280 2 8.692907372715e-03 1.478682706454e-02 2.178098981641e-03 3.425380592740e-09 1.277386004046e-09 -1.237158846619e-09 -1.631025578987e-06 2.186283608182e-06 -9.996726315799e-07 1.000000000000e-03 1.047197551197e-05 -6.764726252349e-12 -8.217282987762e-12 4.512939023128e-12
281 2 9.467099359461e-03 3.648074223963e-03 7.081570679076e-03 8.315563561504e-10 -4.838390968690e-09 -3.128297648454e-09 -8.079173468873e-07 -2.507312192653e-06 -4.600907983641e-07 1.000000000000e-03 1.047197551197e-05 7.663550311597e-13 9.677524499617e-12 1.139305529906e-11
282 2 1.458559383846e-02 1.429892539575e-02 8.798898825074e-03 -8.877717720760e-10 -4.619215254517e-09 -1.739894005964e-09 1.209944363309e-06 1.174258935024e-07 -7.752704710418e-07 1.000000000000e-03 1.047197551197e-05 -1.128984270990e-12 8.521462975314e-12 1.633887786058e-12
283 2 2.506382918342e-03 2.513559707478e-03 1.445130525218e-02 -5.907433735014e-10 -6.743607756848e-10 -1.400759048639e-10 -4.455409514344e-07 7.634268753910e-07 6.604643959320e-08 1.000000000000e-03 1.047197551197e-05 -5.087033844514e-12 -8.927432218786e-13 9.284463920792e-12
284 2 8.205299712293e-03 2.451389739858e-04 1.121014549770e-02 -4.324753883214e-10 -2.839969406358e-09 -1.882530713427e-09 -2.432370228411e-06 1.217504112636e-06 9.088074059875e-07 1.000000000000e-03 1.047197551197e-05 -1.989741023144e-13 4.525930815476e-12 2.929670140001e-12
285 2 1.353547740898e-02 1.979411356436e-03 2.986358934510e-03 6.974777928857e-10 -6.044446312942e-09 -3.448937143727e-09 4.383039976897e-07 -4.026479541885e-06 2.428512137831e-06 1.000000000000e-03 1.047197551197e-05 -1.233687321349e-13 1.762110412043e-11 9.092906133155e-12
286 2 1.368439500353e-02 1.749110644070e-03 1.181230178092e-02 -1.026206772094e-09 -1.971223742691e-09 -1.174339385441e-09 -3.722213443884e-07 2.150435752134e-07 -3.823586427236e-07 1.000000000000e-03 1.047197551197e-05 -3.733816386715e-12 3.830763698894e-12 5.105110517544e-13
287 2 2.060684716415e-03 9.550436152101e-03 8.809156103143e-03 -3.448955597297e-09 -6.169559539012e-09 -2.553457533640e-09 -1.541561655004e-07 7.638663603779e-07 -2.512238517501e-07 1.000000000000e-03 1.047197551197e-05 1.020698206847e-11 8.125955630113e-12 -2.409442900659e-12
288 2 1.189333290281e-02 2.940600108275e-03 1.090436319462e-02 -9.288800677520e-10 -2.205398738905e-09 -6.946104517313e-10 -1.111170214824e-06 1.049897423390e-07 6.266030997650e-07 1.000000000000e-03 1.047197551197e-05 7.151861079554e-12 1.000471155000e-12 5.771981712476e-13
289 2 2.914469167188e-03 8.253101116201e-04 1.033074027132e-02 2.013423912738e-10 -2.955726371161e-09 -1.951216267611e-09 -9.627081357110e-07 -1.616554133254e-06 -2.873333277572e-07 1.000000000000e-03 1.047197551197e-05 -3.025093867230e-12 6.005853542501e-12 3.264883163366e-12
290 2 1.356438193631e-02 6.286804224517e-03 8.947361401777e-04 5.008546356371e-10 -2.278093579218e-10 8.582192332942e-11 -5.431502022965e-07 6.077759305336e-08 -1.778537464616e-06 1.000000000000e-03 1.047197551197e-05 2.929317420049e-12 -6.914612923063e-12 5.224645388826e-12
291 2 3.006353958033e-03 4.121147166582e-03 1.264676935935e-02 -1.134795026223e-09 -1.523308038977e-09 -1.134302490250e-09 -6.213371248478e-07 3.223199835251e-07 2.752983155269e-07 1.000000000000e-03 1.047197551197e-05 5.873042085112e-14 4.251290399450e-12 -3.634248965180e-12
292 2 1.162530817204e-02 6.629711942818e-03 1.001960356274e-03 2.013954938436e-09 -1.161508335476e-09 -6.870002147085e-09 -8.343056365617e-06 -5.924521647931e-06 5.126953070268e-06 1.000000000000e-03 1.047197551197e-05 1.093279700920e-11 -5.591647283251e-12 7.436673394293e-12
293 2 4.060941165372e-03 3.430989099701e-03 3.560926290201e-03 -1.341942774745e-08 -7.239958296017e-09 -9.030919590058e-09 7.307171040770e-06 1.652938835890e-05 7.548307651747e-06 1.000000000000e-03 1.047197551197e-05 1.475486352347e-11 2.627340283803e-11 2.013648068926e-11
294 2 1.203103620337e-02 5.117955528609e-03 6.928091873665e-03 -1.135019621270e-09 -4.946050781633e-09 -2.378052294607e-09 -1.989197058178e-06 3.378507110227e-07 1.306213805638e-06 1.000000000000e-03 1.047197551197e-05 5.706198744273e-12 -1.416904148754e-11 1.736168850893e-12
295 2 1.115606348495e-02 6.688282440336e-03 3.109227304287e-03 1.171163007172e-08 -1.248427055242e-08 -1.345867221225e-08 6.853672918517e-06 -7.308755109724e-06 1.819312399783e-05 1.000000000000e-03 1.047197551197e-05 -2.382399625661e-11 1.754064814794e-11 2.604030446315e-11
296 2 1.652364719760e-03 4.057700993937e-04 1.156581489398e-02 -2.893804406248e-10 -2.039206446805e-09 -1.158363190298e-09 -4.839854492398e-07 1.309706031097e-06 3.893668050925e-07 1.000000000000e-03 1.047197551197e-05 -3.600799373401e-12 4.843234049244e-12 2.518315231413e-12
297 2 1.044418381746e-02 5.317813076650e-03 9.716212753664e-03 -2.476121218863e-09 -3.420799006637e-09 -2.836780144194e-09 -1.107132440435e-06 -3.772033868977e-07 1.142728973299e-06 1.000000000000e-03 1.047197551197e-05 7.747481287388e-12 3.142220185753e-12 5.097141308034e-13
298 2 6.520124085835e-03 1.265285690574e-02 3.464580259789e-03 -2.129421988412e-09 4.844444566972e-10 -4.034687288111e-09 4.172032546537e-06 -2.049564438177e-06 -4.190959240714e-06 1.000000000000e-03 1.047197551197e-05 7.930859817189e-12 -1.009445024670e-11 1.215510344500e-11
299 2 5.960725692096e-04 1.094320617057e-02 1.202744074596e-02 -1.751530210906e-09 -2.070095146395e-09 -2.026416015988e-09 -6.982945024476e-07 1.703025543033e-07 -2.901730017830e-07 1.000000000000e-03 1.047197551197e-05 1.635272629315e-12 -6.358828348732e-13 -1.913433300913e-12
300 2 1.757717315255e-03 1.096076074466e-03 1.340690810910e-02 -1.799561710993e-10 -1.111465708210e-09 -8.532480535986e-10 -2.930206126869e-08 7.470848777675e-08 8.096625997342e-07 1.000000000000e-03 1.047197551197e-05 2.163432458363e-12 2.644112986447e-12 4.113365570348e-12
301 2 1.291037637765e-02 4.084116268764e-03 1.333794724750e-02 -8.909173622036e-10 -9.395621580120e-10 -4.583094092412e-10 -3.119170931474e-07 -1.377034114034e-07 5.830673381479e-07 1.000000000000e-03 1.047197551197e-05 2.185918389497e-13 5.967913764467e-12 -6.727779480368e-12
302 2 2.943595044177e-03 6.455805624536e-03 1.446692579456e-02 -3.315740914338e-10 -3.896957376367e-10 -3.775245538824e-10 -2.266436506601e-07 1.519020787384e-07 -4.173555011831e-07 1.000000000000e-03 1.047197551197e-05 1.398150123740e-12 -1.290794673397e-13 2.331906371107e-12
303 2 3.520024839821e-03 1.071475981300e-02 8.811103764969e-04 -5.635779738238e-10 -1.513959331349e-09 -7.313072629548e-10 8.412855391905e-07 -1.667453803874e-06 -1.216922825825e-06 1.000000000000e-03 1.047197551197e-05 4.727309800901e-12 -1.266243239264e-12 2.469165013828e-12
304 2 8.451897006600e-03 1.528411185676e-02 6.952946004788e-03 2.938336521078e-11 -3.283504640492e-09 -1.944162919208e-09 2.083828885919e-06 2.505992834068e-07 -7.606922126806e-07 1.000000000000e-03 1.047197551197e-05 1.164605582113e-12 1.068651110301e-11 9.428110865269e-12
305 2 1.045298696511e-02 1.422655759528e-02 5.920794686762e-03 -3.920184745945e-09 -3.479080620851e-09 -2.486322825902e-09 -2.591783698279e-06 -1.412934435420e-06 -3.861906226937e-06 1.000000000000e-03 1.047197551197e-05 5.530168381825e-12 4.057255638962e-12 1.015492684277e-12
306 2 1.336729277197e-02 5.072312110117e-03 2.380109261649e-03 7.740848498121e-09 -6.397219179976e-09 -2.014175468548e-09 7.528345405596e-06 1.445571732136e-06 3.555976268402e-06 1.000000000000e-03 1.047197551197e-05 -6.273364167596e-12 1.097796377683e-11 1.860842977725e-12
307 2 1.287421503005e-02 8.807293729743e-03 1.196865763682e-02 -2.272675939084e-09 -2.287315091485e-09 -1.020182155895e-09 -1.495782244725e-06 -1.230626297722e-07 1.456826180409e-07 1.000000000000e-03 1.047197551197e-05 4.788468427690e-12 1.322889823633e-12 -2.147568381634e-12
308 2 8.993946142773e-03 1.022112299187e-02 6.051959284532e-03 -4.944790973474e-09 -4.747156755518e-09 -5.342552655680e-09 5.766097937552e-06 5.994692416104e-06 -8.543378628654e-06 1.000000000000e-03 1.047197551197e-05 -9.383877662387e-12 1.448674880858e-11 6.080517185675e-12
309 2 4.805734258651e-03 8.074797457522e-03 6.881468429171e-03 -3.692018219453e-09 -4.269293490988e-09 -3.003082885899e-09 3.096854413997e-06 3.579934720750e-06 -9.891964260245e-07 1.000000000000e-03 1.047197551197e-05 1.645771655317e-11 7.604430704762e-12 2.684549780199e-11
310 2 3.325000569487e-03 1.432249662666e-02 1.442319949738e-02 -1.718412942186e-11 -9.388575802334e-10 -4.450577465183e-10 -6.277071880102e-08 4.485924240709e-07 4.669590149902e-07 1.000000000000e-03 1.047197551197e-05 3.332028803684e-12 1.191475014562e-12 -6.434182262672e-12
311 2 9.021438846415e-03 7.374399993706e-03 3.470987119909e-03 -5.010762057535e-07 4.072649998931e-06 -3.590641190267e-06 9.186143210367e-04 -2.600009121227e-03 -5.611183814183e-03 1.000000000000e-03 1.047197551197e-05 6.280951457870e-10 -4.678227501023e-09 4.052897252827e-09
312 2 2.275871595784e-03 6.642069547429e-03 8.647864947802e-03 -1.559346827475e-09 -4.521087542318e-09 -3.586462668413e-09 4.163958382691e-07 6.833965141260e-07 3.002029773360e-06 1.000000000000e-03 1.047197551197e-05 2.174534100040e-12 6.464744185083e-12 6.098215225221e-12
313 2 3.868159924451e-03 8.242524533449e-03 1.439125069191e-02 -1.409282648760e-09 -1.824327920011e-09 -6.129517456699e-10 -1.641923720114e-06 1.333728788589e-06 1.216665327394e-07 1.000000000000e-03 1.047197551197e-05 7.075896686448e-12 4.769799483255e-12 -1.003131188650e-12
314 2 1.148053718068e-02 1.269818671797e-02 1.394772575295e-02 -1.878001464607e-10 -1.290788741237e-09 -1.519370656859e-10 1.493885808507e-06 -3.092531644399e-06 -7.942691962684e-07 1.000000000000e-03 1.047197551197e-05 -4.134940356484e-12 -2.233221348600e-12 3.105802419544e-12
315 2 1.370905915654e-03 1.380959125208e-02 5.929451422802e-03 4.641845096221e-09 -5.519165959747e-09 1.425037164209e-09 2.942939488994e-06 -3.710167343941e-06 -3.991114577043e-06 1.000000000000e-03 1.047197551197e-05 -2.000166168350e-13 6.461645676159e-12 -6.328915711307e-12
316 2 5.307467785956e-04 6.373927798516e-03 1.442316284778e-02 -5.084333216608e-10 -6.176406798069e-10 -1.329319938312e-10 -4.946674391745e-08 2.911994174216e-07 -2.742456016456e-07 1.000000000000e-03 1.047197551197e-05 9.438614584761e-13 2.682336409570e-12 -1.274921316258e-12
317 2 4.464538001766e-03 7.350275516938e-03 5.134105795396e-03 6.737049189151e-09 -1.339498221549e-08 -4.399436974949e-09 8.571961303455e-06 1.256449914773e-05 1.508576263767e-06 1.000000000000e-03 1.047197551197e-05 -9.036345822910e-12 4.218588585026e-12 -1.525431579417e-11
318 2 1.170875721256e-02 7.478446099380e-03 1.161889522806e-02 -3.150033355804e-09 -9.015025888378e-10 -3.902785512573e-09 4.255094629754e-06 -9.852591930088e-07 -1.599640079470e-06 1.000000000000e-03 1.047197551197e-05 3.909254467123e-12 -7.286430094150e-12 -2.695122500040e-12
319 2 1.223064449862e-02 4.812799655545e-03 8.854643626445e-04 4.606542267958e-09 -7.120582454586e-10 8.719909180665e-10 8.736366310825e-07 4.497597173765e-06 5.132345154960e-08 1.000000000000e-03 1.047197551197e-05 -7.259716187834e-12 2.661628483457e-12 -3.490943221320e-12
320 2 1.178288763828e-02 6.967991544070e-03 6.809751118885e-03 -6.651624244911e-09 -8.361402625764e-09 -9.486398866694e-09 -3.654861923484e-06 -1.143637061335e-06 3.767167306281e-06 1.000000000000e-03 1.047197551197e-05 1.627903523928e-11 3.566471682284e-11 5.650933640186e-12
321 2 8.355876752533e-03 1.432554736339e-02 1.258086272523e-02 9.103514723251e-10 -7.566695330878e-10 -3.857706719110e-10 -5.013659666151e-08 2.493441306319e-07 -2.990873000996e-07 1.000000000000e-03 1.047197551197e-05 -2.471463918683e-12 6.076863799690e-13 -5.913886961594e-13
322 2 1.490623534820e-02 3.374828747656e-03 1.203893093800e-02 -1.307724674131e-09 -2.329401487058e-09 -1.973615656858e-09 -1.418852038214e-06 1.414425391622e-06 1.189668609000e-07 1.000000000000e-03 1.047197551197e-05 1.339088712052e-12 9.963034029577e-13 3.485203730002e-12
323 2 1.236958997954e-02 3.255438485101e-03 7.353873632669e-03 4.529545659893e-10 -3.784621098479e-09 -2.464950823433e-10 -2.250371256129e-07 5.715495366401e-08 6.907589010490e-07 1.000000000000e-03 1.047197551197e-05 -3.058610116948e-12 9.451237142377e-12 1.973755486380e-12
324 2 2.044422736279e-03 1.089270259186e-02 3.301009122424e-03 -9.990973996206e-10 -2.753921465938e-09 -1.184726950112e-09 1.195065099973e-06 -1.185601845676e-06 4.559304624071e-07 1.000000000000e-03 1.047197551197e-05 -1.923473484120e-12 6.075439472020e-12 4.254570562726e-12
325 2 1.440098537917e-02 8.007857661788e-03 1.265454155645e-02 -1.700144139274e-09 -1.669309883286e-09 -7.221574432924e-10 6.498158084339e-07 3.155052392794e-07 2.728000462019e-07 1.000000000000e-03 1.047197551197e-05 3.232914991883e-12 5.055306793431e-12 -2.469719720643e-13
326 2 6.127440993982e-03 7.236583314119e-03 1.437246348282e-02 -7.083366495989e-10 -2.250096177803e-09 -6.954769734518e-10 2.094060885408e-06 -4.915150604911e-07 7.451038060045e-07 1.000000000000e-03 1.047197551197e-05 8.573951893658e-13 6.991284026465e-12 5.486773677724e-13
327 2 1.034742515702e-02 4.717710897252e-04 6.929501239486e-03 5.936315024813e-10 -3.858672739613e-09 -1.763659157055e-09 6.608531609363e-07 6.863043945813e-09 -3.142073607341e-07 1.000000000000e-03 1.047197551197e-05 6.896938075187e-13 6.370751157042e-12 1.029334034814e-11
328 2 1.183901820197e-02 1.025783901401e-02 7.904866547329e-03 -8.312499350228e-09 -8.082744285621e-09 -7.868959161883e-09 4.423603968229e-07 5.459483365719e-06 -6.815685844620e-06 1.000000000000e-03 1.047197551197e-05 1.439099680343e-11 1.421964070245e-11 8.942427446253e-12
329 2 1.279427334056e-02 2.643797721933e-04 6.400042763969e-03 -1.384911319339e-09 -3.689714345038e-09 -1.356153042359e-09 1.508323135239e-07 -2.165694458062e-06 -1.320208046424e-06 1.000000000000e-03 1.047197551197e-05 4.498447456438e-12 2.893712425583e-12 1.668156219814e-12
330 2 7.068409055137e-04 1.453572595597e-02 3.682383805113e-03 8.437558496262e-10 -9.710916523416e-10 2.650762965831e-09 -3.162099050948e-06 -3.405997477680e-06 -5.029276635905e-08 1.000000000000e-03 1.047197551197e-05 -2.237495282066e-11 -2.030504074187e-11 -7.055879253733e-12
331 2 6.471144587356e-03 9.151419077956e-03 1.449734583439e-02 -1.293119077759e-09 -2.032840183681e-09 -9.493434219555e-10 -2.067294785423e-06 1.273715466274e-06 8.411477743537e-08 1.000000000000e-03 1.047197551197e-05 4.404379914628e-12 9.067065166112e-14 -1.292141699188e-12
332 2 1.357960400883e-02 1.123033248979e-03 4.710392385917e-03 6.163044207170e-10 -3.495985397548e-09 -9.742433628513e-10 -4.187922501812e-06 2.925078775360e-06 -9.911654487002e-07 1.000000000000e-03 1.047197551197e-05 -3.601330101714e-12 1.218642132692e-11 -4.979209886291e-13
333 2 4.686575671764e-04 2.225154732885e-03 8.422969008496e-03 2.052682921189e-10 -3.749072443630e-09 -9.082175530407e-10 1.616833317084e-07 -6.460592856026e-07 7.312424716163e-07 1.000000000000e-03 1.047197551197e-05 -4.969134160098e-12 3.114124220506e-12 -1.844568796697e-13
334 2 5.523836885104e-03 8.514399372127e-03 1.097984148047e-02 -2.188437523157e-09 -3.107292772225e-09 -2.859420759357e-09 -7.625979462059e-07 2.442592160027e-07 3.096002499185e-07 1.000000000000e-03 1.047197551197e-05 4.310925180448e-12 3.270997235553e-12 6.187769826648e-12
335 2 1.985550073205e-03 1.264856279146e-02 2.499041176699e-03 -9.973328847757e-10 -1.879924906506e-09 -1.278922296138e-09 2.087157561659e-06 -1.954996436522e-06 -3.340050594760e-07 1.000000000000e-03 1.047197551197e-05 -9.123113778477e-13 1.086149383618e-12 -5.483654749766e-12
336 2 1.079723482434e-02 1.076945215967e-02 9.496776160473e-03 -2.609915502574e-09 -5.704425036207e-09 -5.066275219412e-09 3.738176136598e-07 -1.375566474864e-06 -1.255215090046e-06 1.000000000000e-03 1.047197551197e-05 2.828491664497e-12 1.158524009336e-11 1.085436174816e-11
337 2 8.237296443298e-03 2.295401706626e-03 3.713195589019e-03 8.280309676171e-10 6.893360377423e-09 1.300367698059e-09 -5.832667249900e-06 3.418849614498e-06 -1.633644168504e-05 1.000000000000e-03 1.047197551197e-05 -8.244950083881e-12 -9.427306931133e-12 -5.406964064184e-12
338 2 1.091875437602e-02 4.262858726608e-03 8.201706477780e-03 -4.968402438413e-10 -4.685393674091e-09 -1.231121225538e-09 -1.048040275887e-06 -7.431929611225e-07 7.180324439874e-07 1.000000000000e-03 1.047197551197e-05 6.715508051119e-12 -2.790955215459e-12 -1.764089412666e-12
339 2 4.422883668370e-03 8.029719201612e-03 1.248742936125e-02 -1.555821479662e-09 -1.860737147857e-09 -1.678354902391e-09 -1.327465440291e-06 6.585495144541e-07 5.238824417361e-07 1.000000000000e-03 1.047197551197e-05 9.846566520958e-12 3.716987164995e-13 7.773849287925e-13
340 2 3.469979390686e-03 2.295326571295e-03 1.286745412077e-02 -1.241509139913e-09 -1.782050958622e-09 -4.208487780985e-10 -3.057806048774e-07 -5.001041108031e-08 -8.286238029121e-07 1.000000000000e-03 1.047197551197e-05 3.234061565555e-12 -2.548640724452e-12 -5.521428991858e-12
341 2 7.855918972988e-03 1.126903538549e-02 1.118281077943e-02 -1.876026617160e-09 -3.563129554138e-09 -3.634867437026e-09 -8.999920926730e-07 3.272828013501e-07 -3.507272509510e-07 1.000000000000e-03 1.047197551197e-05 4.245167385016e-12 3.042922510590e-12 7.451219277591e-12
342 2 1.532820702425e-02 7.111323110502e-03 3.561767260836e-03 3.696973086719e-10 1.177080630992e-09 -2.090202477105e-09 1.600197309873e-06 -2.993745973970e-06 4.658020809026e-06 1.000000000000e-03 1.047197551197e-05 -2.208177118560e-11 -4.661852258929e-12 -1.747275440780e-11
343 2 9.290733669610e-04 4.090948336296e-03 8.410853955178e-03 6.560930836184e-10 -3.947395527687e-09 -2.677012446545e-09 -2.254501233909e-06 -2.080579522063e-06 -1.775771975623e-06 1.000000000000e-03 1.047197551197e-05 -6.193312972461e-13 5.659082163872e-12 2.493063509715e-12
344 2 1.331802966580e-02 1.069499243323e-02 3.237880622419e-03 -5.409920295856e-09 -3.613898448762e-09 1.023901667847e-10 4.069604770565e-07 -3.716888021467e-06 3.355376229816e-06 1.000000000000e-03 1.047197551197e-05 1.100454821524e-11 8.724563684912e-12 -4.942977042772e-12
345 2 1.125306273264e-02 9.110380302804e-03 1.455197110408e-02 -1.101823238466e-09 -2.742733251431e-10 -4.898942435267e-10 -3.670477305090e-08 7.846105260150e-07 1.968828672859e-07 1.000000000000e-03 1.047197551197e-05 2.758368840326e-13 -1.335046970670e-12 3.371087935235e-13
346 2 4.517545357258e-03 6.461841624408e-03 1.057687883241e-03 -3.548946317881e-10 3.935939257077e-08 -6.629633112728e-09 3.012770249249e-05 4.675419601933e-06 4.766589132130e-05 1.000000000000e-03 1.047197551197e-05 3.596731540674e-12 -6.291492766186e-11 1.262736490197e-11
347 2 8.223734819443e-03 1.943585619726e-03 9.050241201405e-04 6.405387457239e-09 -3.153007101930e-09 -1.270253321611e-09 3.086744733429e-06 7.358571297653e-06 7.194795913518e-06 1.000000000000e-03 1.047197551197e-05 -1.203155346644e-11 4.147237360274e-12 3.801089583638e-12
348 2 1.301128130026e-02 6.079757140948e-03 8.212470719624e-03 -2.318965632796e-09 -2.171383328556e-09 -5.106067568873e-09 -1.509344886111e-06 -8.495951795529e-08 1.293870343946e-06 1.000000000000e-03 1.047197551197e-05 1.305648410770e-11 1.030763122636e-11 1.286842682976e-11
349 2 6.599106469254e-03 1.152977476258e-02 9.827497457467e-03 -2.306672623769e-09 -3.580156331049e-09 -3.396658334265e-09 4.859789146307e-07 -8.843490028479e-08 -3.752864788866e-07 1.000000000000e-03 1.047197551197e-05 7.537951320475e-12 3.834946692571e-12 7.606278400421e-12
350 2 5.008435015844e-03 9.615844309928e-03 8.198698166740e-04 1.316088087970e-09 -2.154505797115e-09 -8.855494238345e-10 1.955440094376e-06 9.830384245839e-07 1.803125805309e-06 1.000000000000e-03 1.047197551197e-05 1.083815893822e-11 1.669199477448e-11 1.014247007230e-11
351 2 9.640173894303e-03 8.106927276915e-03 1.151890227917e-02 -5.355984513896e-09 1.182784394808e-09 -1.115605697928e-09 5.667763221085e-06 3.336287524655e-06 -5.452029632285e-07 1.000000000000e-03 1.047197551197e-05 3.093864278265e-12 1.920125144144e-12 1.454257771842e-12
352 2 1.188246642913e-02 8.202803105944e-03 2.178579627392e-03 -3.857494687957e-09 -2.362117020382e-09 -6.813105868505e-09 1.666778504391e-06 3.586039187174e-07 1.477466535190e-07 1.000000000000e-03 1.047197551197e-05 1.376015215636e-11 -8.475025097133e-14 -1.164879125847e-11
353 2 3.108818403143e-03 4.406181613711e-03 1.447357130050e-02 -3.472253471550e-10 -5.247995013849e-10 -5.244034684830e-10 -2.556634973961e-07 2.320620239097e-07 -4.236438075710e-07 1.000000000000e-03 1.047197551197e-05 -2.728226236161e-12 3.247359225729e-12 -8.838565168290e-14
354 2 1.346708328620e-02 7.745819279996e-03 7.310474427400e-03 -7.866559999625e-09 -2.055308231737e-09 -7.185053823233e-09 -3.126934367121e-06 -7.301420717313e-07 5.203632027401e-06 1.000000000000e-03 1.047197551197e-05 4.565926114322e-11 -1.040653518509e-12 -2.223978174383e-11
355 2 7.639043412897e-03 1.362858278489e-02 9.886052281995e-04 7.883705807596e-10 7.744048105889e-10 2.572084998072e-10 -1.749573594380e-07 1.048969080338e-06 1.425553850667e-06 1.000000000000e-03 1.047197551197e-05 -2.298996684571e-12 -7.086867333329e-13 -2.101447664291e-13
356 2 4.137183545622e-03 5.027792459733e-03 6.921958724194e-03 2.132611368755e-09 8.312584457414e-09 -1.070654132421e-08 1.235580419081e-05 1.104904630878e-05 1.328401647498e-05 1.000000000000e-03 1.047197551197e-05 -1.275763907485e-11 -9.105691004377e-12 1.426798412829e-11
357 2 1.076876165940e-02 1.087870415724e-02 6.407084836020e-03 -4.036759122244e-09 -8.764270555505e-09 -6.856994710682e-09 -3.376236758975e-06 -5.198860410023e-06 3.967465312233e-06 1.000000000000e-03 1.047197551197e-05 1.123306937347e-11 1.883580879423e-11 1.015522247461e-11
358 2 9.554351753152e-03 1.026713570519e-02 1.098830362626e-02 -3.647870045248e-09 -4.919245305221e-09 -4.159758333356e-09 3.315686843236e-06 -1.670394220477e-06 -1.120637993927e-06 1.000000000000e-03 1.047197551197e-05 6.509151226698e-12 5.165330575982e-12 9.993393235291e-12
359 2 5.447938115261e-03 2.262704662545e-03 6.505465578002e-03 -3.420396467215e-09 5.519667665843e-09 1.923368218514e-09 2.476949748430e-05 3.007148289776e-06 9.279268962126e-06 1.000000000000e-03 1.047197551197e-05 6.216107326997e-12 -6.082464017271e-12 -1.229347930408e-11
360 2 1.455970471193e-02 3.878924936823e-03 8.423632286219e-04 5.192823393740e-09 -4.912175363650e-09 -5.782226406913e-10 4.318075943672e-06 5.256404111079e-06 9.773259971272e-06 1.000000000000e-03 1.047197551197e-05 -5.938036139918e-12 2.299050077819e-12 1.439407984685e-12
361 2 6.809143840668e-03 3.293304509288e-03 8.622002259364e-03 -1.147225479347e-10 -3.974357534719e-09 -4.107831041207e-09 2.876012956513e-06 3.154428245319e-06 1.918423505937e-07 1.000000000000e-03 1.047197551197e-05 4.401784007750e-12 8.403811612672e-12 4.886572384154e-12
362 2 4.262901129710e-03 3.918041600426e-03 1.131602543744e-02 -8.213408242165e-10 -2.628571863194e-09 -7.814538745010e-10 -8.130454746770e-07 -7.476082594515e-07 -1.172382213550e-07 1.000000000000e-03 1.047197551197e-05 -7.836725246209e-13 7.578686437717e-12 -5.941952724521e-13
363 2 1.266829030964e-02 1.275588949329e-02 2.694178785514e-03 -2.810629341461e-09 -1.497401669172e-09 -1.142699353414e-10 1.732139770703e-06 -8.846522042047e-07 -4.661271104596e-07 1.000000000000e-03 1.047197551197e-05 -6.475650311285e-12 1.131155594620e-11 -3.882692871126e-12
364 2 1.010012874383e-02 7.521599044178e-03 1.773547464717e-03 -5.829182758934e-09 -1.387973041375e-08 -2.381418904531e-09 1.395399357701e-05 9.931302912492e-06 1.247130782262e-05 1.000000000000e-03 1.047197551197e-05 -2.344858584357e-12 2.986779090290e-11 1.208226637688e-11
365 2 1.191134290886e-02 6.389148423012e-03 1.014891757635e-02 -2.930218784423e-09 -1.187800143717e-09 -4.775692889890e-09 -3.498808086607e-06 -4.642387901640e-07 -5.166826885883e-07 1.000000000000e-03 1.047197551197e-05 -4.464089701333e-13 5.402314544640e-12 5.650407296288e-12
366 2 7.638027563137e-03 1.164599132582e-02 1.041038494748e-03 1.783216552670e-09 9.152859350515e-10 -1.633785311576e-09 4.040053995746e-06 -2.266862558329e-06 9.160006147531e-07 1.000000000000e-03 1.047197551197e-05 -3.458653441580e-12 -2.162504174691e-12 1.001495386553e-12
367 2 4.725684992301e-03 4.556941869219e-04 1.000110257458e-02 4.377495016850e-10 -2.635665207288e-09 -1.667442891703e-09 4.858274033007e-07 1.046845843656e-06 7.353119363498e-07 1.000000000000e-03 1.047197551197e-05 -2.470316598417e-12 6.873506863356e-13 2.427448238648e-12
368 2 1.173843817310e-02 9.630791865634e-04 8.251708419453e-03 8.250018415277e-11 -4.271071582830e-09 -8.987582069232e-10 6.634407449886e-07 -6.714418560375e-07 7.287529641602e-07 1.000000000000e-03 1.047197551197e-05 -5.983262237822e-15 8.181617866944e-12 6.087870586033e-12
369 2 5.847582777331e-03 1.388340773122e-02 6.531925328725e-03 -1.025462879706e-09 -6.133996835369e-09 -9.143829223651e-10 4.508987591602e-07 -3.686046430502e-06 -4.079636172371e-06 1.000000000000e-03 1.047197551197e-05 2.795196379343e-12 1.252441460868e-11 1.876033095715e-12
370 2 1.772416962687e-03 1.142309801358e-02 1.055468892547e-03 -4.644956959602e-10 -7.136881852746e-10 -1.261974511928e-09 -1.258275784311e-06 1.118346264525e-06 1.231042894109e-07 1.000000000000e-03 1.047197551197e-05 -2.100935203938e-12 7.154938909269e-12 8.607133380527e-13
371 2 1.288223057621e-02 4.137534379755e-03 5.707480562549e-03 2.274037293272e-09 -3.752881570038e-09 5.401855246509e-10 1.289129024001e-07 -2.835275967066e-06 -4.366275836549e-08 1.000000000000e-03 1.047197551197e-05 -3.431945873858e-12 -2.750294199924e-12 7.125347126453e-12
372 2 1.532572824065e-03 9.355146568519e-03 6.914437779440e-03 -2.373600127879e-09 -5.827224905542e-09 -3.269671077743e-09 5.361303695628e-07 -3.489290039162e-06 -9.785702764332e-07 1.000000000000e-03 1.047197551197e-05 2.723541517532e-12 9.099055071878e-12 4.467794806610e-12
373 2 1.013008532566e-02 5.190922629095e-03 2.772413605164e-03 2.098215332321e-08 -5.704556902924e-09 -4.879735294740e-09 -1.231579711448e-05 6.180487281152e-06 -1.926486204894e-05 1.000000000000e-03 1.047197551197e-05 -4.370759500489e-11 -2.252758846340e-11 -1.687839479696e-12
374 2 1.722614782345e-03 4.612652425205e-03 1.131945195216e-02 -1.625523899011e-09 -1.926794561708e-09 -2.002076337735e-09 5.557677403384e-07 -5.907620141524e-07 6.755897871011e-07 1.000000000000e-03 1.047197551197e-05 4.545015247268e-12 3.644484838423e-12 4.295230175013e-12
375 2 4.845662070411e-03 9.125464346482e-03 9.262587972050e-03 -2.860856167774e-09 -4.112904327511e-09 -2.522916769542e-09 -6.693165408494e-07 1.005196191325e-06 -1.070187325038e-06 1.000000000000e-03 1.047197551197e-05 1.879865530761e-12 9.249760822455e-12 9.034674570537e-12
376 2 3.772984873181e-03 1.080916205627e-02 1.441626249679e-02 -4.289934268656e-10 -1.145837022069e-09 -2.928411403463e-10 -7.255230792171e-07 -1.348934932370e-07 -6.233528997854e-07 1.000000000000e-03 1.047197551197e-05 -2.503411919510e-12 2.868862136753e-12 -7.439103160127e-13
377 2 6.353887876364e-03 1.515738340144e-03 1.234268281746e-03 6.359356758624e-09 -1.820710692561e-09 5.860182498431e-10 -1.127703918962e-06 -4.831260177942e-06 -1.019865292411e-05 1.000000000000e-03 1.047197551197e-05 -2.237002313026e-11 1.162046567275e-11 5.041472639315e-12
378 2 5.359418517258e-05 1.378893890958e-02 1.449112739165e-02 2.322066104485e-13 -1.167024125318e-09 -6.294510272388e-10 -1.016335959410e-06 -4.749264505961e-07 7.288937880795e-07 1.000000000000e-03 1.047197551197e-05 5.984651021573e-13 2.924498143495e-12 4.335017775838e-12
379 2 1.011280103859e-02 5.398651865068e-03 6.954592821068e-03 -1.793280047408e-09 -5.483508932731e-09 8.370530293124e-10 3.989649992762e-06 5.815594684980e-07 1.996168495748e-06 1.000000000000e-03 1.047197551197e-05 7.576299169792e-12 6.508521902459e-13 -6.475157807449e-12
380 2 2.086313844190e-03 3.645448813540e-04 4.030154311705e-03 2.512567578395e-09 1.348198333354e-09 -2.471394632417e-09 -5.536148649579e-06 2.821175850904e-06 -2.355794268195e-06 1.000000000000e-03 1.047197551197e-05 -3.921318425932e-11 7.453816423417e-12 -6.835854961330e-12
381 2 8.631140896521e-03 1.168427979821e-02 1.282274319911e-02 -2.103961324475e-09 -1.319743275403e-09 -2.928510932012e-09 -7.831417813565e-07 -6.625339069726e-07 1.136389079359e-06 1.000000000000e-03 1.047197551197e-05 5.184989629887e-12 8.325813260551e-13 5.649007585217e-12
382 2 4.948551612914e-03 9.642493997236e-03 1.351900595168e-02 -1.348916787302e-09 -1.755386131821e-09 -1.026533645184e-09 1.845445104707e-06 -4.248826811560e-07 -7.335560804686e-07 1.000000000000e-03 1.047197551197e-05 4.927959673872e-12 -2.161529400392e-12 -1.766574258630e-12
383 2 6.164269539333e-04 2.932119017371e-03 6.239722574090e-03 -3.341617490440e-09 -4.204500835169e-09 5.392781841059e-09 -1.249928712960e-05 -5.438344576993e-07 -2.819730367685e-06 1.000000000000e-03 1.047197551197e-05 6.268534206148e-12 1.004582783653e-11 -3.870109313300e-12
384 2 3.102155874364e-03 6.017935766973e-04 9.083021070202e-04 5.276203389143e-09 2.019425270014e-09 1.011458311084e-09 1.782677962141e-07 4.211633746441e-06 -4.680945751800e-06 1.000000000000e-03 1.047197551197e-05 -5.644895836191e-12 -9.005522703658e-12 -2.858295763661e-12
385 2 8.236551249099e-03 5.595303319334e-03 3.003409159302e-03 6.639351378423e-08 7.590171948947e-08 3.359391935987e-08 4.540209178565e-05 2.777803847428e-05 -7.118186855984e-05 1.000000000000e-03 1.047197551197e-05 -9.842642002792e-11 -9.982867560176e-11 -7.128738735511e-11
386 2 1.192475795642e-02 1.996444677086e-03 1.260382900109e-02 -7.541735185341e-10 -1.376051848768e-09 -5.943941771499e-10 5.411464474682e-08 1.255778642842e-07 -5.503261049710e-08 1.000000000000e-03 1.047197551197e-05 4.660516599126e-12 3.401287470204e-12 -3.102046676030e-12
387 2 1.344390998391e-02 1.298988221347e-02 4.458957069632e-03 -2.747945850622e-09 -3.445362932684e-09 3.034215776340e-10 -1.048577005980e-06 8.553545866423e-07 -1.516845740715e-06 1.000000000000e-03 1.047197551197e-05 6.635431618688e-12 6.811065887149e-12 8.481475886787e-13
388 2 6.857155740297e-03 1.237999683502e-02 5.820470862578e-03 -3.056467648270e-09 -6.865286508872e-09 -3.398922730425e-09 4.277196116403e-06 1.013717712168e-06 1.681125899468e-07 1.000000000000e-03 1.047197551197e-05 9.671575896147e-13 1.326884226374e-11 2.112126623877e-12
389 2 7.781114150146e-03 1.125872492094e-02 7.137809767647e-03 -8.275676887930e-10 -5.030999974162e-09 -2.214919104549e-09 -4.122071154761e-06 -1.716466042500e-06 5.996739369977e-06 1.000000000000e-03 1.047197551197e-05 2.224147244428e-12 2.005100367034e-11 6.354853355776e-12
390 2 3.055801991472e-03 7.451587705082e-03 1.012167140275e-02 -2.184247310297e-09 -2.967327724464e-09 -3.337201330301e-09 -2.814948654197e-08 1.098823453884e-07 5.558436095257e-07 1.000000000000e-03 1.047197551197e-05 8.738666330327e-13 1.119221090779e-11 2.131635782976e-12
391 2 6.950389396937e-04 6.925907642942e-03 6.469923987229e-03 -2.547514247940e-09 -2.455752446242e-09 -3.679328530088e-09 2.636786056921e-06 -6.596686177440e-07 1.186364658449e-06 1.000000000000e-03 1.047197551197e-05 9.715228456553e-13 -2.331851733627e-13 3.143547403116e-12
392 2 5.850870744162e-03 6.446309621749e-03 5.915441481189e-03 1.542890048237e-08 -1.240838102802e-08 -1.137977768559e-08 1.865497288963e-06 -1.545000498218e-05 1.404854227830e-05 1.000000000000e-03 1.047197551197e-05 -3.974909114880e-11 3.042946628064e-11 3.848605175811e-11
393 2 7.961720849039e-03 1.044751782028e-02 9.065543303005e-03 -4.318527352767e-09 -4.269677239399e-09 -5.441123386145e-09 3.564112525341e-07 2.012031324876e-06 -1.411458964421e-06 1.000000000000e-03 1.047197551197e-05 1.591154923632e-11 -2.102840185278e-11 1.678880983962e-11
394 2 1.503962648890e-02 9.230672227931e-03 9.720832527014e-04 -7.921808069665e-10 -3.203427182743e-10 -9.882524936485e-11 -3.377023770255e-07 -1.235641941161e-07 -1.083994887652e-06 1.000000000000e-03 1.047197551197e-05 -3.431534648637e-13 -5.024997294501e-12 -9.722768751822e-13
395 2 1.172041937102e-02 1.545728496346e-03 3.614037458968e-03 -1.454108350834e-10 -3.887279151384e-09 -2.181790145984e-10 -5.253847359758e-06 4.602608256771e-06 -1.660616002570e-06 1.000000000000e-03 1.047197551197e-05 -3.636295722197e-12 -4.978187980339e-12 1.406198894381e-11
396 2 9.527122516774e-03 1.130394524321e-03 2.125893604023e-03 4.030795418240e-09 2.437412463787e-09 -3.804863383276e-09 -2.404355346320e-06 -6.184659437828e-06 9.909861710132e-07 1.000000000000e-03 1.047197551197e-05 -5.816433698077e-12 -9.949213488805e-12 4.883123233226e-12
397 2 8.688410901266e-03 5.840542175172e-03 1.064774967043e-02 -2.837133434865e-09 -3.500154472751e-09 -3.143104405441e-09 1.923906597420e-07 -1.467341208373e-07 4.899003943026e-07 1.000000000000e-03 1.047197551197e-05 1.906587669222e-12 7.601336979918e-12 3.674824209040e-12
398 2 3.880264962528e-03 3.632759722558e-03 5.523112320683e-03 1.353411080838e-09 8.029210816148e-10 -5.794038094375e-09 -1.320260355645e-06 1.032588930261e-05 -6.076057924693e-06 1.000000000000e-03 1.047197551197e-05 2.528640715504e-13 -1.432556678351e-11 8.173724446114e-12
399 2 8.408117531359e-04 1.083884891542e-02 7.922024868469e-03 -2.948528850760e-09 -5.470510004789e-09 -2.962429092768e-09 8.462192836734e-07 -9.273051251206e-07 -1.268163313349e-06 1.000000000000e-03 1.047197551197e-05 6.800413422883e-12 6.644686620350e-12 3.759909222647e-12
400 2 1.071197065555e-02 5.116945560315e-04 1.280518301729e-02 2.380539416530e-10 -2.580876144690e-09 -9.835205236347e-10 9.479715015730e-07 6.760848937066e-07 1.386545788267e-06 1.000000000000e-03 1.047197551197e-05 -3.428137198689e-12 3.046204382410e-12 2.100719770246e-12
401 3 5.108208803682e-03 1.532816352796e-02 8.014780454307e-03 -7.578061488706e-10 -3.586253532191e-09 -2.188426905200e-09 -1.193497051756e-06 6.052697977202e-07 3.331848631912e-07 1.250000000000e-03 2.045307717181e-05 7.337287460203e-12 8.720959501135e-12 4.855127426875e-12
402 3 1.182781496664e-02 1.256616385805e-02 5.734386907951e-03 -5.324834332593e-09 -4.987739502995e-09 -1.243801349672e-09 3.182537097313e-06 -2.515335831735e-06 1.372661861442e-06 1.250000000000e-03 2.045307717181e-05 1.940334919160e-11 7.281610918676e-12 9.615753213512e-12
403 3 1.536549032443e-02 1.146403370736e-02 2.951582482956e-03 -1.591965797667e-09 -1.030453885327e-09 -2.471935303061e-10 -1.040345431762e-06 1.716231808061e-06 -1.522613606844e-06 1.250000000000e-03 2.045307717181e-05 7.662490042932e-12 -3.507760838062e-12 3.042070481493e-12
404 3 4.602122624874e-03 1.358414914516e-02 9.502638894934e-03 -1.781984271434e-09 -3.928183182885e-09 -2.787946699687e-09 7.443314253864e-07 -1.258368432946e-07 -1.050897804939e-06 1.250000000000e-03 2.045307717181e-05 7.413890581319e-12 1.529578951070e-11 7.787819261089e-12
405 3 8.385485749325e-04 3.786020418360e-03 1.415225166904e-02 -3.763224388098e-10 -8.247134524008e-10 -2.997073096296e-10 -2.618009407677e-07 -2.275797264618e-07 -3.740655116837e-08 1.250000000000e-03 2.045307717181e-05 -7.158477629534e-13 2.239698799204e-13 4.934477962253e-12
406 3 8.385572673773e-03 6.782461247022e-03 6.910854687478e-03 -2.718344152967e-09 -5.942037418346e-09 -3.847183877292e-09 -1.886769392339e-06 -2.531158108161e-06 9.856779515798e-07 1.250000000000e-03 2.045307717181e-05 3.545647922394e-12 2.512897273439e-11 5.833207664414e-12
407 3 5.167090222718e-03 5.107280820260e-03 4.442446460243e-03 7.643643332404e-09 -1.420379157818e-08 -1.831363397254e-08 2.921351148992e-06 1.672126347863e-05 -1.448920279713e-05 1.250000000000e-03 2.045307717181e-05 -2.867885370013e-11 6.511956169890e-11 3.013297695718e-11
408 3 1.185075282425e-02 6.467282156415e-03 1.375897631377e-02 1.315768473953e-63 -1.523549536178e-63 -1.187933203618e-63 2.085992870193e+03 2.296827900218e+03 -1.255597875352e+03 1.250000000000e-03 2.045307717181e-05 -1.316412099403e-64 1.524294800467e-64 1.188514296764e-64
409 3 4.293910310442e-03 5.299920271620e-03 9.717440055399e-03 1.652806631212e-10 -4.032423083703e-09 -1.987326382293e-09 -9.060146504859e-07 -6.465630581434e-08 -1.542113832789e-07 1.250000000000e-03 2.045307717181e-05 -7.208659482811e-12 1.380038795180e-11 8.521849867819e-12
410 3 5.419238853626e-03 3.559249372356e-04 3.750506071143e-03 -1.052931623561e-09 3.715492370135e-10 -2.549630959139e-09 1.876293375407e-07 1.877669978755e-07 3.527475934155e-06 1.250000000000e-03 2.045307717181e-05 -2.978020187008e-12 -2.911157018793e-12 1.310230900652e-11
411 3 2.776451470734e-03 1.485280697315e-02 7.359321297401e-03 -2.733572993593e-09 -3.062270501497e-09 -3.963807412401e-09 -2.049509635624e-06 2.398152479622e-06 1.947686056943e-07 1.250000000000e-03 2.045307717181e-05 1.335362739815e-11 1.176090902464e-11 1.876587317931e-11
412 3 1.849927331198e-03 1.145584071640e-02 1.034332036198e-02 -2.129436180821e-09 -4.187633361399e-09 -2.728691089317e-09 -1.878900948083e-06 -2.599568494655e-07 5.501651986717e-07 1.250000000000e-03 2.045307717181e-05 6.082288394063e-12 1.985436754623e-11 1.067273331664e-11
413 3 1.430295922444e-02 7.669370963209e-03 5.391930091945e-03 -3.998107317784e-09 -3.090367844419e-09 -4.130131579048e-09 -2.658175832542e-07 -7.488059947983e-07 2.014411829888e-06 1.250000000000e-03 2.045307717181e-05 -3.311202054522e-12 8.095890345191e-12 6.801152082024e-11
414 3 1.004728242183e-02 1.100319401630e-02 4.287571851270e-03 -5.604834658419e-09 -3.690649454403e-09 -5.112096539664e-09 3.547540304517e-06 4.216376583675e-06 -4.893576820083e-06 1.250000000000e-03 2.045307717181e-05 1.760056165346e-11 9.226766260388e-12 2.122342828865e-11
415 3 7.061966729287e-03 5.466063525624e-03 1.300304302225e-02 -8.619629382467e-10 -1.387480596767e-09 -1.441970743536e-09 2.455539914638e-07 -1.889291550184e-07 2.077994566473e-07 1.250000000000e-03 2.045307717181e-05 1.082443718464e-11 5.075692336667e-12 4.922946550616e-12
416 3 5.471066167743e-03 1.010322282837e-03 1.386419420731e-02 -3.975341554849e-10 -1.496303638920e-09 -5.614498250567e-10 2.847717548565e-07 2.082088387713e-07 -5.119996547776e-08 1.250000000000e-03 2.045307717181e-05 -4.971768546892e-12 -3.555728679367e-12 5.876179799771e-12
417 3 9.432905687050e-03 5.630947620957e-03 1.330017860084e-02 -7.196695533703e-10 -7.589959212013e-10 -1.974033380862e-09 2.115710286774e-07 6.335529412068e-07 2.976583959411e-07 1.250000000000e-03 2.045307717181e-05 5.866228656741e-12 4.080149316964e-12 1.005904196647e-12
418 3 1.516343108550e-02 1.226346184074e-02 9.190753770995e-03 -1.656279899915e-09 -4.582851343760e-09 -2.896898999068e-09 4.194146373885e-08 4.621901722043e-07 -3.510489343148e-07 1.250000000000e-03 2.045307717181e-05 4.368718957293e-12 1.597390883801e-11 8.378629585145e-12
419 3 4.052480477713e-03 1.280193858641e-02 7.326781011652e-03 -3.887803069468e-09 -3.451338113245e-09 -4.291646203715e-09 6.006497939204e-07 6.448155541711e-07 -4.625267396515e-07 1.250000000000e-03 2.045307717181e-05 9.676015830048e-12 1.095781960563e-11 1.722101209189e-11
420 3 1.364673206016e-02 1.474556360677e-02 1.386563005012e-02 -9.444772413667e-10 -1.933996935910e-09 -1.452746392791e-09 -2.054665768150e-07 9.034044302893e-07 -3.916340559042e-08 1.250000000000e-03 2.045307717181e-05 1.687444815617e-12 2.808191767470e-12 5.642872050623e-12
421 3 7.408891526724e-03 7.535141007260e-03 1.062866555303e-02 -2.796327349182e-09 -3.503213414658e-09 -3.672246001170e-09 -1.140795606211e-06 1.021262482149e-06 -4.445254831312e-07 1.250000000000e-03 2.045307717181e-05 1.164727337329e-11 1.337012333879e-11 9.225537736474e-12
422 3 6.269906853714e-03 6.858623366197e-03 7.900105844226e-03 -2.986433726847e-09 -5.622256509715e-09 -5.704994067910e-09 -2.440418069589e-06 3.885564280540e-07 -4.487488065049e-07 1.250000000000e-03 2.045307717181e-05 1.351231846688e-12 1.305805130023e-11 -4.017604159466e-12
423 3 1.508128208318e-02 1.731086642091e-03 1.343217136312e-02 -5.957533597658e-10 -1.435926421061e-09 -7.723003995422e-10 -9.020500197656e-08 -2.302856661183e-08 -1.530435824125e-07 1.250000000000e-03 2.045307717181e-05 4.972113629818e-12 3.816596664197e-12 6.395393668263e-12
424 3 1.725070536563e-03 7.081669464426e-03 2.169254430164e-03 -1.198143022354e-09 -1.040070718436e-09 -1.147428129493e-09 -2.647941031106e-07 3.919466767944e-06 1.397757120550e-06 1.250000000000e-03 2.045307717181e-05 1.130657635372e-11 -6.992916876588e-13 2.120161393872e-12
425 3 6.266791215585e-03 2.626255653770e-03 4.498766025916e-03 -4.675915865010e-09 2.424265622951e-08 -6.005263407669e-09 -2.097344668709e-05 -2.614260422185e-06 1.520674505427e-05 1.250000000000e-03 2.045307717181e-05 1.316730903433e-11 -7.904869867858e-11 1.264578430468e-11
426 3 1.215123554135e-02 9.008412140000e-03 6.236903726032e-03 -1.760698256974e-08 -1.150554117106e-08 -1.248004882436e-08 -7.756744511715e-07 -2.280570640440e-07 3.349981456990e-06 1.250000000000e-03 2.045307717181e-05 4.802850202819e-11 3.025840013677e-11 3.071408758276e-11
427 3 4.410677101046e-03 4.085101139143e-03 1.300744408256e-03 6.854066805460e-09 1.178527371125e-08 -3.359888540141e-08 -1.089063014480e-05 3.395266652208e-05 3.772741408445e-06 1.250000000000e-03 2.045307717181e-05 -3.078937254282e-12 -7.579657840769e-12 1.156936130720e-10
428 3 3.555965001799e-03 9.308567547705e-03 1.101891588565e-02 -2.535670411621e-09 -3.007904104398e-09 -2.596985997891e-09 2.621377335234e-07 -1.835846374696e-07 -1.349815202927e-07 1.250000000000e-03 2.045307717181e-05 1.220691563764e-11 1.417505950177e-11 1.952785510457e-11
429 3 1.025380035200e-02 1.091467600611e-02 1.391343474440e-02 -1.400224170090e-09 -3.036490479014e-10 -1.614753990955e-09 -1.370504790667e-06 1.416590668077e-07 -5.972378907288e-07 1.250000000000e-03 2.045307717181e-05 6.451752753145e-12 -9.980594695566e-12 -1.278314686985e-12
430 3 1.402579927869e-02 1.343630934128e-02 1.193484040169e-02 -1.307633496249e-09 -3.633485834135e-09 -1.280372572293e-09 -1.366392033494e-06 -9.632786823539e-08 1.325735716667e-06 1.250000000000e-03 2.045307717181e-05 1.108600613966e-11 1.761453885742e-11 -1.882183401578e-12
431 3 3.807817366654e-03 1.262677975980e-02 1.335270469849e-02 -1.566055796164e-10 -1.764820804695e-09 -1.317067722971e-09 -2.649470667577e-07 5.052260511620e-07 -3.401095739019e-08 1.250000000000e-03 2.045307717181e-05 -8.974460735688e-12 1.485790030474e-12 3.989054466722e-12
432 3 2.303270153867e-03 2.801222791434e-03 9.558621845325e-03 -4.260838331025e-10 -3.252202651072e-09 -1.355380797248e-09 1.336085971634e-07 6.605387169562e-07 3.405730977313e-07 1.250000000000e-03 2.045307717181e-05 2.783851818396e-12 9.892314037492e-12 -1.138813983497e-12
433 3 1.450222259390e-02 5.474348773538e-03 1.311307808236e-02 -1.356069231813e-09 -3.756324019399e-10 -5.127996566754e-10 3.100326845552e-07 1.885132384599e-07 -1.767857445027e-07 1.250000000000e-03 2.045307717181e-05 1.286331286855e-12 8.606281213228e-12 -1.514766338845e-12
434 3 1.590020737090e-03 2.576080193920e-03 1.187371832887e-02 -8.859285184347e-10 -2.011217163235e-09 -1.614966741444e-09 -7.694802885523e-07 -7.428597647519e-07 3.483671439876e-07 1.250000000000e-03 2.045307717181e-05 4.478549964036e-12 5.122283827935e-12 8.170557203505e-13
435 3 1.173131944194e-02 1.420787699797e-02 7.699337731688e-03 -2.546430757482e-09 -4.715994141141e-09 -2.340028437608e-09 1.163581117053e-06 1.965402925440e-06 -2.792069138926e-07 1.250000000000e-03 2.045307717181e-05 1.618893524968e-11 1.393632594167e-11 4.058599382637e-12
436 3 1.925279887235e-03 1.423453683884e-02 1.086635634728e-03 4.811356573722e-10 5.659779133799e-10 6.816918836541e-10 7.465747553320e-07 2.771430932149e-07 1.297659051911e-07 1.250000000000e-03 2.045307717181e-05 1.351527606983e-12 2.278088021564e-13 3.584501908232e-12
437 3 1.371715849840e-02 1.098366604682e-02 1.153813817038e-03 -7.336795886222e-10 -8.584831753353e-10 9.837035849899e-11 7.329775702005e-07 -7.524825927419e-07 5.876267856982e-07 1.250000000000e-03 2.045307717181e-05 -9.768846399518e-12 5.852476842659e-12 -5.270378784350e-12
438 3 3.401924558042e-03 6.096597000481e-03 1.181430141654e-02 -1.496175217851e-09 -1.893583349955e-09 -2.315387730759e-09 -6.874917190247e-07 -6.796284480499e-07 4.573645381928e-07 1.250000000000e-03 2.045307717181e-05 7.099831523861e-12 7.188614851103e-12 1.726337606226e-12
439 3 7.933110288649e-03 6.721381932425e-03 1.179139988973e-03 3.989435860684e-08 4.641499439196e-08 2.142399297597e-08 -4.887283050618e-05 2.624744458212e-05 -2.099282827431e-05 1.250000000000e-03 2.045307717181e-05 -1.028812350035e-10 -1.368435144055e-10 -5.801935203105e-11
440 3 5.425103918303e-03 1.178390300666e-02 1.200388857633e-03 1.251388093093e-09 -2.103375141247e-09 1.443358370942e-10 1.519113397793e-06 1.647450509360e-06 3.774942788614e-07 1.250000000000e-03 2.045307717181e-05 -7.043958237227e-12 3.802627281248e-12 6.787153639420e-13
441 3 8.052912865750e-03 1.729279715113e-03 9.710921097540e-03 -1.607361435978e-09 -3.343695315151e-09 -2.282988579976e-09 1.505277861328e-06 -8.890813972087e-08 -6.199452935466e-07 1.250000000000e-03 2.045307717181e-05 7.744925325270e-13 8.127252888230e-12 5.221300876745e-12
442 3 1.350476156683e-02 1.259503467565e-02 7.459509150296e-03 -2.030106966359e-09 -5.157509805164e-09 -3.637211046399e-09 -3.189550040208e-07 -9.192216505399e-07 8.452708332910e-07 1.250000000000e-03 2.045307717181e-05 -5.997843508929e-13 1.270303137294e-11 2.078385021062e-12
443 3 2.802067191958e-03 7.168063779500e-03 6.584101617583e-03 -2.323978574400e-09 -2.786941076921e-09 -2.179761180878e-09 1.490713719826e-06 6.425490332171e-08 -1.108847903746e-06 1.250000000000e-03 2.045307717181e-05 1.460233207789e-11 1.930440301719e-12 1.166974517381e-11
444 3 6.660037251772e-03 2.838750618245e-03 1.285720782596e-02 -8.178908172909e-10 -1.451675797665e-09 -4.768436126847e-10 1.082237821749e-08 2.993370369808e-07 3.504318515322e-08 1.250000000000e-03 2.045307717181e-05 -5.644573454455e-13 -6.556692223670e-12 1.011934782924e-11
445 3 1.425410187595e-02 5.069741069102e-03 4.369856329825e-03 5.080336906793e-09 -4.881276894871e-09 -4.690346527506e-10 -5.046956999982e-06 -1.250626367589e-06 2.826835682454e-06 1.250000000000e-03 2.045307717181e-05 -2.987379669903e-11 1.299889151320e-11 5.712321015523e-12
446 3 4.834378757581e-03 1.237818050193e-02 5.109014955187e-03 -3.009890907268e-09 -4.543973432942e-09 -2.848185995068e-09 -1.264789689400e-06 -1.108783337126e-06 -1.900187556104e-06 1.250000000000e-03 2.045307717181e-05 2.156479789267e-11 1.054292388734e-11 6.719454835821e-12
447 3 3.965548036716e-03 1.445947654437e-02 2.257509309425e-03 5.609232508792e-10 -2.156911985382e-09 -1.052209404610e-09 -1.113622220519e-06 7.142748236558e-08 -2.338094515609e-06 1.250000000000e-03 2.045307717181e-05 -5.035574687504e-12 1.292054543771e-12 -5.168397295669e-12
448 3 9.460419534096e-03 5.181387887151e-03 4.864913268089e-03 1.054007238272e-08 3.745238649999e-09 -3.270353157728e-09 5.415309268514e-06 -1.023589034591e-05 1.941725817968e-06 1.250000000000e-03 2.045307717181e-05 -3.496066459405e-11 -1.388897941034e-11 1.707830685722e-14
449 3 9.633671018427e-03 1.262711526491e-02 1.162323711100e-03 6.709988954794e-10 7.793623817355e-09 -2.965791828575e-10 -5.499406190667e-06 4.644253582509e-07 2.703973664674e-06 1.250000000000e-03 2.045307717181e-05 2.506254870906e-12 -1.442080019587e-11 2.091437004208e-12
450 3 1.031574810326e-03 1.404637080777e-02 1.253841175573e-02 1.660071466194e-10 -1.609838726926e-09 -4.703584286816e-10 1.993310634975e-07 -9.127001134318e-08 -3.280827934888e-07 1.250000000000e-03 2.045307717181e-05 2.400205076667e-12 9.545271956439e-12 1.341204339367e-13
451 3 1.372011494513e-02 1.408223301160e-02 1.119803751160e-03 1.196897995136e-10 -7.436032511778e-10 8.506294762493e-11 5.880029311269e-07 2.628217054948e-07 -6.328449367590e-07 1.250000000000e-03 2.045307717181e-05 8.885213867393e-12 1.375422772065e-13 4.989351203065e-12
452 3 8.930716537233e-03 1.272696588995e-02 5.421066132032e-03 -2.901515232052e-09 -2.484488999560e-09 -2.210351455195e-09 -1.044099034036e-06 -1.897666156910e-06 2.781853575786e-06 1.250000000000e-03 2.045307717181e-05 5.500467496067e-12 1.003277230255e-11 1.132976961576e-11
453 3 1.188020742649e-02 3.126907953092e-03 2.184723486754e-03 3.589794676701e-09 -3.711866468943e-09 -2.677677088343e-09 4.942010092476e-06 7.654499334966e-07 -5.740397440298e-06 1.250000000000e-03 2.045307717181e-05 -2.762319091829e-12 3.401380627065e-11 -3.283190516731e-12
454 3 2.961188029564e-03 1.377769705973e-02 1.117520277987e-02 -5.325588670177e-10 -2.535376338378e-09 -1.539914301731e-09 -2.850967649635e-07 1.182213248997e-06 -5.275338111889e-07 1.250000000000e-03 2.045307717181e-05 -1.372864362017e-12 1.079131336778e-11 7.187489227526e-12
455 3 9.772658548568e-03 7.882814687550e-03 1.386099521759e-02 -1.418597917418e-09 -8.881480501886e-10 -8.299262040505e-10 5.774309516384e-07 -3.894365191385e-07 3.705585705171e-07 1.250000000000e-03 2.045307717181e-05 -1.055126669353e-12 4.233569017720e-13 9.997804284670e-13
456 3 6.945096153877e-03 1.329180449787e-03 7.686028074111e-03 1.982783731179e-11 -2.943978257364e-09 -4.285875970251e-09 -2.232540443098e-06 -2.531932651647e-06 -5.177781164950e-07 1.250000000000e-03 2.045307717181e-05 7.890512729457e-12 -1.573858204035e-12 2.260163371993e-11
457 3 9.442674323712e-03 3.259228090520e-03 2.237479578343e-03 8.439017213026e-10 1.845900196767e-09 2.283495054330e-09 8.711950797715e-06 3.367119733322e-06 2.273581308982e-06 1.250000000000e-03 2.045307717181e-05 6.046888988064e-12 2.327368501491e-11 2.577505515073e-12
458 3 1.923919249706e-03 6.550487284993e-03 4.453489293124e-03 5.054893034322e-10 -8.089580185192e-10 -2.411436360377e-09 2.010630235846e-07 -2.506537588032e-06 1.349886651954e-06 1.250000000000e-03 2.045307717181e-05 5.751514932283e-12 3.951201209930e-12 8.671393180748e-12
459 3 8.203984344987e-04 9.119866027702e-03 1.295527132283e-02 -1.614558092808e-09 -1.438230153524e-09 -9.052433164024e-10 -5.024837163955e-07 9.831416233315e-08 1.245342517886e-07 1.250000000000e-03 2.045307717181e-05 4.473848749528e-12 1.943680366178e-12 -5.556197290528e-12
460 3 1.158972093664e-02 1.360145472686e-02 1.183303432144e-02 -7.566249855486e-10 -5.029068174596e-09 2.555257414827e-10 1.279344557367e-06 1.288501459653e-06 4.152046281875e-08 1.250000000000e-03 2.045307717181e-05 2.695496767640e-13 1.860396172875e-11 1.651917263789e-12
461 3 7.010966794423e-03 1.454047156930e-02 1.420981763511e-02 5.484596737045e-10 -9.741168321732e-10 -6.021016217501e-10 -2.958450950231e-07 -4.436199065067e-07 7.368638745812e-07 1.250000000000e-03 2.045307717181e-05 -5.537630019841e-12 4.992887029660e-12 3.332401379169e-12
462 3 1.537958847463e-04 9.265128335379e-03 3.749118836867e-03 -4.064816996348e-09 6.520158781009e-11 1.014007654151e-10 5.547976491889e-07 7.983893364142e-07 -1.110906497072e-06 1.250000000000e-03 2.045307717181e-05 2.006778490549e-11 -3.640313123630e-12 1.878617623215e-12
463 3 1.432094833547e-02 3.918677666657e-03 7.698933211239e-03 3.790162155177e-10 -2.984694315774e-09 -2.857924788481e-09 -2.126296158109e-06 1.468340722601e-06 -2.840838810881e-07 1.250000000000e-03 2.045307717181e-05 -5.315066617380e-12 1.084414752563e-11 7.066672020231e-12
464 3 7.955076668150e-03 3.870681797583e-03 1.064910051811e-02 -1.341539224098e-09 -3.534406416438e-09 -1.673866558082e-09 -1.151893271040e-06 5.325309792944e-07 4.524995313852e-07 1.250000000000e-03 2.045307717181e-05 -1.812646993517e-12 1.488901810722e-11 3.348844447336e-12
465 3 3.960858786813e-03 6.773492908150e-03 3.182098266444e-03 -7.415636791599e-10 -7.122515534405e-09 -4.806762636558e-09 1.907014574065e-06 1.074192669044e-07 7.501317913653e-06 1.250000000000e-03 2.045307717181e-05 -3.433731445518e-13 3.786720073837e-11 2.661183250561e-11
466 3 1.454782990491e-02 1.468902072634e-02 5.388898033711e-03 -1.699011453697e-09 -4.753048918897e-09 1.244226430905e-09 8.029065659304e-07 -1.775438992124e-06 -1.447077643806e-06 1.250000000000e-03 2.045307717181e-05 7.421136085389e-12 1.888403657881e-11 -8.356630870317e-12
467 3 1.665171691745e-03 1.374831846903e-02 9.140314618856e-03 -1.091938291099e-09 -2.880608241425e-09 -1.873434577747e-09 5.416689689695e-07 -9.578268543826e-07 1.100428007325e-06 1.250000000000e-03 2.045307717181e-05 4.270959673203e-12 1.054730626622e-11 3.614916449231e-12
468 3 4.685017223756e-03 1.123759535929e-02 9.102208469950e-03 -2.512033564339e-09 -4.140808567896e-09 -3.361740370992e-09 -5.635122566882e-07 5.816987147787e-07 7.193458289447e-07 1.250000000000e-03 2.045307717181e-05 7.203394261642e-12 1.748698902406e-11 2.179084687513e-11
469 3 7.683324479713e-03 8.362379006272e-03 1.296533952562e-02 -1.467701244440e-09 -1.320764434088e-09 -1.680380900750e-09 1.314837419833e-06 -5.997834387629e-07 6.829020741840e-07 1.250000000000e-03 2.045307717181e-05 1.379043949488e-11 1.049156645333e-12 5.794817860905e-12
470 3 3.138053392307e-03 1.080204838623e-02 6.383414200234e-03 -4.036010024812e-09 -6.858404652059e-09 -3.796577096361e-09 -6.780189133516e-07 3.082091607011e-06 1.870905403902e-06 1.250000000000e-03 2.045307717181e-05 1.623228030412e-11 1.767725685937e-11 3.361296410807e-11
471 3 1.380827192390e-02 1.549056652148e-03 8.017921622641e-03 1.308933228059e-10 -3.428498200779e-09 -5.850409733627e-10 5.132997161068e-07 3.159278351688e-07 -4.038622378570e-07 1.250000000000e-03 2.045307717181e-05 -1.172438326658e-11 9.772147405281e-12 4.250686608504e-12
472 3 3.626603039307e-03 1.437222489964e-02 4.593635082412e-03 7.278275164173e-10 -2.718670349057e-09 -2.613393147306e-09 1.852586615243e-06 1.061140464786e-07 -1.027354010713e-06 1.250000000000e-03 2.045307717181e-05 2.527917641833e-11 -1.065640629866e-11 1.295989472672e-11
473 3 1.068997503447e-02 7.537153916402e-03 4.971602357517e-03 -1.552710230162e-08 -2.780078437508e-08 -1.963521966298e-08 -6.195560274307e-06 -3.666363130498e-06 1.857050259455e-05 1.250000000000e-03 2.045307717181e-05 4.681550655382e-11 8.645813819171e-11 8.008546878563e-11
474 3 1.341266533170e-02 9.520224302584e-03 1.002906219710e-02 -3.301843785712e-09 -3.830026196918e-09 -2.559634856226e-09 1.827883333222e-07 8.626239627065e-08 3.744766587596e-07 1.250000000000e-03 2.045307717181e-05 2.552372626983e-12 -2.227231432202e-11 -7.162540084328e-12
475 3 4.033120523620e-03 1.159675948008e-02 1.132110038857e-02 -1.544576700717e-09 -2.971626005844e-09 -2.324818515867e-09 -7.844654058258e-08 3.614622412341e-07 -5.044707438311e-07 1.250000000000e-03 2.045307717181e-05 2.388159075821e-13 8.766249908808e-12 1.123943793491e-11
476 3 1.072332373117e-02 1.509918586637e-02 3.212974920157e-03 -1.442470763703e-09 -9.897204573660e-11 -1.520429185975e-09 6.302862085732e-06 -3.979709558629e-06 4.598362663861e-07 1.250000000000e-03 2.045307717181e-05 -5.294671154915e-12 -1.553560864497e-11 -1.445097115562e-11
477 3 4.648682856655e-03 3.120592359092e-03 8.707083572501e-03 2.560702334246e-10 -4.083199535074e-09 -4.990013574417e-10 -5.208238481460e-07 3.138441281093e-07 9.197051429200e-08 1.250000000000e-03 2.045307717181e-05 -8.408173022201e-12 1.231686112674e-11 3.683657568892e-12
478 3 9.146809047167e-03 8.742129198309e-03 9.443463372699e-03 -3.826911428642e-09 -4.448877206177e-09 -6.518838524197e-09 -8.989905002251e-07 1.303663247700e-06 1.069900891199e-06 1.250000000000e-03 2.045307717181e-05 -5.150469497490e-12 1.476339730109e-11 2.081328531546e-11
479 3 6.249452293690e-03 1.252394030403e-02 1.213521418949e-02 1.670037639200e-08 -5.510134808212e-08 1.280956404360e-08 2.909104549895e+01 -2.679653769575e+01 -1.068184641655e+01 1.250000000000e-03 2.045307717181e-05 -3.699455237810e-11 1.220594857034e-10 -2.837515051834e-11
480 3 1.229949287917e-02 7.091910815633e-04 1.216813922641e-03 1.958028034257e-09 1.241942937773e-09 -1.696143908073e-11 -4.849972362379e-07 3.603234266017e-07 -2.639471475909e-06 1.250000000000e-03 2.045307717181e-05 -4.290045383530e-13 -5.831653125258e-12 -1.106871598096e-13
481 3 3.792216370931e-03 3.236836876581e-04 1.224976565796e-02 -4.849381598220e-10 -1.970443287258e-09 -1.167310067162e-09 7.369233249432e-07 9.817500901283e-08 1.385732149405e-06 1.250000000000e-03 2.045307717181e-05 8.834437310057e-13 -5.193352656010e-13 -6.819618812933e-13
482 3 7.657517487476e-03 4.469090105981e-03 6.414172932254e-03 1.172820380621e-09 -5.172023952466e-09 -5.281287111995e-09 6.691739085567e-07 4.374913236669e-07 1.613603216558e-06 1.250000000000e-03 2.045307717181e-05 7.631858880990e-12 2.701961087578e-11 -5.397375350069e-12
483 3 9.628160080920e-03 2.211388325377e-03 1.198687076606e-02 -9.134540933591e-10 -2.438488319965e-09 -6.112335933885e-10 -8.411476612650e-07 5.131502389261e-07 -2.798700111265e-07 1.250000000000e-03 2.045307717181e-05 -2.002649873340e-12 1.375878402911e-11 7.581953549692e-12
484 3 1.187929325910e-02 4.765966085318e-03 3.916284467989e-03 1.018737575082e-08 -8.052342721164e-09 -4.810794407806e-09 -6.124419322257e-06 -4.407496782687e-06 -3.030172040532e-06 1.250000000000e-03 2.045307717181e-05 -5.185426362942e-11 1.059651127887e-11 -6.549478999085e-12
485 3 1.003749281495e-02 3.207198410984e-03 9.814891164304e-03 -1.072195522063e-09 -3.664647714818e-09 -1.171925293533e-09 -4.965442234458e-07 -4.982601268194e-07 3.545117010666e-07 1.250000000000e-03 2.045307717181e-05 1.159793884750e-11 1.144735737992e-11 1.299012780025e-11
486 3 9.581563515334e-03 1.498085848201e-03 5.155529479627e-03 3.610007373235e-10 -1.358783679558e-09 -7.120367273988e-10 1.783497001749e-06 7.929358910241e-07 2.990874766516e-08 1.250000000000e-03 2.045307717181e-05 -1.929906924410e-12 6.454700253498e-13 2.319464906808e-12
487 3 1.105828122088e-02 1.497828617043e-02 9.883263970616e-03 -9.420984353342e-11 -4.522837186482e-09 -7.609164398683e-10 -1.159495509641e-06 3.216874887355e-07 6.200496148323e-07 1.250000000000e-03 2.045307717181e-05 1.197199627785e-11 1.283721534933e-11 7.264310246599e-12
488 3 9.617913353827e-05 1.209069522483e-03 3.572097768017e-03 1.293592788559e-10 -2.503629238207e-09 3.134235184180e-10 2.208052886412e-06 -2.173624289443e-06 1.533824038280e-06 1.250000000000e-03 2.045307717181e-05 -5.619085812364e-12 1.860290143879e-11 2.300609702106e-13
489 3 1.085006345256e-02 3.766608470151e-03 1.338974644551e-02 -8.755582841212e-10 -1.128675879553e-09 -1.337905894264e-09 -2.730271790971e-07 -8.141937773874e-07 -2.138123049158e-07 1.250000000000e-03 2.045307717181e-05 -2.201622594774e-14 1.565328851287e-11 -2.961469342221e-12
490 3 1.295065705102e-02 1.329186601830e-02 9.791285808522e-03 -3.009177934420e-09 -4.188856372776e-09 -2.670927788158e-09 1.483845704226e-06 5.387083225735e-07 -2.663866843065e-06 1.250000000000e-03 2.045307717181e-05 1.040710362374e-11 2.835151617135e-11 4.904463140768e-12
491 3 1.197795080350e-02 2.178159035951e-03 5.605967637403e-03 2.053235455765e-09 -2.389708748404e-09 -1.258966321441e-09 1.517750933556e-06 -1.072400352367e-06 6.719987898389e-08 1.250000000000e-03 2.045307717181e-05 -1.784344300793e-12 8.032425752467e-12 5.675354025580e-12
492 3 7.786480429027e-03 5.230670085605e-03 8.703930841311e-03 -2.172300497730e-09 -4.646272693223e-09 -3.350132350179e-09 -2.253056998360e-07 -7.950243850301e-07 1.475644021017e-06 1.250000000000e-03 2.045307717181e-05 6.270770887811e-12 2.421611421241e-11 9.210579261495e-12
493 3 1.421237741353e-02 1.007648250206e-02 1.396453501306e-02 -1.245970835448e-09 -1.395008150822e-09 -6.537057205998e-10 3.623593952338e-07 2.417650574975e-07 -1.165751646228e-07 1.250000000000e-03 2.045307717181e-05 7.213454824333e-12 3.393683430782e-12 -1.414263015124e-13
494 3 2.943162096385e-03 9.206760767600e-03 2.393473375414e-03 -1.986698045913e-09 -1.997786821466e-09 -4.040453629641e-09 1.723467242219e-06 2.256376564953e-06 -1.015646911235e-06 1.250000000000e-03 2.045307717181e-05 -6.781095140980e-12 1.674474245809e-11 1.365312567146e-11
495 3 9.189971906972e-04 4.829468485507e-03 3.156835068090e-03 2.738125860907e-09 -3.602502022684e-09 -2.090044612781e-09 -3.955424769189e-07 2.512587898256e-06 9.672012318721e-07 1.250000000000e-03 2.045307717181e-05 -1.263990972567e-11 1.277751498712e-11 1.009334038901e-12
496 3 1.131709576406e-02 1.105698866018e-02 2.205686184676e-03 -3.273171408302e-09 -6.731544875852e-10 -4.219494836988e-09 7.658425789390e-07 -5.327057426152e-06 2.445911657085e-07 1.250000000000e-03 2.045307717181e-05 5.908576666892e-12 9.417134450428e-12 2.435227781006e-11
497 3 9.686959569031e-03 1.335058721454e-02 8.818692295126e-03 -1.174536125934e-09 -4.839072040804e-09 -1.379905822335e-09 1.256472402024e-06 -5.440718752380e-07 -1.091303176553e-06 1.250000000000e-03 2.045307717181e-05 -1.065315575678e-14 2.615649884258e-11 3.598456695652e-12
498 3 1.171181405445e-02 9.390761704424e-03 3.920356875425e-03 -1.175182844163e-08 -9.434623813531e-09 -1.100539733982e-08 4.716840275063e-06 -7.299151084827e-06 -2.398672720829e-06 1.250000000000e-03 2.045307717181e-05 2.692030939812e-11 2.498198034416e-11 4.442466513138e-11
499 3 6.873578964116e-03 7.946856155441e-03 3.122460644419e-03 -1.921892852645e-06 1.011690719283e-06 -2.008508529952e-06 -2.168981196088e-03 3.824775547888e-03 6.897613455257e-03 1.250000000000e-03 2.045307717181e-05 4.554510357310e-09 -2.064749177401e-09 4.196996048125e-09
500 3 1.151156740141e-03 1.131842134976e-02 5.221184374193e-03 -3.904330102499e-09 -5.255771636577e-09 -2.339082325191e-09 2.189128810497e-06 -2.251287810070e-06 -3.357474308819e-06 1.250000000000e-03 2.045307717181e-05 9.945133351775e-12 2.056907674933e-11 -3.918628713974e-14
