ITEM: TIMESTEP
25000
ITEM: NUMBER OF ATOMS
500
ITEM: BOX BOUNDS pp pp ff
0.0000000000000000e+00 1.5370634520482899e-02
0.0000000000000000e+00 1.5370634520482899e-02
0.0000000000000000e+00 1.5370634520482899e-02
ITEM: ATOMS id type x y z vx vy vz omegax omegay omegaz radius mass fx fy fz
1 1 6.101277585914e-03 5.883063463415e-03 7.264477948767e-04 3.781268726621e-05 7.336873901101e-04 -6.361951300965e-05 -9.331041972594e-01 4.297244985605e-02 -1.130961177575e-01 7.500000000000e-04 4.417864669111e-06 -3.478073292888e-07 -3.189482564532e-06 8.888979126219e-08
2 1 1.171758320723e-02 4.715806460103e-03 1.473852666536e-02 -1.862027269490e-06 8.860532076683e-07 -1.382858647610e-05 1.731474507797e-03 -3.781815590510e-04 7.522245989960e-02 7.500000000000e-04 4.417864669111e-06 -1.753738382614e-08 6.983633910921e-08 6.755514249031e-08
3 1 1.315935938204e-02 6.538000683058e-03 1.114597362655e-02 -1.370848364794e-05 -2.311178367150e-05 -3.854398383403e-05 1.926262073889e-03 -4.151784407188e-02 -6.211033912900e-03 7.500000000000e-04 4.417864669111e-06 1.828717473476e-07 1.687402481108e-07 2.949380923165e-08
4 1 5.642697351912e-03 4.961425645574e-03 7.819392588288e-03 -4.794021115072e-05 -1.475360326540e-04 -5.915119407197e-06 -1.696960392228e+00 -4.971753843890e+00 -2.257250619955e-01 7.500000000000e-04 4.417864669111e-06 2.828720518100e-07 7.364149544171e-07 4.905820266684e-08
5 1 1.286128490280e-02 1.048396317536e-02 1.180792240670e-02 -1.150773277988e-05 -6.237233971568e-05 -4.433664771858e-05 -3.469944334871e-02 1.789070531619e-02 1.354007465601e-02 7.500000000000e-04 4.417864669111e-06 2.130695851926e-07 2.144094361484e-07 2.945735560328e-07
6 1 1.073254450855e-02 1.093383135990e-02 1.202315291538e-02 -2.634586147516e-05 -9.243244297481e-05 -2.044966028073e-05 -3.252376952779e-02 1.735723687320e-02 3.865721764346e-02 7.500000000000e-04 4.417864669111e-06 1.982913125881e-07 4.047429983856e-07 1.813523806312e-07
7 1 1.530501427450e-02 1.828971659418e-04 1.463920944603e-02 -2.602422664425e-06 -2.902434336569e-05 4.553972020650e-06 -3.433036530032e-02 6.031814857556e-03 -5.378940732289e-02 7.500000000000e-04 4.417864669111e-06 -8.618566443470e-08 1.251204053278e-07 -4.439007753385e-08
8 1 4.080769937181e-04 1.354951656148e-02 1.057873175916e-02 5.459848486463e-05 -6.813102352604e-05 -3.120427360430e-05 -3.820441169747e-02 -2.830221371079e-02 -1.084674129386e-02 7.500000000000e-04 4.417864669111e-06 -1.408904429479e-07 4.900780894329e-07 2.322739056731e-07
9 1 3.219571267272e-03 5.307389972751e-03 6.398004843277e-04 -7.161208165907e-05 5.079202015530e-05 -6.759110443895e-05 5.631520820181e-02 3.306484578243e-02 1.588294259541e-02 7.500000000000e-04 4.417864669111e-06 2.423997362805e-07 -2.023188901399e-07 3.201815801558e-07
10 1 1.516007733264e-02 1.132096570425e-02 6.652815854130e-03 1.538064438329e-05 -1.088531409980e-04 -4.325273600703e-05 -1.511414725265e-02 1.355098631275e-02 4.532671243334e-02 7.500000000000e-04 4.417864669111e-06 1.884153519453e-07 4.602279948482e-07 5.795605907732e-08
11 1 1.332638571005e-02 1.064241364275e-02 7.076131050692e-03 -6.755943362509e-05 -2.643861323067e-04 -1.236067223668e-04 4.988136078711e-01 5.908797394621e-02 -3.737137966999e-01 7.500000000000e-04 4.417864669111e-06 6.215758098335e-07 1.016573430495e-06 3.752577554541e-07
12 1 3.507176212469e-03 2.574962346456e-03 6.798914708231e-03 1.263920540519e-04 -2.611542533384e-05 -9.833861756175e-05 7.137320686979e-02 3.974510900304e-04 -5.769501597119e-02 7.500000000000e-04 4.417864669111e-06 4.761141236545e-08 1.928354982665e-07 4.778728832303e-07
13 1 9.297841130443e-03 4.160022449994e-03 5.993691692612e-04 -9.324422041958e-05 4.415306794744e-05 1.761391539952e-04 2.405418058299e-02 2.938380840996e-02 -9.719918557731e-02 7.500000000000e-04 4.417864669111e-06 4.625499961848e-08 -1.122136888592e-06 -6.823074019809e-07
14 1 1.229714428161e-02 1.175987549841e-02 4.035362542987e-03 3.397267419366e-06 -6.094866796811e-05 6.858323768158e-06 -2.024911154075e-01 2.513367993937e-01 -4.895968005874e-02 7.500000000000e-04 4.417864669111e-06 2.528428784184e-07 4.291682628353e-07 4.214491495896e-08
15 1 3.249253737252e-03 5.133081200609e-03 4.022450995226e-03 1.467776652622e-04 -7.802889523456e-05 -1.608828191468e-04 -6.309221368982e-02 1.380777444351e-02 -3.155742034258e-02 7.500000000000e-04 4.417864669111e-06 -5.729077715839e-07 5.680183566164e-07 9.397386796498e-07
16 1 1.417883376992e-02 1.520155805216e-02 7.224969311145e-03 9.468625763011e-05 -1.503494804085e-04 8.705360793378e-05 1.003651699803e-01 2.148290239925e-01 3.573633228088e-02 7.500000000000e-04 4.417864669111e-06 -2.566567349901e-07 1.907981232750e-07 -1.571039954588e-07
17 1 1.321897768170e-02 1.225802110525e-02 1.459186082366e-02 2.898763893996e-44 2.120312034427e-44 -1.979615991143e-45 -1.900668377723e+03 3.361672874693e+03 -6.080980550617e+02 7.500000000000e-04 4.417864669111e-06 -2.905340239033e-45 -2.125122327377e-45 1.984107090893e-46
18 1 4.202412716555e-03 1.305619805400e-03 6.960028287643e-03 7.264819346706e-05 -9.656402251870e-05 -8.165222674789e-05 -9.283853726370e-02 2.873887412402e-02 -4.435712629289e-02 7.500000000000e-04 4.417864669111e-06 2.997051011405e-07 5.585126203567e-07 2.936621898556e-07
19 1 6.729471323878e-03 1.549913124625e-03 2.925982531729e-03 1.155762405049e-04 8.751055516250e-05 1.346613806662e-04 3.637384534384e-01 1.045244056267e-01 -2.787059900204e-01 7.500000000000e-04 4.417864669111e-06 -5.635322544110e-07 -5.557864773579e-07 1.084879537808e-07
20 1 1.342725024557e-02 5.099743555655e-03 1.467696273966e-02 -9.278373718926e-06 -3.871477405746e-06 -8.267265951727e-06 -5.709324403077e-03 1.342529425526e-02 -1.615820021382e-03 7.500000000000e-04 4.417864669111e-06 3.003168858676e-08 4.443661147082e-08 2.275753830148e-08
21 1 1.025596119521e-02 1.220126715415e-02 1.182390007671e-02 -5.465890178389e-06 -7.510631185380e-05 8.084740933499e-06 4.724605703164e-02 -1.623679239642e-02 -7.022567980875e-02 7.500000000000e-04 4.417864669111e-06 1.819321462659e-08 2.692766722361e-07 3.613154976109e-08
22 1 9.064848844202e-04 8.763446985526e-03 2.033259951762e-03 4.137423400628e-05 1.119745254145e-05 -1.761360522746e-05 -3.112436069254e-02 -1.523778237778e-02 -1.816012970600e-02 7.500000000000e-04 4.417864669111e-06 5.183902279357e-08 1.425430526106e-08 -8.187179404988e-08
23 1 1.186284089338e-02 1.039609513967e-02 1.285772816831e-02 -2.562798063052e-06 -5.139236728458e-05 -2.145124261652e-05 -2.939197416226e-03 3.875444769222e-03 1.158269035492e-02 7.500000000000e-04 4.417864669111e-06 1.975660369203e-07 2.564267399968e-07 1.699501322047e-07
24 1 9.029989749900e-03 3.063754489170e-04 3.664466862165e-03 -3.180829302839e-05 -1.614351222359e-04 -6.003796839319e-05 1.957237275469e-01 1.405842789625e-01 -1.443462920247e-01 7.500000000000e-04 4.417864669111e-06 7.377635914716e-08 -6.159724634611e-08 4.995152785194e-07
25 1 7.886344561317e-03 7.267053855655e-03 8.809651515487e-03 -2.356802552026e-06 -8.802176977802e-05 -4.672219227742e-05 5.878143079795e-03 -4.206981332543e-02 5.623698126152e-03 7.500000000000e-04 4.417864669111e-06 1.868224913078e-07 5.686550774535e-07 1.597888375460e-07
26 1 1.107990859728e-02 8.232844290753e-03 6.639962472934e-04 5.198411785460e-05 -3.565296357015e-05 -6.018032476304e-05 5.010343538476e-02 4.498292346674e-02 -3.650947568752e-02 7.500000000000e-04 4.417864669111e-06 -4.051620087822e-07 1.807256843274e-07 1.134916864554e-07
27 1 5.940072393925e-03 3.063992817916e-03 6.841285567004e-04 7.704576239021e-04 7.052433025841e-04 1.322028795083e-04 -1.016859395412e+00 1.002753939041e+00 9.434270668269e-01 7.500000000000e-04 4.417864669111e-06 -2.184351879750e-06 -1.101455718317e-06 -3.315745067213e-07
28 1 7.472241598723e-03 5.426501777192e-04 2.003628446274e-03 -1.495886717561e-02 -1.774491290329e-02 -1.873994755801e-03 1.101115377394e+02 -9.466177183341e+01 4.470569951718e+01 7.500000000000e-04 4.417864669111e-06 3.054787006363e-05 3.346888827278e-05 -3.315038510080e-06
29 1 1.280373585992e-04 1.236566990548e-02 1.128899764311e-02 1.890681694215e-05 -5.555340164965e-05 -2.332584931457e-05 3.120063373940e-02 2.191118399038e-02 -2.467802058623e-02 7.500000000000e-04 4.417864669111e-06 1.105040659541e-07 2.772404869989e-07 1.070940624792e-07
30 1 5.949727516704e-04 1.054298109136e-02 1.466000192612e-02 3.785588307941e-06 -2.328563839851e-05 -4.491157868669e-07 -2.697944163404e-02 -1.304298760145e-02 8.351018413450e-03 7.500000000000e-04 4.417864669111e-06 4.318169578665e-08 1.793756231235e-08 5.017165944539e-08
31 1 1.033326584253e-02 1.536050849759e-02 1.465435217868e-02 1.208428465639e-05 -1.218195225183e-05 -1.905437966357e-06 3.323686962245e-03 -2.277849129872e-03 4.854785122556e-03 7.500000000000e-04 4.417864669111e-06 -9.882953612839e-09 1.246995552388e-07 -2.583889723902e-08
32 1 6.726031476600e-03 1.095012757782e-02 2.836338494305e-03 6.411376508683e-32 -6.296930033508e-31 -1.323633532189e-30 -1.648419961418e+02 -2.504815919863e+02 3.073225324936e+02 7.500000000000e-04 4.417864669111e-06 -6.425921820280e-33 6.311215703568e-32 1.326636422776e-31
33 1 6.295646307259e-03 4.462072277466e-03 1.062619040120e-03 6.123119133965e-05 8.356054212042e-04 -8.170096352685e-05 9.659959206121e-01 -6.686983598320e-01 3.468096658497e-01 7.500000000000e-04 4.417864669111e-06 -7.066014819588e-07 -3.185534476191e-06 9.346143456314e-07
34 1 4.749745392412e-03 1.359967129319e-02 7.015106506449e-04 3.193120203429e-04 1.414044838392e-05 -1.346083225843e-04 -2.400069492530e-02 4.458396812146e-01 1.216372677502e+00 7.500000000000e-04 4.417864669111e-06 -6.848535890958e-07 3.186132804498e-07 3.173163436167e-07
35 1 4.523973567638e-03 9.091072786176e-04 1.772956078379e-03 6.630452467490e-04 -2.777991731705e-04 -1.334679679864e-04 -3.483473186462e-02 -1.509767892741e-01 -5.931385425247e-01 7.500000000000e-04 4.417864669111e-06 -1.910062073219e-06 9.730863582517e-07 -4.820279116820e-08
36 1 8.087666992959e-04 7.973160766014e-03 5.120150691263e-03 1.607802979197e-05 -1.179367033062e-05 -5.178588995501e-05 -2.916665316238e-03 -5.526315839016e-03 -2.109929641179e-02 7.500000000000e-04 4.417864669111e-06 1.001542235328e-07 8.383798595827e-08 9.169195989684e-08
37 1 2.814343125869e-03 1.283630135836e-02 5.757073056354e-03 1.755036891997e-04 -2.871962339809e-04 -4.081957119663e-04 3.519076071581e-01 4.259162722870e-01 -1.042915279785e-01 7.500000000000e-04 4.417864669111e-06 -5.509410519855e-07 6.106627924272e-07 1.316447097899e-06
38 1 1.747250407702e-03 8.282564644664e-03 3.620468858346e-03 4.657660437264e-05 1.490261315397e-05 -2.612999227022e-05 2.100984112048e-02 -4.376909236211e-02 3.562233513237e-02 7.500000000000e-04 4.417864669111e-06 3.656119171948e-08 -7.035193955007e-08 -2.382270181854e-08
39 1 6.925281719049e-03 1.219492882171e-02 1.405242157972e-02 2.853622777874e-05 -4.482493607150e-05 4.804503416113e-05 5.224015599197e-02 -7.662016337778e-02 -3.024768335665e-02 7.500000000000e-04 4.417864669111e-06 -1.246042902251e-08 2.138174539014e-07 -1.284754856225e-07
40 1 4.967083778191e-03 2.327129991360e-03 1.217341963105e-02 6.216502809297e-06 -4.291288740502e-05 2.754714313327e-07 -4.757593415861e-03 7.816551699742e-04 1.595678191335e-02 7.500000000000e-04 4.417864669111e-06 8.985030135351e-08 3.413384014064e-07 -8.283072745640e-08
41 1 1.485067294217e-02 2.550313406300e-03 1.025423754224e-02 -8.506133419922e-42 2.844659407682e-42 9.458734334859e-42 2.275177583602e+02 -4.419301903712e+02 3.607398096088e+02 7.500000000000e-04 4.417864669111e-06 8.525431048271e-43 -2.851113007375e-43 -9.480193102414e-43
42 1 6.085160684951e-03 2.572695355461e-03 1.472321265359e-02 9.701132977058e-06 -1.972335901571e-05 4.177994952075e-06 -1.357029342976e-02 -1.237883152164e-02 7.505276212212e-03 7.500000000000e-04 4.417864669111e-06 6.086917636359e-08 1.163680022910e-07 -6.561079604107e-08
43 1 9.878810138046e-03 1.240540109239e-02 7.109182632355e-03 9.980326993769e-05 4.727787045567e-05 2.745190158386e-04 2.633546263824e-01 3.521955807169e-01 6.586429362928e-01 7.500000000000e-04 4.417864669111e-06 -1.963764333988e-07 -4.116472349800e-07 -1.980879049566e-09
44 1 9.331636317414e-03 1.154267516848e-02 8.249042586357e-03 6.173823919897e-06 -1.063954773838e-04 4.736059703640e-05 2.497233305824e-01 -2.172096645326e-01 -1.348740430186e-01 7.500000000000e-04 4.417864669111e-06 4.256841920052e-07 3.304303107875e-07 7.107885372499e-07
45 1 4.984251344153e-04 9.255353248426e-03 9.318609235003e-03 -2.314130721974e-05 -1.079131948448e-04 -4.930772501449e-05 4.209096941885e-02 -8.331023259594e-03 -5.593841925080e-03 7.500000000000e-04 4.417864669111e-06 1.315254742183e-07 3.762326181959e-07 1.082705310974e-08
46 1 7.313836133782e-03 9.278844193420e-03 6.766335400142e-04 8.627410888649e-05 1.642029715227e-04 1.371729434437e-05 -2.160193281375e-01 1.170379659075e-01 -1.557224657656e-02 7.500000000000e-04 4.417864669111e-06 -2.062205006367e-07 -2.382728659393e-07 -2.025372005022e-10
47 1 7.633786361387e-03 1.898495897443e-03 5.823743592106e-03 -9.156666037367e-42 -2.209255593836e-41 1.360346922247e-41 2.624551791848e+01 -6.608426248987e+01 -3.109620793890e+02 7.500000000000e-04 4.417864669111e-06 9.177439510975e-43 2.214267670566e-42 -1.363433103481e-42
48 1 8.283647566329e-03 6.681926174571e-03 1.211866548063e-02 7.974644369569e-06 -5.085823197548e-05 -2.835082685485e-05 -3.295731567582e-02 1.083951062610e-02 8.793202678778e-03 7.500000000000e-04 4.417864669111e-06 2.322999990994e-09 3.437258939993e-07 7.686998823930e-08
49 1 6.000950669923e-03 1.358574909564e-02 1.507281030518e-03 4.067284252221e-04 2.719146539778e-04 4.590514811171e-05 6.334069863154e-01 -1.078431174278e+00 -3.378238762163e-01 7.500000000000e-04 4.417864669111e-06 -9.021135637439e-07 -8.776119509056e-08 1.139966581915e-07
50 1 1.136820010834e-02 1.918330293501e-03 9.634021672617e-03 5.302487591881e-05 -7.216205397051e-05 -3.577887581075e-05 2.636473122113e-02 2.750460071644e-02 1.369341054846e-02 7.500000000000e-04 4.417864669111e-06 -1.578133589361e-07 3.723627575721e-07 9.432143703707e-08
51 1 1.410126107830e-02 1.032528468869e-02 8.322723633851e-03 1.504975019916e-32 -3.582647347734e-32 -1.049119673553e-32 2.045293327175e+03 -2.592213672932e+02 2.169152276849e+03 7.500000000000e-04 4.417864669111e-06 -1.508389314893e-33 3.590775200145e-33 1.051499782182e-33
52 1 5.221802030958e-03 1.375344247662e-02 3.597415290643e-03 3.327614837888e-04 7.967735811630e-05 -2.892021337448e-04 2.101411841864e-01 2.711810830666e-01 4.247719952590e-01 7.500000000000e-04 4.417864669111e-06 -8.657966227171e-07 -6.085193262426e-07 -7.957080953881e-07
53 1 3.409689051924e-03 9.293393607339e-03 1.303897231591e-02 -2.244256512673e-06 -4.303488366212e-05 -1.454050559345e-05 -2.541597242939e-03 9.025319460952e-03 1.285145465482e-02 7.500000000000e-04 4.417864669111e-06 8.992913520559e-08 1.086196334518e-07 2.891663871071e-07
54 1 4.445875400118e-03 9.891827110499e-03 7.610266686738e-03 6.203122484255e-43 1.568806523454e-43 -2.456629226278e-43 -8.073452895903e+02 3.552416067658e+03 1.589281385265e+03 7.500000000000e-04 4.417864669111e-06 -6.217195335737e-44 -1.572365631188e-44 2.462202512689e-44
55 1 6.480506769834e-03 5.853881601299e-03 1.007656243466e-02 1.676754934726e-05 -1.034359875281e-04 -2.989236057798e-05 -2.382381242755e-02 6.559896026834e-02 -6.543861646019e-03 7.500000000000e-04 4.417864669111e-06 8.324440818668e-08 5.495598373587e-07 1.163780439535e-07
56 1 8.520698676482e-03 3.419801377858e-03 8.606906907198e-03 5.856536279115e-05 -8.034466359313e-05 -5.835967536834e-05 5.490007839276e-02 -3.286450827077e-02 -8.643420349225e-04 7.500000000000e-04 4.417864669111e-06 -2.882737787874e-07 4.082375344892e-07 4.393652216002e-07
57 1 4.761595786527e-03 1.950631818513e-03 7.265322732621e-04 1.235903987856e-04 7.644009173674e-04 -1.111635679534e-05 -1.049375432059e+00 1.262754969644e-01 1.584217425235e+00 7.500000000000e-04 4.417864669111e-06 -4.543447493599e-07 -9.185507444480e-07 2.497913570740e-07
58 1 3.141488546158e-03 5.268595938706e-03 8.189920254171e-03 8.516447159528e-05 -9.028537658248e-05 -5.610873549064e-05 -1.583005629350e-02 -4.777582348873e-02 -4.248493737368e-03 7.500000000000e-04 4.417864669111e-06 -4.546418877838e-07 5.541456889781e-07 2.151123920281e-07
59 1 6.052433927246e-03 4.404970058240e-03 9.698370568192e-03 5.085610093364e-05 -9.976335368617e-05 -2.372747156010e-05 2.489948838489e-02 -3.139613217033e-02 -2.336341584603e-02 7.500000000000e-04 4.417864669111e-06 -3.134444173692e-07 9.075518744847e-07 6.725066851422e-08
60 1 2.845288006503e-03 6.652353913368e-03 6.793349791381e-04 -3.445399725532e-05 1.298356665020e-05 -2.990588675568e-05 -3.015134962752e-03 -2.429604641861e-02 -3.135173076100e-02 7.500000000000e-04 4.417864669111e-06 9.147756184546e-08 -1.632239315424e-07 1.202741183302e-07
61 1 1.312199271380e-03 8.240758569564e-03 6.870328685586e-04 5.191265329705e-06 2.131609409914e-06 -6.991719009100e-06 7.765663586035e-05 6.907119422409e-03 -3.936317281344e-02 7.500000000000e-04 4.417864669111e-06 3.989026265276e-08 -5.881662774063e-08 1.422853557469e-08
62 1 1.513430551657e-02 1.530137333212e-02 1.290648891035e-02 2.317509702139e-05 -3.271225004417e-05 -1.506735000578e-05 9.991159261593e-03 -3.397034597476e-02 -4.363106851777e-03 7.500000000000e-04 4.417864669111e-06 -9.755594639145e-08 2.187734964333e-07 1.476551918038e-07
63 1 6.026081984958e-03 1.004579967799e-02 8.365249375497e-03 -3.760329963881e-05 -9.518233378805e-05 -1.263625459772e-05 2.180592723878e-02 3.194482553096e-02 -3.741169231727e-02 7.500000000000e-04 4.417864669111e-06 5.663817016394e-07 6.118175486866e-07 8.897337849738e-09
64 1 3.448459671064e-03 1.265319795646e-02 3.761323068645e-03 7.856542941524e-05 -2.887455960864e-05 -2.840974314149e-05 8.800920544502e-03 -9.378747695974e-03 2.583102282947e-03 7.500000000000e-04 4.417864669111e-06 1.950047278617e-09 2.100025349683e-07 1.754890327598e-07
65 1 1.033749008272e-02 9.319566413728e-03 5.750860438422e-03 -2.871823901180e-04 -4.439540102135e-04 -1.353103113890e-04 2.242467114842e-01 1.700675442368e-01 1.363411496027e-01 7.500000000000e-04 4.417864669111e-06 1.628940008627e-06 1.702104331060e-06 7.946373897542e-07
66 1 5.385490495616e-03 6.275980741002e-03 1.100076191398e-02 2.220056984922e-05 -6.294285076890e-05 -2.839181295251e-05 -2.473626396057e-02 -5.294121506837e-02 -1.882964005096e-02 7.500000000000e-04 4.417864669111e-06 -5.538158283622e-08 2.993673295391e-07 3.763087987017e-08
67 1 1.017463078885e-02 6.931407752244e-03 6.607285765223e-03 -8.113408270923e-06 -1.569647698908e-04 -1.147075175269e-04 -3.242029663946e-01 1.214901260056e-01 -4.861414591331e-02 7.500000000000e-04 4.417864669111e-06 1.875976576889e-07 7.956744596799e-07 2.483285217928e-07
68 1 1.228152311124e-02 2.717369667892e-03 1.412221807532e-02 2.189864197267e-05 -3.399912904781e-05 -2.017148134938e-05 5.163836566052e-03 -6.544956024576e-03 -9.807081202650e-05 7.500000000000e-04 4.417864669111e-06 -1.195403151922e-07 2.926221785664e-07 1.000502286727e-07
69 1 1.359429843939e-02 6.965477801333e-03 1.461993657222e-02 -1.354094540220e-05 -2.725380674162e-05 -6.118166538088e-07 -5.068447156215e+02 -8.308356432118e+02 1.496269063870e+03 7.500000000000e-04 4.417864669111e-06 7.307011435399e-08 1.470688479687e-07 3.301858992150e-09
70 1 6.433859781146e-03 1.011072648182e-02 1.504592943250e-03 1.528795504285e-04 1.672405315126e-04 3.686234265383e-05 1.557930859263e-01 -4.530440601034e-02 4.807708062717e-02 7.500000000000e-04 4.417864669111e-06 -2.240548916867e-07 1.546840076207e-08 -2.637433327748e-07
71 1 9.403422771443e-03 1.309567343967e-02 1.241658958967e-02 3.091915743431e-05 -3.861861737794e-05 2.400304476814e-05 6.052639630541e-02 -5.554358905602e-02 -6.735161601241e-02 7.500000000000e-04 4.417864669111e-06 -1.154114467022e-08 2.449841346274e-07 -2.255808610632e-08
72 1 9.888035006257e-03 1.112784320147e-04 1.137426322136e-02 5.430219679139e-05 -3.369749389730e-05 -1.767709499485e-05 -1.072885362861e-02 -1.404486312361e-02 -2.776896940635e-02 7.500000000000e-04 4.417864669111e-06 -2.223809817046e-07 3.042346976090e-07 1.987656268466e-07
73 1 1.408743715965e-04 6.203310595005e-03 5.119842786897e-03 4.758773512856e-05 -8.988766768381e-08 -9.041516528637e-05 -6.011027584075e-03 -1.824310646990e-02 -2.645212574984e-02 7.500000000000e-04 4.417864669111e-06 -1.992702527430e-07 5.724829387308e-08 2.699292294445e-07
74 1 3.029548365469e-03 8.248260101149e-03 4.186990725697e-03 5.324444784898e-05 -4.575207263901e-05 -3.090112426100e-05 1.584607884565e-01 4.778939457627e-02 -4.465033694296e-02 7.500000000000e-04 4.417864669111e-06 6.572756490172e-08 2.273672724111e-07 -3.191807152540e-08
75 1 4.650083826617e-04 1.500569629614e-02 1.064859896806e-02 4.468368599420e-05 -6.274335874504e-05 -2.499220301722e-05 2.321258199466e-02 -6.762866210074e-03 2.854874293094e-02 7.500000000000e-04 4.417864669111e-06 -3.073312767790e-07 5.162842161304e-07 -1.066816781480e-07
76 1 1.805328980187e-03 1.390589928642e-03 2.458227560557e-03 1.001545631557e-47 -4.964220792536e-47 -3.372645618101e-47 2.227846419732e+03 1.564827747967e+03 6.413044216017e+02 7.500000000000e-04 4.417864669111e-06 -1.003817810281e-48 4.975482982202e-48 3.380297045427e-48
77 1 1.485238460304e-02 1.265309742979e-02 6.092667208329e-03 1.263527736440e-05 -1.159704719176e-04 -2.176959311523e-05 -1.079119278131e-02 1.089173785380e-02 4.458412955857e-02 7.500000000000e-04 4.417864669111e-06 1.937744719492e-07 5.219578853896e-07 1.137524516752e-07
78 1 8.765130654617e-03 9.602759002174e-03 1.461308160452e-02 5.230397453835e-48 -4.509614683358e-47 -1.831406366456e-47 6.362379778727e+03 -5.747344316294e+02 -1.125609938838e+03 7.500000000000e-04 4.417864669111e-06 -5.242263511091e-49 4.519845520786e-48 1.835561227152e-48
79 1 5.868176080729e-03 8.803522267929e-03 1.251414866160e-02 -4.191699190942e-06 -4.561353895299e-05 -2.569527530203e-05 -1.121366127873e-02 -3.271676464773e-03 -4.081496516201e-03 7.500000000000e-04 4.417864669111e-06 1.198361132493e-07 2.563146660131e-07 2.584716089165e-08
80 1 5.463867509755e-03 1.120312000727e-03 1.143182628715e-02 2.459583824042e-05 -8.370672732088e-05 -4.467570421424e-06 5.558176252611e-02 -2.341065810640e-02 6.686565471988e-02 7.500000000000e-04 4.417864669111e-06 -1.207007407340e-07 6.271963479763e-07 6.005731180155e-08
81 1 8.427378323248e-03 3.331489269015e-03 5.038172752536e-03 3.326214211202e-04 -3.009019166090e-05 1.850125964311e-05 -2.471333900122e-01 7.021068175828e-02 5.681573819144e-01 7.500000000000e-04 4.417864669111e-06 -1.007618764435e-06 2.769471901481e-07 -1.069914061739e-07
82 1 1.876770456160e-03 1.327304762226e-02 1.421712992720e-02 -2.983063941727e-05 -2.324269321262e-05 -2.387917382877e-05 -7.476493768877e-03 2.786230714392e-01 -1.589436043146e-02 7.500000000000e-04 4.417864669111e-06 3.016543431896e-07 1.369638586475e-07 1.937792318290e-07
83 1 1.046235293799e-02 1.243372996543e-02 1.037729606213e-02 3.551968955128e-05 -3.164528680385e-05 8.892477627899e-05 7.051100898746e-02 9.766491537623e-03 -7.597000549287e-02 7.500000000000e-04 4.417864669111e-06 2.146265707368e-07 5.495578507735e-07 5.383610302109e-08
84 1 1.471631048419e-02 1.173394694938e-02 1.472915243706e-02 2.062952192865e-05 -2.715395590186e-05 -8.230140234467e-06 -3.251552685764e-02 -2.847216659540e-02 -3.503415037310e-02 7.500000000000e-04 4.417864669111e-06 -6.790265976400e-08 1.017404054281e-08 2.623540734514e-08
85 1 1.079159379852e-02 1.157025125180e-03 1.093764272024e-02 5.922058887442e-05 -5.102267435990e-05 -2.697101240898e-05 -7.287724569794e-03 1.664527629100e-02 2.067217016876e-02 7.500000000000e-04 4.417864669111e-06 -2.292903079918e-07 3.646422134510e-07 4.158372015744e-08
86 1 2.934638077879e-04 1.074053811818e-02 7.158433237271e-04 3.688174965474e-05 7.126321211803e-06 -6.373140632776e-06 1.988573891531e-03 5.037728110056e-02 -2.029858438214e-02 7.500000000000e-04 4.417864669111e-06 -4.889522136392e-08 -6.262164296452e-08 -8.685699429362e-08
87 1 4.556591900791e-03 5.285401657578e-03 1.468804819942e-02 8.492164926975e-06 -2.236700681959e-05 -9.068039567843e-06 -2.555587237761e-02 -9.210672442918e-03 3.680624503635e-03 7.500000000000e-04 4.417864669111e-06 -1.518493112810e-08 9.082812848897e-08 6.906804427334e-08
88 1 4.713082132592e-03 1.098892105459e-02 3.866574468177e-03 8.226988352128e-05 -2.368737410040e-05 -2.215525897299e-06 6.728322699748e-02 -1.537573301730e-01 -1.508520548614e-01 7.500000000000e-04 4.417864669111e-06 5.581243377649e-07 7.350068241645e-07 -1.056541487643e-07
89 1 9.253269374617e-03 1.420866581399e-02 1.472289594237e-02 6.884441810870e-06 -5.336298990737e-06 8.602340506575e-07 1.393266130612e-03 -1.419849943846e-02 1.787616084598e-02 7.500000000000e-04 4.417864669111e-06 1.572293130547e-07 1.996992584503e-07 -2.751220099379e-08
90 1 3.746395580365e-03 1.029415527691e-02 4.604445514857e-03 3.982215041827e-08 -8.001406133373e-05 -8.763612400147e-05 2.695527665921e-03 1.066222800804e-02 1.460921312706e-01 7.500000000000e-04 4.417864669111e-06 6.799321065397e-07 1.145912421128e-06 5.122931855103e-07
91 1 1.397125248181e-03 1.210425621176e-03 8.889601617981e-04 2.329603275234e-04 1.326556011314e-04 -4.583667523860e-06 3.470513210975e+01 5.550228852315e+00 -1.036502029587e+01 7.500000000000e-04 4.417864669111e-06 -6.885298536443e-07 -5.907329656104e-07 -5.929425532387e-08
92 1 1.312651929386e-02 3.255881574664e-03 1.194636035437e-02 3.630095010943e-05 -3.760554997899e-05 -2.233934487010e-05 9.807421832969e-04 -7.990858472662e-03 1.489118254088e-03 7.500000000000e-04 4.417864669111e-06 -1.770064847655e-07 2.511532868310e-07 1.042733265863e-07
93 1 8.099521238101e-03 1.080198927470e-04 7.211858538762e-04 2.052547569281e-02 1.383040787164e-02 6.695311069868e-04 -1.745493855053e+01 2.794135039300e+01 -1.129074094458e+02 7.500000000000e-04 4.417864669111e-06 -3.738284499584e-05 -2.851616509900e-05 -1.730482765047e-06
94 1 9.689449738606e-04 1.016248735865e-02 1.864284518538e-03 4.571694385411e-05 1.049754645261e-05 -1.701090270280e-05 3.134970083925e-02 -4.851471395911e-02 3.627988961499e-02 7.500000000000e-04 4.417864669111e-06 -2.948334892680e-08 2.114733659388e-08 -9.748608626051e-08
95 1 1.421726135535e-02 1.261670598841e-02 2.135538630485e-03 2.658809599756e-05 7.094411060040e-06 1.636836542910e-05 -2.881584177445e-02 5.165865413282e-02 1.231918362183e-02 7.500000000000e-04 4.417864669111e-06 4.283324086501e-08 9.133769483447e-09 -6.639616503534e-08
96 1 2.164851285308e-03 3.668676119063e-03 6.605409756097e-03 -1.857472280928e-15 2.806666915291e-14 -5.746924269929e-15 -9.321708230130e+00 -2.482570319847e+01 1.422821172345e+01 7.500000000000e-04 4.417864669111e-06 1.861686276638e-16 -2.813034322473e-15 5.759962157209e-16
97 1 1.428785904935e-02 6.529510332844e-03 2.442100451781e-03 1.280804100022e-04 -7.207393741763e-05 -1.946858814971e-05 -4.637064155593e-02 5.899984475827e-02 3.678060620771e-02 7.500000000000e-04 4.417864669111e-06 -6.690457117016e-07 2.994990706521e-07 1.003738517059e-07
98 1 4.922135406170e-03 1.389999368419e-02 1.154793561761e-02 1.864034195366e-04 4.449550750962e-05 -1.795258262796e-04 1.547457274470e-01 -1.781902982660e-01 3.167907671264e-01 7.500000000000e-04 4.417864669111e-06 -8.731303073807e-07 -3.517166370782e-07 8.241562777493e-07
99 1 8.035106814700e-03 1.441717061727e-02 9.984206705081e-03 4.229293544890e-05 -7.436065712904e-05 1.511882671967e-05 1.312315591384e-02 -2.695512968519e-02 1.998417683946e-02 7.500000000000e-04 4.417864669111e-06 -1.004490740331e-07 5.740706085286e-07 3.352476613444e-08
100 1 1.756999524255e-03 5.362046882204e-03 1.473204677694e-02 6.871692575635e-07 -1.078415909368e-05 -1.010521679177e-05 -3.567972486584e-03 -4.306489596458e-03 1.664468430596e-02 7.500000000000e-04 4.417864669111e-06 2.438572180506e-08 4.136394024423e-08 2.131782018056e-08
101 2 1.520493029456e-02 9.719664418288e-03 5.986197400422e-03 -4.155832775064e-05 -6.865565786984e-05 -4.519728538517e-05 2.183599566023e-02 1.195197488895e-01 -2.181652656639e-02 1.000000000000e-03 1.047197551197e-05 9.380487882637e-07 9.167927225941e-07 -1.423835698022e-08
102 2 6.853476643624e-03 1.442811967244e-02 2.698307985607e-03 2.088638909038e-04 2.295491447056e-04 -4.343803561653e-04 -6.050849236810e-01 1.229115700353e+00 5.377804516785e-01 1.000000000000e-03 1.047197551197e-05 -1.388244231436e-06 6.450643105171e-07 2.255765472792e-06
103 2 5.197311461413e-03 9.994095524239e-03 6.014129860613e-03 5.159922708058e-05 -1.177024506894e-04 -1.365489168282e-04 -1.618215446137e-01 5.221391915498e-02 -5.766457652774e-02 1.000000000000e-03 1.047197551197e-05 8.941285918037e-08 1.408758647083e-06 2.259724654171e-06
104 2 1.771426325061e-03 1.217131346452e-02 1.272567837488e-02 1.077896719948e-05 -4.054318460069e-05 -2.211069238161e-05 -4.202535928634e-04 -1.889318268774e-02 -4.671055864120e-03 1.000000000000e-03 1.047197551197e-05 -4.741179920946e-07 4.459428870979e-07 -5.589716556397e-08
105 2 5.541462287793e-03 1.297996738552e-02 1.451378274568e-02 1.583351988747e-05 -2.405199175339e-05 -9.723049627549e-06 -1.492751644479e-02 -1.637988517142e-02 -7.199579059931e-03 1.000000000000e-03 1.047197551197e-05 -2.131962809940e-07 2.450237964203e-07 9.864412640966e-08
106 2 1.062436652756e-02 2.071133846348e-03 8.611434625336e-04 2.224028818354e-04 8.413860341095e-05 -2.771079686067e-05 -9.974081433887e-02 2.027302049385e-01 2.608418198664e-01 1.000000000000e-03 1.047197551197e-05 -1.319656186533e-06 -1.443541955369e-06 5.612042602482e-07
107 2 7.578693846374e-03 1.128683394100e-02 4.345637910958e-03 -8.900488226732e-05 3.078245319749e-05 -6.393197471848e-05 2.032449642308e-01 1.180813407889e-01 2.384114052949e-01 1.000000000000e-03 1.047197551197e-05 1.183997274485e-06 1.428156678664e-06 1.495572192409e-06
108 2 5.894278407680e-03 4.025399480544e-03 2.794041996137e-03 2.436134643182e-04 -2.617905378897e-05 -5.091521755566e-04 3.568919009266e-01 -2.384252461493e-01 -2.717604222490e-01 1.000000000000e-03 1.047197551197e-05 -1.424786687060e-06 -4.127129958290e-07 4.974451746320e-06
109 2 1.501415304805e-02 1.244560838786e-03 6.324172055753e-03 5.902067844696e-05 -9.390530752297e-05 -5.388766006307e-05 -2.830833137807e-02 4.069719639494e-02 -5.454002271068e-03 1.000000000000e-03 1.047197551197e-05 3.439762971231e-07 1.809701670513e-06 6.520976558223e-07
110 2 1.130872552299e-02 1.209318205761e-02 8.131282938224e-03 2.909927305208e-05 -1.191160682152e-04 1.412347244754e-05 -4.119183270471e-04 2.103796644791e-01 4.120456735134e-02 1.000000000000e-03 1.047197551197e-05 1.703384921143e-07 1.294064012731e-06 6.358533728754e-07
111 2 1.062734843737e-02 3.042750853407e-03 4.108159309619e-03 1.094456447211e-04 -1.444964344039e-04 -3.618742313699e-05 9.293036954905e-02 -2.359932627154e-02 9.651018680273e-02 1.000000000000e-03 1.047197551197e-05 -1.484778687560e-06 2.312550791620e-08 5.117860894416e-07
112 2 7.943370907302e-03 4.588210377425e-03 1.364770862606e-03 -3.180234755364e-05 3.602225478131e-04 5.717919611595e-04 6.227471954436e-01 -8.362719990542e-02 -5.219086717725e-01 1.000000000000e-03 1.047197551197e-05 -1.099644084564e-06 -6.035969416504e-06 -6.339728048709e-06
113 2 1.033792502680e-02 6.259775004826e-03 1.145291911537e-02 -1.356867716545e-05 -4.692339680534e-05 -6.840955014906e-05 -4.084676527835e-02 2.843972632086e-02 2.026370352629e-02 1.000000000000e-03 1.047197551197e-05 1.621116355091e-07 8.220676192874e-07 6.534563428620e-07
114 2 1.387704931879e-02 1.148854435792e-02 1.101402636685e-02 1.064399282210e-05 -6.235476172528e-05 -2.828498553439e-05 4.322492582161e-02 -1.963303230531e-02 -3.519908132764e-02 1.000000000000e-03 1.047197551197e-05 1.320477962021e-07 4.007221627111e-07 1.894432266123e-07
115 2 1.366247876354e-02 9.631203888311e-03 4.806374957362e-03 -1.127173550393e-04 -7.954767643073e-05 -5.939098149819e-05 -5.879272426324e-03 -9.014859021343e-02 7.005858296350e-02 1.000000000000e-03 1.047197551197e-05 1.542921153834e-06 1.040311951347e-06 -4.082468086545e-08
116 2 1.322647271172e-02 1.394972625957e-03 1.446102642247e-02 1.329084806594e-05 -2.985389105712e-05 -8.541529958188e-06 -1.738750710710e-02 -1.741778620093e-03 -1.619324340285e-03 1.000000000000e-03 1.047197551197e-05 -1.968897224737e-07 5.343422830002e-07 5.144174048781e-09
117 2 1.261065758268e-02 6.264642514378e-03 5.260626557944e-03 6.719952009124e-05 -9.436327776340e-05 -1.321147013748e-04 6.068325551183e-02 -3.316569957028e-02 5.452370247435e-02 1.000000000000e-03 1.047197551197e-05 -9.905594462680e-07 1.095015709060e-06 7.672591463534e-07
118 2 1.308583513062e-02 1.534100167132e-02 9.210998007260e-03 6.822724548638e-05 -8.483081014388e-05 -2.379214244181e-05 -2.174352026700e-03 6.337154551596e-03 -5.636902228266e-03 1.000000000000e-03 1.047197551197e-05 -5.745170376879e-07 7.887284455226e-07 -1.347738362345e-07
119 2 5.188141162527e-03 2.235798804565e-03 2.564697040460e-03 1.955147622200e-04 8.575681847486e-05 -5.679671782400e-05 -1.829706830641e-01 -1.636655433132e-01 8.811235439225e-01 1.000000000000e-03 1.047197551197e-05 -1.576929123186e-06 -3.228620191207e-07 7.981516669619e-07
120 2 7.299710409280e-03 2.959396901809e-03 2.214025080706e-03 3.301335744378e-04 -3.738693143407e-04 -7.128514221198e-05 -7.172770959031e-01 -2.431060085864e-01 4.220751434947e-02 1.000000000000e-03 1.047197551197e-05 -2.506785481411e-06 -3.134411439317e-07 1.021058239326e-06
121 2 1.280728341493e-02 7.740066880499e-03 9.083589990956e-03 -2.475043095710e-05 -5.888095592483e-05 -1.032804339326e-04 5.159957499224e-02 3.599996412268e-02 2.026861117987e-02 1.000000000000e-03 1.047197551197e-05 3.439078857228e-07 5.721218332013e-07 1.045187795988e-06
122 2 1.462177125802e-02 8.513707349716e-03 8.514889965493e-03 -5.570926628701e-05 -3.980618707347e-05 -8.516624232892e-05 6.706320286140e-02 1.076038807654e-02 -5.909943212894e-02 1.000000000000e-03 1.047197551197e-05 6.339527000753e-07 1.699665618479e-07 8.827360264238e-07
123 2 5.013209339484e-03 4.803878769264e-03 1.312071830024e-02 2.289317223749e-06 -4.294161427698e-05 -1.901172665846e-05 -9.668326827458e-03 1.471412513955e-02 -2.883491899108e-03 1.000000000000e-03 1.047197551197e-05 1.143738194658e-07 5.716480935249e-07 2.472435804971e-07
124 2 1.527312211153e-02 1.227591462014e-02 1.325715644678e-02 2.594749555530e-05 -4.164082552595e-05 -1.431083319586e-05 1.712493411022e-02 2.679928512526e-02 -2.125128428827e-03 1.000000000000e-03 1.047197551197e-05 -5.426075834657e-07 2.374254802876e-07 -1.338224596327e-07
125 2 1.133459239650e-02 1.379816739557e-02 1.775769005827e-03 8.099039272771e-05 -6.077676821369e-05 8.970904117467e-05 1.994601964318e-01 -1.782002951806e-02 -2.051652659429e-01 1.000000000000e-03 1.047197551197e-05 -2.412234705540e-07 8.810782111218e-08 -2.896870398510e-07
126 2 6.098217887962e-03 1.003215526742e-02 4.191572505568e-03 1.002464602428e-04 -1.661433385869e-04 -8.536147236259e-05 1.402321192116e-01 1.165450284262e-01 2.310044526445e-02 1.000000000000e-03 1.047197551197e-05 -4.907712014060e-07 3.305241375909e-06 1.075047866012e-06
127 2 5.619698145483e-03 1.512622067120e-02 9.409418051484e-04 -2.463132222729e-04 3.950336591066e-04 -2.619314473299e-04 -6.081259333679e-01 -1.245446691687e-01 1.435002892581e+00 1.000000000000e-03 1.047197551197e-05 -2.172342965795e-08 -7.777310927761e-07 1.114857702590e-06
128 2 6.941878342474e-03 8.677522747411e-03 8.894415207923e-03 -3.244901209028e-05 -9.214556665230e-05 -4.844162734885e-05 1.765262375291e-02 1.003322150140e-02 3.955731911951e-02 1.000000000000e-03 1.047197551197e-05 8.045162554416e-07 1.407085774639e-06 2.519404380794e-07
129 2 1.474730948684e-02 6.683445519171e-03 1.132609461353e-02 -3.520844448756e-07 -3.068610940489e-05 -2.705472644397e-05 2.138684054653e-03 2.159444078423e-02 -3.142287930892e-03 1.000000000000e-03 1.047197551197e-05 2.573077582303e-07 5.206350708715e-07 2.903551223818e-07
130 2 8.413690847436e-03 8.425770630787e-03 5.472813287045e-03 -1.475200121968e-04 1.030042475317e-06 3.513450922829e-05 1.722641286929e-01 2.240654869238e-02 1.834172939004e-01 1.000000000000e-03 1.047197551197e-05 3.384856469873e-07 4.176591377434e-07 -1.708733320606e-07
131 2 8.923570083556e-03 1.528929894106e-02 8.840011859132e-03 2.287794503263e-05 -1.004727585974e-04 -2.761966648189e-05 -5.648265607995e-02 3.922427969333e-02 -1.939649566841e-02 1.000000000000e-03 1.047197551197e-05 -3.595872361571e-07 1.036594598318e-06 4.357700558756e-07
132 2 1.476793260828e-03 6.431651298867e-03 1.072346540226e-02 2.022039677334e-06 -3.474718771409e-05 -4.076424974773e-05 -9.559346680118e-03 1.781630220413e-02 -2.201666453630e-02 1.000000000000e-03 1.047197551197e-05 2.061040176303e-07 4.382205138581e-07 3.910332595908e-07
133 2 4.181293289498e-03 6.624708995825e-03 8.073576495303e-03 2.708193357609e-05 -6.748980767768e-05 -4.636993196992e-05 6.668544979395e-03 1.847450004912e-02 4.505623269551e-03 1.000000000000e-03 1.047197551197e-05 2.799396403625e-08 9.073530837808e-07 2.293384776383e-07
134 2 5.985063633657e-03 1.181408314507e-02 7.468020574310e-03 -9.510034570833e-06 -2.550351413351e-04 5.263847563393e-06 -5.212602989075e-02 2.245587889445e-02 -1.724997019400e-01 1.000000000000e-03 1.047197551197e-05 1.103458368572e-06 3.623065223099e-06 1.375391851605e-06
135 2 1.270168162328e-02 1.109718267111e-04 1.210500330077e-02 9.586054252021e-06 -4.334016835435e-05 -2.691127110407e-05 -1.024533626427e-03 -1.841740632720e-02 -1.870198307617e-02 1.000000000000e-03 1.047197551197e-05 -1.468023936126e-07 6.717047326055e-07 3.989079418305e-08
136 2 1.269112968639e-02 2.924314148384e-03 9.175001615245e-03 5.882067317971e-05 -7.030233259117e-05 -2.580459048614e-05 -1.636707867461e-02 -2.035216331802e-02 2.662620037032e-03 1.000000000000e-03 1.047197551197e-05 -2.790868445703e-07 8.381377393732e-07 -4.456117695835e-08
137 2 1.225067178230e-02 4.582368778662e-03 9.866797360433e-03 2.099589892696e-05 -5.529662166456e-05 -3.140758746249e-05 9.448387088645e-03 -1.282848251674e-02 2.105957496988e-02 1.000000000000e-03 1.047197551197e-05 -1.244980561281e-07 7.788868332204e-07 3.126015876296e-08
138 2 4.009340255550e-04 2.491875112252e-05 7.678525067900e-03 8.770877478646e-05 -9.745801560887e-05 -4.005038605437e-05 -3.685019498211e-02 -2.345940839409e-02 2.872657392602e-02 1.000000000000e-03 1.047197551197e-05 -5.870157024943e-07 7.614735395061e-07 9.131766514183e-08
139 2 3.390257098604e-03 8.127434639009e-04 1.444897739030e-02 1.124541531171e-05 -1.456378288008e-05 2.013400687947e-07 -4.032389822499e-03 -1.379753123557e-02 -5.426676000911e-03 1.000000000000e-03 1.047197551197e-05 9.472327983407e-08 1.120714564538e-07 -8.360612960709e-08
140 2 1.701065368528e-03 2.044100589204e-03 4.915476187218e-03 1.034857346266e-04 1.752684315198e-06 8.323697656925e-06 2.074042939615e-01 1.650274239555e-02 1.624503416583e-01 1.000000000000e-03 1.047197551197e-05 -5.137195801332e-07 -3.379861779424e-07 7.589731680862e-07
141 2 6.947412223187e-03 1.412915146641e-02 4.727141336959e-03 4.400617465446e-05 -3.303669851718e-05 1.533906166907e-04 -1.404763642279e-01 1.346572525575e-01 6.430003756821e-02 1.000000000000e-03 1.047197551197e-05 1.860434133896e-06 -1.018588758617e-06 -1.160398095163e-07
142 2 6.059931132336e-03 4.401100895212e-03 1.142152647632e-02 2.484580680793e-05 -7.311318200853e-05 -2.507901578184e-05 -4.289808574341e-02 -9.856696267612e-05 -6.611746173727e-03 1.000000000000e-03 1.047197551197e-05 -1.224014318715e-07 1.400271161869e-06 2.583784003281e-08
143 2 5.680917864383e-03 1.108798787830e-02 1.445408387701e-02 5.187016181209e-06 -3.378335774068e-05 3.481169173184e-06 -1.958947574013e-02 -2.811898353073e-03 -6.771083168807e-04 1.000000000000e-03 1.047197551197e-05 -2.811786945608e-09 3.667889035236e-07 -6.630340852756e-08
144 2 1.304633313406e-02 4.907990749390e-03 1.157286258327e-02 8.418200907530e-06 -3.794101762981e-05 -2.704566503927e-05 -5.023307988888e-03 6.306714174971e-03 2.428560960971e-02 1.000000000000e-03 1.047197551197e-05 1.346267654349e-07 5.414433006397e-07 4.198012401701e-08
145 2 6.579028547856e-03 4.130343396572e-04 5.769414467557e-03 6.054667601502e-05 -5.373710268756e-05 -8.879214390918e-06 -1.982939364038e-02 3.114580614964e-02 -8.173958256111e-04 1.000000000000e-03 1.047197551197e-05 1.361314592346e-06 -1.001425341538e-06 1.949336563213e-06
146 2 7.500139266654e-03 5.707536621998e-04 4.096237703453e-03 2.137409097969e-05 -6.012994456061e-05 2.244373365765e-05 5.210749079081e-02 -1.337371717001e-02 -4.424454206061e-02 1.000000000000e-03 1.047197551197e-05 -4.072752608238e-07 -8.206920189857e-07 8.211750170352e-07
147 2 8.421094116399e-03 1.284247273082e-02 1.435797750079e-02 3.247428352078e-05 -3.787658065495e-05 1.586972734742e-05 4.922347485713e-02 1.324075800662e-01 5.291809377406e-02 1.000000000000e-03 1.047197551197e-05 -1.022865328946e-07 9.868917870185e-07 -1.312076872917e-07
148 2 3.741635961983e-03 1.151506097232e-02 2.608270509936e-03 1.005770626904e-04 5.507832968049e-05 -3.021129721755e-05 2.325768107095e-02 7.882191406957e-02 1.088877349393e-01 1.000000000000e-03 1.047197551197e-05 -2.768964288442e-07 1.911543304808e-07 1.767539402211e-07
149 2 1.865306311380e-03 9.275391917474e-03 5.042924445091e-03 6.641329386149e-05 -6.593232470352e-05 -5.767135879025e-05 1.847890069439e-02 4.577829567415e-02 -5.690383026453e-02 1.000000000000e-03 1.047197551197e-05 -2.627675992681e-07 7.871941052959e-07 2.404178419349e-07
150 2 8.615594241700e-03 1.163916902141e-02 2.786593889644e-03 -7.923617047952e-07 2.172296287452e-04 2.682270699498e-05 -4.644585004575e-01 -3.697438264689e-01 2.569538144996e-01 1.000000000000e-03 1.047197551197e-05 3.687361262150e-07 -4.654849851736e-07 4.592726997567e-07
151 2 2.689763894697e-03 1.135267704589e-02 8.395176793845e-03 1.701568531988e-05 -1.092395668136e-04 -3.130560179298e-05 2.884157985866e-03 -2.556370279364e-02 1.222024587132e-02 1.000000000000e-03 1.047197551197e-05 1.054458021029e-07 9.557505189933e-07 4.495878025705e-07
152 2 9.528499245665e-03 1.045577285146e-02 1.034007556308e-03 2.185867599837e-04 3.289411034708e-05 -5.459233967600e-05 1.097701696229e-02 -1.568439360515e-02 -1.096633717215e-01 1.000000000000e-03 1.047197551197e-05 -1.205300890723e-06 -6.954838384041e-07 1.115910169576e-06
153 2 6.096084605154e-03 7.653492630691e-03 9.088823022983e-04 1.370533749576e-04 9.287502788706e-05 8.060782788889e-05 -1.275594873964e-01 2.137974286859e-02 1.527297707498e-01 1.000000000000e-03 1.047197551197e-05 -1.290612157025e-06 -1.657176051313e-06 -1.016310707453e-06
154 2 1.524704576520e-02 4.905431736031e-03 1.095238409961e-02 -1.129170560561e-05 -4.540976975123e-05 -3.362701008206e-05 -1.633320504036e-02 2.714574356862e-02 -1.074483992208e-03 1.000000000000e-03 1.047197551197e-05 4.966553395411e-07 8.211369683835e-07 4.445696833540e-07
155 2 6.411453471842e-03 1.521125634908e-02 1.213454474592e-02 3.425321954267e-05 -5.504096636420e-05 -2.051287706904e-05 -2.876984817519e-02 5.200223150640e-03 -1.789531886720e-02 1.000000000000e-03 1.047197551197e-05 -7.687211622801e-07 9.993844073332e-07 6.466850106216e-07
156 2 9.355369252590e-03 1.389063500956e-02 1.092848051213e-02 6.086413323129e-05 -1.203481029258e-05 4.670346625650e-05 -2.193929873804e-02 1.188396778717e-02 3.632350636525e-02 1.000000000000e-03 1.047197551197e-05 -4.393833690139e-07 1.060054198570e-06 1.106351423465e-07
157 2 1.210921291643e-02 9.547624435184e-03 8.697971796759e-04 3.387572245968e-05 -5.111068189067e-05 6.328994304369e-06 9.411667110665e-02 4.274019879443e-02 4.921327819887e-02 1.000000000000e-03 1.047197551197e-05 -4.617739131688e-07 4.957547485768e-07 -3.011303513782e-08
158 2 7.915639912859e-03 1.227546889733e-02 8.740583006381e-03 1.525335940292e-05 -7.996599393457e-05 4.867005372292e-05 2.064476086362e-01 -3.431694283889e-02 -9.259134714622e-02 1.000000000000e-03 1.047197551197e-05 8.984183642456e-07 5.294540187606e-07 -1.484564380135e-07
159 2 1.018841988942e-02 8.264753245043e-03 7.555476267223e-03 3.790901592229e-06 -6.855871861784e-05 -1.064419690138e-04 1.346267968067e-01 -5.267159036065e-02 2.011629275805e-02 1.000000000000e-03 1.047197551197e-05 1.687177792773e-07 9.339154281605e-07 7.425399185810e-07
160 2 2.546503344782e-03 7.964560558056e-03 1.257321192822e-02 1.014792953270e-06 -4.756286501293e-05 1.719909499839e-06 -1.378024746799e-02 -3.300646058691e-03 -6.050425157406e-03 1.000000000000e-03 1.047197551197e-05 1.028568727504e-07 5.843871963354e-07 -2.301801548994e-07
161 2 4.538281384919e-03 6.556897753470e-03 1.358340591962e-02 5.080778623618e-06 -3.553811352231e-05 -1.279589639040e-05 1.223379323133e-02 7.781157478414e-03 -4.482376295543e-03 1.000000000000e-03 1.047197551197e-05 6.275643698513e-08 3.875114700650e-07 3.135205373919e-07
162 2 1.246164756544e-02 1.157062847109e-03 1.052009005546e-02 5.582070917940e-05 -6.002500419235e-05 -3.389822399575e-05 -2.197545437692e-02 -2.361706824448e-02 5.502260868958e-03 1.000000000000e-03 1.047197551197e-05 -4.199211683315e-07 7.709504945846e-07 1.920140529286e-07
163 2 8.657367936131e-04 7.053486425936e-03 1.245335194440e-02 3.076946235430e-06 -3.870698959572e-05 -2.752385505896e-05 2.363290493141e-02 -1.888923883647e-02 5.606111650375e-04 1.000000000000e-03 1.047197551197e-05 1.920892499456e-07 4.210837513238e-07 2.823676054906e-07
164 2 1.030556712741e-03 7.957974655964e-03 8.105693477954e-03 -4.030632638985e-05 -9.393740043890e-05 -7.453952758780e-05 -1.271858970110e-02 -2.381278462199e-02 7.081483418407e-03 1.000000000000e-03 1.047197551197e-05 7.279075581079e-07 1.268093868249e-06 5.499036301918e-07
165 2 7.303925845972e-03 4.565510036673e-03 4.292846719112e-03 5.885333223026e-04 2.651754588724e-04 -1.520665694498e-04 4.527006521363e-01 -4.762125909788e-01 6.515298414653e-01 1.000000000000e-03 1.047197551197e-05 -5.897937930003e-06 -2.648847834307e-06 2.026586731134e-06
166 2 1.710301604051e-03 5.399746603994e-03 7.322258453823e-03 6.648236197425e-05 -8.407759347128e-05 -6.633452260932e-05 1.921941567411e-02 2.813891009213e-02 3.819032086859e-02 1.000000000000e-03 1.047197551197e-05 -8.597325424570e-07 1.721486932415e-06 5.393177189382e-07
167 2 1.996881574741e-03 1.980043725159e-03 7.278515165610e-03 9.036740623834e-05 -4.986797075806e-05 -7.144201492248e-05 7.823456588497e-03 3.041702850884e-02 2.460102585132e-02 1.000000000000e-03 1.047197551197e-05 3.592990724808e-07 4.691508542577e-07 2.355426436017e-07
168 2 1.711064701139e-03 7.462811334268e-04 8.850130258604e-03 6.548870335177e-05 -6.281777263195e-05 -5.680929841717e-05 2.946771306209e-02 3.152494888570e-02 1.016626581986e-02 1.000000000000e-03 1.047197551197e-05 -4.719135181394e-07 1.153285737244e-06 1.558059477174e-07
169 2 1.193079804017e-02 1.169169418329e-02 1.086677068747e-02 4.911288304661e-08 -9.030066162208e-05 -2.306759548919e-05 2.478405094135e-02 5.942822229138e-02 -6.536538731772e-03 1.000000000000e-03 1.047197551197e-05 5.331459029167e-07 9.654373230610e-07 3.953736949619e-07
170 2 7.128069708451e-03 1.463052991638e-02 8.428701879220e-03 3.033619904774e-05 -3.124966536255e-05 -1.948409875475e-06 8.413307728831e-04 -3.283278170935e-02 -4.705523896142e-03 1.000000000000e-03 1.047197551197e-05 -4.902324769995e-07 6.562614355200e-07 7.599322716358e-07
171 2 1.542618925350e-03 8.637387710307e-03 1.074244698612e-02 -8.911876892603e-05 2.099825641055e-04 -2.661530857472e-04 -1.064709332074e+00 -5.876325561006e-01 -4.011066659236e-01 1.000000000000e-03 1.047197551197e-05 1.367708644900e-06 -2.434053075911e-06 2.840152383898e-06
172 2 8.043433413031e-03 1.342997640417e-02 7.258165204696e-03 -3.726874938385e-05 -4.177820548374e-05 7.641175731915e-05 -1.410338386644e-01 1.493127180032e-01 2.823303828740e-02 1.000000000000e-03 1.047197551197e-05 1.241013605049e-06 9.971414654555e-07 2.435198598131e-07
173 2 1.114331000847e-02 6.948027549276e-03 8.542054993729e-03 -1.565415030986e-05 -9.636831541746e-05 -1.237191379360e-04 -1.208901935787e-02 8.248792499447e-03 2.462011689983e-02 1.000000000000e-03 1.047197551197e-05 4.614319385648e-07 1.425975644545e-06 9.526786167243e-07
174 2 1.524975660518e-02 7.294193126189e-03 9.618311739475e-04 3.633631328408e-05 -2.266685516157e-05 1.332717607651e-06 1.284588845821e-02 -1.161662172968e-03 3.125151373349e-02 1.000000000000e-03 1.047197551197e-05 -2.764602539899e-07 2.858163158460e-07 -1.608356640829e-07
175 2 1.283529223481e-02 1.131434395637e-02 9.086792927965e-03 3.477534211003e-05 -1.154861046462e-04 -3.360450089280e-05 -4.516334033352e-03 -1.801182094731e-01 1.906924618297e-02 1.000000000000e-03 1.047197551197e-05 2.172108371761e-07 7.878187929915e-07 4.198070228593e-07
176 2 1.412827910453e-02 2.739578092541e-03 5.608835834505e-03 7.670269346346e-05 -6.870022390768e-05 -3.444917222847e-05 8.775111186926e-02 -8.249801126564e-02 -5.735696366651e-03 1.000000000000e-03 1.047197551197e-05 -4.513640044883e-07 1.110446294856e-06 -3.549055726980e-07
177 2 1.218216481729e-02 1.250474084848e-02 8.407944612259e-04 2.347553152936e-05 -3.768845367341e-05 -2.186852665278e-05 2.828196707121e-02 7.698855577033e-03 7.430898277106e-02 1.000000000000e-03 1.047197551197e-05 1.211178305590e-07 4.322886193288e-07 -1.493266516450e-08
178 2 5.949554399550e-03 6.003402494592e-03 2.465538625558e-03 1.322235672595e-04 -8.918189347792e-05 2.378878022794e-05 1.565773348169e+00 -1.063836179767e-01 -6.287971662486e-01 1.000000000000e-03 1.047197551197e-05 -1.216133232659e-06 -1.327691877872e-06 -2.467063187461e-07
179 2 4.690562729209e-03 6.865891939800e-05 5.970087591300e-03 8.999292973426e-05 -8.056061261448e-05 -4.672652676205e-05 5.417314728866e-02 -5.523086085249e-02 3.789263543348e-02 1.000000000000e-03 1.047197551197e-05 8.746664710616e-07 -8.644816137991e-07 9.890022183331e-07
180 2 1.510797763596e-03 5.469387397420e-03 8.522772985252e-04 1.632245771814e-05 -1.173099018250e-05 -1.295465371707e-05 3.499270158035e-03 1.859389003815e-02 5.161982076068e-02 1.000000000000e-03 1.047197551197e-05 -3.016902404140e-07 1.119060425327e-09 9.621032491106e-08
181 2 1.527079834466e-02 3.415076191000e-04 1.146270924214e-03 3.364344383194e-04 -2.435914060148e-04 -3.132935456866e-04 2.155723313739e+01 2.309853855532e+01 -8.547603133833e-03 1.000000000000e-03 1.047197551197e-05 -3.129400589823e-06 2.340403100123e-06 2.783866798575e-06
182 2 1.900624858587e-03 1.314548076291e-02 4.284292915911e-03 8.051265071407e-05 -6.276058983981e-05 -1.884268524116e-05 -7.078262392646e-02 4.269387468935e-02 4.363613818962e-02 1.000000000000e-03 1.047197551197e-05 -2.557828245934e-07 4.034717783224e-07 -1.598409597063e-07
183 2 1.534366536091e-02 1.292694692652e-02 4.518373549556e-03 5.513056549574e-05 -2.087926792948e-05 1.254020692926e-05 7.883316285169e-02 -6.657556871674e-02 3.720177821660e-02 1.000000000000e-03 1.047197551197e-05 -2.880949774556e-09 2.664469841494e-07 -4.339423581499e-07
184 2 5.116995275408e-03 1.011767206145e-02 2.578217368236e-03 1.131032086912e-04 6.683973074295e-05 -3.485284451540e-05 9.726868684402e-02 -8.730090775667e-02 -9.281354815743e-02 1.000000000000e-03 1.047197551197e-05 4.773233687278e-08 6.304505935641e-07 4.700093157428e-08
185 2 1.953291422745e-03 1.156433740757e-02 1.447362176410e-02 -2.711362338362e-06 -1.798361895503e-05 -1.099536731971e-05 -1.643964223066e-02 3.299326185549e-03 6.514444017692e-03 1.000000000000e-03 1.047197551197e-05 -2.122681306039e-07 3.434198925246e-07 7.863872635989e-08
186 2 1.906256108065e-04 1.349638901855e-02 7.378465783454e-03 5.610437434520e-05 -9.741788299252e-05 -2.768432858741e-05 1.070878735494e-02 2.230724295671e-02 -4.779450341742e-02 1.000000000000e-03 1.047197551197e-05 1.416114333782e-07 7.497103653366e-07 3.562713429813e-07
187 2 1.410249479111e-02 5.131421653678e-03 9.477008590007e-03 1.955272447192e-05 -3.928349272854e-05 -7.120002121281e-05 3.929948752470e-02 -7.732472371048e-02 1.339537829748e-02 1.000000000000e-03 1.047197551197e-05 2.966207618678e-08 5.190291349047e-07 8.988254822411e-07
188 2 3.458402914768e-03 1.344964175179e-03 8.424384651891e-03 6.250809498977e-05 -5.735074320076e-05 -6.127314651265e-05 3.380673469674e-02 -2.686895626592e-02 -1.820503190709e-02 1.000000000000e-03 1.047197551197e-05 -2.851432095026e-07 6.402320144710e-07 3.724776297190e-07
189 2 1.163875748816e-03 3.174019155004e-04 5.728151716080e-03 9.826430980842e-05 -9.506528332223e-05 -7.918082784961e-05 -1.983279858305e-01 8.450265815975e-02 9.711258187256e-02 1.000000000000e-03 1.047197551197e-05 6.879477409295e-07 1.628719783676e-06 2.700914255196e-06
190 2 6.580898387330e-03 1.534193362019e-02 1.019820224496e-02 4.232503737566e-05 -7.588359176888e-05 -1.388277080364e-05 1.276384107768e-02 -1.504151311680e-02 -1.883997246947e-02 1.000000000000e-03 1.047197551197e-05 -5.606137626538e-07 1.487309863980e-06 5.396068929123e-07
191 2 7.136199920584e-03 1.007060102232e-02 5.758501264726e-03 5.883109066706e-05 -5.371157159878e-05 -3.499250817676e-05 -1.655854318564e-01 -1.967212695638e-01 1.808993689893e-01 1.000000000000e-03 1.047197551197e-05 1.068182256745e-07 -6.266496010043e-08 -4.241273571953e-08
192 2 1.512104063454e-02 5.456765165750e-03 1.545194676045e-03 6.420438219696e-05 -6.168185627879e-05 -8.104334606860e-06 -8.296705441294e-03 1.023224585848e-02 -1.564320333790e-02 1.000000000000e-03 1.047197551197e-05 -4.972137340812e-07 6.476188541917e-07 -5.649198777232e-09
193 2 2.787741665174e-04 4.831413674359e-03 6.189543474512e-03 7.796160081712e-05 -6.543815135004e-05 -8.889897371043e-05 4.652502934572e-02 -2.976376386610e-02 -7.565360630848e-03 1.000000000000e-03 1.047197551197e-05 -1.219818494775e-06 1.160811822774e-06 1.463270925105e-06
194 2 2.298018213376e-03 9.659669567632e-03 1.444969988673e-02 2.676093346755e-07 -1.225422714633e-05 -1.140207094043e-06 -3.638707195165e-03 -5.779158075521e-03 1.086325602654e-03 1.000000000000e-03 1.047197551197e-05 -7.740592584271e-08 1.129442347037e-07 6.339462512777e-09
195 2 8.292889435901e-03 4.333282689589e-03 1.450694232569e-02 9.835868377358e-06 -2.452941540692e-05 -1.158941836815e-05 -2.230050775517e-02 -1.082114872533e-02 -1.827770722720e-02 1.000000000000e-03 1.047197551197e-05 -4.736934950420e-08 3.876696116649e-07 1.984488078987e-08
196 2 1.085808051371e-02 4.437377717358e-03 1.137055028549e-02 1.883690066707e-05 -5.684439031654e-05 -3.372641803743e-05 -8.550662066876e-03 2.107858352691e-03 1.227461149436e-02 1.000000000000e-03 1.047197551197e-05 -9.473557711660e-08 9.848216710757e-07 1.189363543505e-07
197 2 1.172752766912e-02 1.450511409784e-02 1.451729612768e-02 1.276737208299e-05 -2.429345638850e-05 6.679547958577e-06 -2.334644991465e-02 -3.002454629051e-03 -1.537602243162e-02 1.000000000000e-03 1.047197551197e-05 1.103596156282e-07 4.287413809540e-07 -9.558258544322e-08
198 2 1.399518273062e-02 5.776904227763e-03 6.514904423973e-03 5.431873646262e-05 -7.414889267656e-05 -1.029651973345e-04 -3.817300242027e-03 -1.845758378963e-02 1.852846495885e-02 1.000000000000e-03 1.047197551197e-05 -8.566163307687e-07 9.032333657252e-07 9.293029590261e-07
199 2 3.646639507936e-03 8.929001316455e-03 5.579603469878e-03 6.813097482508e-05 -1.115025756520e-04 -3.130413047615e-05 -5.299392465907e-02 -6.340355351560e-02 1.011498381206e-02 1.000000000000e-03 1.047197551197e-05 -5.877940276435e-08 1.608827493766e-06 -2.399363217874e-07
200 2 8.774985642694e-03 4.776142027171e-04 1.445393812384e-02 1.184600451757e-05 -1.398206785697e-05 -8.236357397478e-06 -1.707215346281e-02 -8.631501592375e-03 -4.987961446571e-03 1.000000000000e-03 1.047197551197e-05 -1.946437866144e-07 2.429522230367e-07 2.050032065621e-07
201 2 2.180589841456e-03 4.969228004404e-03 9.545601446696e-03 4.607910438206e-05 -6.156574717141e-05 -5.363411691274e-05 -2.962009191575e-02 -1.948277453210e-02 -9.278981313896e-03 1.000000000000e-03 1.047197551197e-05 -7.093788619548e-07 1.026460370006e-06 3.215511920657e-07
202 2 2.679971578429e-03 5.101701265372e-03 5.742883716538e-03 1.062419082754e-04 3.226151631337e-05 -5.680606087868e-05 2.212561537243e-02 -4.725451695764e-02 1.251642713319e-01 1.000000000000e-03 1.047197551197e-05 -1.066429832697e-06 -2.387295042762e-07 5.612511210348e-07
203 2 1.445211240503e-02 9.798301784482e-03 1.188083270619e-02 -4.363150024921e-06 -6.031510046489e-05 -1.500523870911e-05 -2.938317132297e-02 -5.132884889158e-03 9.605899150692e-03 1.000000000000e-03 1.047197551197e-05 1.660023812727e-07 3.778074453954e-07 3.063728769797e-07
204 2 1.521172683696e-02 6.983082521784e-04 9.432416359176e-03 6.053352436789e-05 -7.680558425046e-05 -2.989571142701e-05 -3.651495345255e-03 -1.056677761676e-02 -2.316150879190e-03 1.000000000000e-03 1.047197551197e-05 -5.200636878023e-07 1.015471866460e-06 -6.209474453547e-07
205 2 6.204811184959e-03 8.329158500975e-03 5.237701942402e-03 9.197369303488e-04 -1.125954111097e-03 -3.028985046352e-05 -1.647311519804e+00 -1.008376449012e+00 -1.306901779219e+00 1.000000000000e-03 1.047197551197e-05 -3.238746705128e-06 5.211204326155e-06 -1.140010210909e-08
206 2 2.513358521826e-04 1.353673733845e-02 2.220723251505e-03 5.514526634350e-05 1.098649225396e-05 4.998615529938e-05 9.207324481210e-02 -1.331963980476e-03 1.907217197835e-02 1.000000000000e-03 1.047197551197e-05 -3.448246204209e-07 -2.303584979634e-08 -8.348054209242e-07
207 2 1.518716192112e-02 6.197549532652e-03 8.137967233347e-03 2.766960155382e-20 1.727107389620e-21 5.470094310953e-20 5.032801019256e+03 -1.293724939096e+03 7.412025128546e+03 1.000000000000e-03 1.047197551197e-05 -2.769604933275e-21 -1.728758232129e-22 -5.475322859141e-21
208 2 4.324056724023e-03 1.847551993417e-03 4.954451396990e-03 1.773827425453e-04 1.330606004412e-05 -2.307037248440e-05 -1.847175272806e-01 -1.234258636438e-01 2.599206469774e-01 1.000000000000e-03 1.047197551197e-05 -1.186477189814e-06 5.222280671834e-07 9.444938662419e-08
209 2 7.541696475160e-03 6.472663624822e-03 4.848271152482e-03 2.707987742701e-04 1.672243086251e-06 -1.812136188995e-04 1.489952264156e+01 3.948881761933e-01 -9.273326936352e+00 1.000000000000e-03 1.047197551197e-05 -2.949391425842e-06 -3.844611501802e-07 2.208373925889e-06
210 2 4.727936960228e-03 3.126650616865e-03 1.393505736582e-02 1.033855784801e-05 -3.661183925888e-05 -3.461442294239e-06 -5.866681038541e-03 1.695657445886e-03 4.961994380297e-03 1.000000000000e-03 1.047197551197e-05 9.329904385221e-08 3.477059386857e-07 -6.817060522229e-08
211 2 7.504617967545e-03 1.064272509445e-02 1.393314583234e-02 -5.469607432897e-06 -4.852085131082e-05 -3.488413372946e-05 4.698181869588e-02 3.784010461020e-02 -1.463571975737e-02 1.000000000000e-03 1.047197551197e-05 2.468426396939e-07 4.805730723116e-07 6.992398919160e-07
212 2 7.979517953656e-03 6.791537644543e-03 1.446651680667e-02 5.998317850942e-06 -3.651869075321e-05 -1.246692516601e-05 -2.781495631692e-02 -3.401787404129e-03 2.203893904378e-03 1.000000000000e-03 1.047197551197e-05 -4.074642459744e-08 5.527485970840e-07 8.851742407672e-08
213 2 4.257750872273e-03 2.148566988263e-03 1.067350156237e-02 3.423832702056e-05 -6.534744841825e-05 -1.369188038548e-05 -1.107679943638e-02 -3.230940893475e-02 8.515524741986e-03 1.000000000000e-03 1.047197551197e-05 -4.728680388846e-07 9.685317004476e-07 2.780085539201e-07
214 2 8.352963959939e-03 8.918070771147e-03 7.396256531120e-03 -4.767678601813e-05 -9.349361757393e-05 2.750689652360e-06 6.135739874576e-02 6.804195594906e-02 1.770721078637e-02 1.000000000000e-03 1.047197551197e-05 8.841934215695e-07 7.519544405896e-07 -2.895056414236e-07
215 2 1.416072437102e-02 1.521596719757e-02 1.078901119572e-02 3.940111725987e-05 -7.299614685270e-05 -2.778718487605e-05 -4.916960179784e-03 -1.529797953236e-02 -6.858622301260e-03 1.000000000000e-03 1.047197551197e-05 -3.064744605117e-07 1.049509674772e-06 -2.754658139216e-07
216 2 1.455419890869e-02 3.553639180932e-03 2.708940374602e-03 1.632799317471e-04 -1.009647312097e-04 -1.520500721438e-05 -1.024606637819e-01 -1.378494381445e-01 -2.149107657960e-03 1.000000000000e-03 1.047197551197e-05 -1.713173331120e-06 1.090160636831e-06 3.848234357933e-08
217 2 5.164489559329e-03 7.273735319474e-03 9.641705952417e-03 1.864378943702e-05 -7.122002206122e-05 -4.525393751977e-05 1.460659524588e-02 2.366520327890e-02 2.996249787102e-02 1.000000000000e-03 1.047197551197e-05 9.174072392060e-08 7.932786310610e-07 2.487755829268e-07
218 2 1.764256376024e-03 1.237401737721e-02 7.102308263293e-03 1.848886820233e-05 -1.329833513176e-04 -4.180000402108e-05 -3.713849345787e-02 1.628456604476e-02 -1.886557378918e-03 1.000000000000e-03 1.047197551197e-05 3.578554675439e-07 1.430581799130e-06 2.062419618027e-07
219 2 1.020732638889e-02 1.416634488581e-02 1.339709104210e-02 3.208521834627e-05 -5.325123949704e-05 2.289648268718e-05 -6.718558897570e-02 -1.751357024430e-02 -6.740555493946e-03 1.000000000000e-03 1.047197551197e-05 1.187867418658e-07 7.120761026494e-07 -2.165026507785e-07
220 2 1.149600043683e-04 3.232753028547e-03 4.365359589890e-03 1.043934305859e-04 -6.555238425505e-05 1.920582858931e-05 3.752545750799e-02 7.655915837727e-02 -9.582255858204e-02 1.000000000000e-03 1.047197551197e-05 -1.070045233333e-06 1.060791849030e-06 -3.419167733875e-07
221 2 1.229215333633e-02 1.076405426113e-02 1.448323269106e-02 -1.819291973657e-07 -2.513642581594e-05 -1.146875019739e-05 -2.314449115173e-02 -8.139992584641e-03 -5.966675758431e-03 1.000000000000e-03 1.047197551197e-05 3.919436295504e-07 2.817675402544e-07 2.934359664969e-07
222 2 9.887187920027e-03 1.006318617600e-02 7.859340829526e-03 -3.240787279847e-05 -1.009579168800e-04 -1.879903389863e-05 -3.174510121165e-02 -5.457856839997e-02 6.777430608323e-03 1.000000000000e-03 1.047197551197e-05 5.818180089256e-07 1.268280179550e-06 3.229846459285e-07
223 2 2.270052008947e-03 3.719694646150e-03 9.539918381655e-04 1.172784697265e-04 2.243064554798e-05 -2.088621268143e-07 -3.053815889209e-02 8.851384510893e-02 5.371814617889e-02 1.000000000000e-03 1.047197551197e-05 -1.198963381901e-06 -1.769878205064e-07 -1.225682498656e-07
224 2 8.397618690947e-03 9.551049018163e-03 3.905636721539e-03 -1.008068305953e-05 -2.566997408102e-05 -1.309287050085e-05 -2.771037277351e-01 -1.975027967070e-01 -1.296906296322e-01 1.000000000000e-03 1.047197551197e-05 -6.986188465668e-07 1.110465395271e-06 6.714570940677e-07
225 2 1.206992507776e-02 1.473562217906e-02 4.872452530219e-03 -4.366106970476e-05 2.007564032427e-04 1.473429970184e-04 -2.980843988449e-01 1.570442162885e-01 -3.172301336872e-01 1.000000000000e-03 1.047197551197e-05 1.010462595664e-06 -1.790460782588e-06 -9.388022593386e-07
226 2 5.615018944393e-03 4.106665491588e-03 6.291210839576e-03 7.752341873634e-05 7.775574241879e-05 -5.694236126737e-05 -5.483924308072e-01 -5.435539452401e-02 -2.154080787729e-01 1.000000000000e-03 1.047197551197e-05 -6.290557758551e-07 6.905803709286e-08 5.453573603863e-07
227 2 3.354272222635e-03 1.262070120404e-02 1.056934907053e-03 6.657393596339e-05 8.109515856637e-05 3.928437837326e-05 8.606825695004e-02 -1.342454928720e-01 6.913461116667e-02 1.000000000000e-03 1.047197551197e-05 -1.877481218760e-07 -6.213702950156e-08 -3.069498583738e-07
228 2 9.959535314418e-03 1.422374384846e-03 8.771230548510e-03 5.951795617670e-05 -1.050144244644e-04 -4.944846202460e-05 2.361435226322e-02 -1.755007028786e-02 -1.961036214790e-02 1.000000000000e-03 1.047197551197e-05 -4.199974419760e-07 1.097563605239e-06 6.536498689120e-07
229 2 4.805069925328e-03 8.237801021226e-03 2.000287633984e-03 5.184006591685e-05 4.396259553633e-05 -7.429184019766e-06 7.884331583571e-02 -1.175545074972e-01 -4.699104615870e-02 1.000000000000e-03 1.047197551197e-05 6.718557152236e-07 4.096042353100e-07 1.894749132195e-07
230 2 8.843531781168e-03 8.644884198479e-03 9.533413983686e-04 1.393035119865e-04 1.607806301146e-04 -2.295214019290e-04 6.974277716282e-02 -3.164505156053e-02 -6.602951961900e-02 1.000000000000e-03 1.047197551197e-05 -1.928267980135e-06 -1.929777782755e-06 3.040549901334e-06
231 2 1.358970951408e-02 8.724934934127e-03 2.922473890856e-03 3.683407475306e-05 -6.268661172564e-05 -5.767251961826e-05 5.713029506182e-02 -2.562393173391e-03 1.342982067220e-01 1.000000000000e-03 1.047197551197e-05 -2.662351648570e-07 2.684078683414e-07 -8.644566497016e-08
232 2 9.260594636502e-03 1.338012113502e-02 3.306678021060e-03 -5.049414129059e-04 4.237719039009e-04 2.047009161843e-03 2.684805515814e+00 8.870683345619e-01 3.556148037170e-01 1.000000000000e-03 1.047197551197e-05 1.422046206029e-06 -1.497626132940e-06 -8.485373875437e-06
233 2 5.083589087158e-03 1.432281566722e-02 1.323819174529e-02 2.294760058284e-05 -2.875674294995e-05 -1.296550519813e-05 1.084911621567e-02 7.630754562361e-03 -5.082728760612e-03 1.000000000000e-03 1.047197551197e-05 -6.596388071444e-07 4.350591040501e-07 5.069891227425e-07
234 2 1.343310879020e-02 8.163143005426e-03 1.047760535734e-03 9.161456945996e-05 -2.959220300273e-05 -5.322459726385e-05 -2.050419980755e-03 -5.856946209984e-02 3.642253690890e-02 1.000000000000e-03 1.047197551197e-05 -8.468779600200e-07 2.319337875981e-07 1.953443454012e-07
235 2 1.105656979771e-02 1.291420598434e-02 3.750197029964e-03 -5.662840767722e-05 -3.046873215827e-05 2.020757925133e-04 -1.306032243744e-01 3.414218306900e-01 -9.474566371466e-02 1.000000000000e-03 1.047197551197e-05 6.649234200233e-07 1.565965364713e-06 -8.110749519095e-07
236 2 1.496988610345e-02 8.033942357091e-03 1.445095108159e-02 6.806425980535e-06 -2.112388944078e-05 -1.471703285881e-06 -1.903526245846e-02 -7.192840575392e-03 1.403549141177e-02 1.000000000000e-03 1.047197551197e-05 5.049013449479e-08 4.208240824264e-08 5.288951204285e-08
237 2 9.884087795319e-03 5.697075368850e-03 9.491133029507e-04 1.837805029471e-04 -8.477002954333e-07 -1.677365958787e-05 1.226257559939e-01 1.777499185489e-01 -3.643043699220e-01 1.000000000000e-03 1.047197551197e-05 -2.440733009859e-06 -1.814218346381e-06 -7.305050955236e-07
238 2 3.522037674518e-03 1.440104024393e-03 3.289110951035e-03 2.682553630999e-04 -2.760451139707e-05 -1.137751770962e-04 1.904027599037e-01 -1.769025971693e-02 -1.967446927986e-01 1.000000000000e-03 1.047197551197e-05 -2.754823235069e-06 1.117923222957e-06 1.259115125879e-06
239 2 1.531841054542e-02 1.046594176266e-02 1.028203148474e-02 -5.845490948551e-06 -9.425777967969e-05 -2.751374832116e-05 -1.418414079606e-02 1.585340728204e-03 -1.844047648925e-02 1.000000000000e-03 1.047197551197e-05 2.058892776664e-07 4.813108366490e-07 2.617675545607e-07
240 2 7.759933981966e-03 9.764052512887e-04 1.295443261368e-02 2.472828847031e-05 -3.047188496226e-05 -2.246688863515e-05 2.489121683542e-02 -1.235976979548e-02 3.768815353609e-02 1.000000000000e-03 1.047197551197e-05 -4.826663637261e-07 3.548040605478e-07 6.364459791727e-07
241 2 6.687469028520e-03 1.340647355568e-02 1.010687634996e-02 3.582485679258e-05 -9.239444967354e-05 -2.510879681679e-05 1.036920348936e-02 -4.689862695413e-03 3.050002087025e-03 1.000000000000e-03 1.047197551197e-05 1.633786475448e-07 1.391184488772e-06 4.108135447272e-07
242 2 2.837429703140e-03 5.199396878688e-03 2.299276960807e-03 4.346674741616e-05 -6.463773323402e-05 -1.219686647079e-04 5.036181233096e-02 8.100322161738e-02 -7.199943239007e-02 1.000000000000e-03 1.047197551197e-05 -2.332004843692e-07 1.214266171968e-06 1.614613706474e-06
243 2 6.187821149512e-03 2.525871254911e-03 1.069640362121e-02 2.469000125408e-05 -8.279740052042e-05 8.726096745063e-06 -5.226167954480e-02 -1.140818135682e-02 -2.592109215427e-02 1.000000000000e-03 1.047197551197e-05 -1.752137681711e-07 1.339829511842e-06 -5.704569610548e-07
244 2 1.129080063592e-02 1.384529623479e-03 1.443918602945e-02 1.499527417375e-05 -2.864960264656e-05 -1.227794118060e-05 -3.155729351166e-02 -1.652262202207e-02 -1.876111664210e-03 1.000000000000e-03 1.047197551197e-05 -2.538227184877e-07 5.673101187401e-07 1.623947480540e-07
245 2 1.559033310874e-03 1.495621735291e-02 1.445653666651e-02 1.561050657087e-05 -1.849660416603e-05 -8.937155342234e-06 -1.603243045621e-02 -1.640943128272e-02 -6.028631908539e-03 1.000000000000e-03 1.047197551197e-05 -8.692941011461e-08 1.205735942282e-07 -5.549254022342e-08
246 2 3.471270149023e-03 8.412300712470e-03 8.214558691341e-03 7.316096697115e-06 -8.191572407735e-05 -3.071865817810e-05 1.155317380548e-02 -2.769216725364e-02 2.355313171433e-02 1.000000000000e-03 1.047197551197e-05 3.273419260920e-07 1.137500041594e-06 -4.933063889230e-09
247 2 6.259653277378e-03 4.166772970911e-03 1.449215495575e-02 8.289854056751e-06 -2.423087233082e-05 -1.433911074215e-05 -2.359175172302e-02 -7.665133518823e-03 2.484511539551e-04 1.000000000000e-03 1.047197551197e-05 2.493471416183e-08 3.450659944462e-07 1.035105623886e-07
248 2 2.318455975744e-03 3.736219415585e-03 4.341568122042e-03 4.685080314605e-05 4.634398253429e-05 3.413176994714e-05 -1.804442995048e-01 9.702758713142e-03 -8.967348366415e-02 1.000000000000e-03 1.047197551197e-05 1.989226719590e-07 -6.846027580251e-07 -7.771774055567e-08
249 2 3.332477595816e-03 2.276925925450e-03 1.619191371228e-03 2.832587895179e-04 1.098441732433e-04 -5.681682416464e-05 -6.636831417633e-02 1.160893706996e-01 3.205486666379e-02 1.000000000000e-03 1.047197551197e-05 -2.986907456030e-06 -8.461999838672e-07 2.627942122841e-07
250 2 6.453955963795e-03 8.992941252346e-03 7.107139388211e-03 -1.026544521884e-05 -6.610880550169e-05 -4.067141716414e-05 2.993245978620e-02 -6.788249671574e-02 1.478285870236e-02 1.000000000000e-03 1.047197551197e-05 8.297189630164e-07 1.223585879234e-07 2.450889584166e-10
251 2 8.457945541529e-03 3.839610192167e-03 1.267550839946e-02 2.521192759740e-05 -5.573016341086e-05 -1.644978879735e-05 -1.393656678074e-02 -3.617748093325e-03 8.685142969981e-04 1.000000000000e-03 1.047197551197e-05 -1.370158959821e-07 9.663079935336e-07 -2.701118141207e-08
252 2 1.121987234122e-02 8.401574890222e-03 9.876195498657e-03 -1.099870905800e-05 -1.065644047157e-04 -5.219902943918e-05 6.271942225797e-02 -1.699811625220e-02 -1.765511672000e-02 1.000000000000e-03 1.047197551197e-05 3.092804056741e-07 1.273885374855e-06 5.624039328487e-07
253 2 1.381147914096e-02 1.140785103076e-02 5.584348151045e-03 -5.053880336276e-05 -7.446387099200e-05 1.286548068401e-05 6.700072963206e-02 9.435178782113e-02 -1.093801974005e-01 1.000000000000e-03 1.047197551197e-05 1.209720604234e-06 1.044399537607e-06 -6.316807560641e-07
254 2 4.600054596250e-03 8.775066473762e-03 3.848911450338e-03 3.182997738717e-05 -6.755332480891e-05 -4.160478242997e-05 4.473473366847e-02 8.319976873613e-02 -3.001210883532e-02 1.000000000000e-03 1.047197551197e-05 4.903067591300e-07 1.381664376929e-06 8.222557198513e-08
255 2 6.575177544030e-03 1.027784392987e-02 1.229789228715e-02 -1.626879608995e-05 -3.801210647628e-05 -4.240354152704e-05 -2.722389559795e-02 -2.585019918263e-02 2.042931713921e-02 1.000000000000e-03 1.047197551197e-05 1.493463815110e-08 1.057435406065e-06 5.310023913343e-07
256 2 6.863098039987e-03 9.748236657333e-03 1.045629432497e-02 -1.476325681159e-05 -9.146004574379e-05 -3.183634592644e-05 -3.698674517721e-03 1.285317540375e-02 -1.813807269086e-02 1.000000000000e-03 1.047197551197e-05 2.905931963174e-09 1.215848447070e-06 2.957340342771e-07
257 2 1.292517057028e-02 1.179157526410e-02 1.292126919566e-02 8.501377914521e-06 -5.791871829947e-05 -8.077128669096e-06 1.163492775744e-02 2.312975793606e-02 -3.995611250963e-02 1.000000000000e-03 1.047197551197e-05 1.729067570334e-07 7.620797604326e-07 -2.281067392139e-09
258 2 9.542525925669e-06 1.230129794688e-03 1.128742294861e-02 3.369198411377e-05 -5.606426090697e-05 -2.460086198532e-05 -1.548277107292e-02 -2.103303174803e-03 6.150447502229e-03 1.000000000000e-03 1.047197551197e-05 -5.489619704508e-07 1.187659750848e-06 -3.320898200093e-07
259 2 1.291695362198e-02 1.268425472111e-04 3.256974031834e-03 6.578328348894e-06 -1.085764009228e-04 -2.131694759236e-05 5.607676577952e-02 -8.373800086943e-02 2.562188890451e-02 1.000000000000e-03 1.047197551197e-05 3.199302629332e-07 6.114111268954e-07 4.349236311169e-07
260 2 1.415586136213e-02 1.415482001926e-02 3.201770518496e-03 -3.015506701619e-06 -8.732576147491e-05 2.021338644261e-05 4.017801960402e-02 -6.578698713982e-02 -7.388959513507e-03 1.000000000000e-03 1.047197551197e-05 1.715501169531e-07 6.514383887538e-07 -6.317985870616e-07
261 2 1.536381479413e-02 1.236092493907e-02 8.601874751125e-04 3.275627094693e-05 2.505965714474e-05 -4.122353794008e-06 -2.010611139778e-02 2.624628523579e-02 1.781690397464e-02 1.000000000000e-03 1.047197551197e-05 3.645737050092e-08 -3.750882973024e-07 -8.600797710511e-08
262 2 1.073938105278e-02 2.324072192131e-03 7.338316635600e-03 9.192345049689e-05 -1.253816955357e-04 -6.391829384792e-05 -2.517629586680e-02 -2.189670658088e-02 9.793494747461e-03 1.000000000000e-03 1.047197551197e-05 -7.002925571024e-07 1.085207520057e-06 5.520158349041e-07
263 2 9.892686759064e-03 9.298215718970e-03 2.634106289968e-03 -7.906669940061e-05 -2.345341013640e-04 -1.187843490646e-04 -1.814788148202e-02 3.220910348676e-01 1.536470019767e-01 1.000000000000e-03 1.047197551197e-05 -1.648937814953e-07 1.328589494985e-06 1.030893239912e-06
264 2 9.257751058339e-03 2.402492109083e-03 1.420580933150e-02 -1.018910993881e-04 3.288860938151e-05 -6.701508819776e-05 -1.586017400410e+03 -1.759808368356e+03 8.032009219172e+02 1.000000000000e-03 1.047197551197e-05 9.098979053351e-07 -1.441859119986e-07 5.084776290341e-07
265 2 1.415954734815e-02 3.351774397002e-03 1.450422651033e-02 8.972849949590e-06 -1.620151672100e-05 -9.870910896622e-06 -1.077066321271e-02 -6.119403365027e-03 -6.763902080710e-03 1.000000000000e-03 1.047197551197e-05 -1.111552311745e-07 3.190976415405e-07 6.694864808848e-09
266 2 1.642303646408e-03 5.439921698179e-03 1.304176783595e-02 4.779557290464e-07 -3.558637295575e-05 -3.176473037695e-05 -1.859299323734e-02 1.036811868489e-02 3.628639508849e-03 1.000000000000e-03 1.047197551197e-05 4.585290372876e-07 4.283819286917e-07 2.058270679382e-07
267 2 1.923079988329e-04 7.636509028823e-03 9.886201624793e-03 -3.236870458059e-05 -6.409273314422e-05 -7.432918949642e-05 -6.524224477410e-02 1.209777117065e-02 3.614309732376e-02 1.000000000000e-03 1.047197551197e-05 8.365223419939e-07 5.124028969197e-07 5.239691655232e-07
268 2 1.107814341375e-02 8.897020222712e-03 1.263605177162e-02 4.747562140108e-06 -6.451841729018e-05 2.234254762155e-06 -3.088463843130e-02 -5.087750047471e-03 -7.052993458696e-06 1.000000000000e-03 1.047197551197e-05 -3.067588335674e-08 9.467947546914e-07 8.084210530223e-08
269 2 1.412112230638e-02 1.976928420091e-03 1.091058620522e-03 3.542375147291e-04 -1.469623730674e-04 6.140433952147e-06 -1.213465922680e-01 -1.557143104842e-01 4.370463418909e-02 1.000000000000e-03 1.047197551197e-05 -2.346759300447e-06 1.632053195978e-06 -2.266227789307e-08
270 2 2.454464438943e-03 1.049312350631e-02 1.237966553193e-02 -1.543513246589e-06 -4.798409359585e-05 -1.386194973027e-05 -8.779990159605e-04 -3.120939263499e-03 -8.533845060057e-03 1.000000000000e-03 1.047197551197e-05 1.534974479841e-07 4.704782797792e-07 9.276676458806e-07
271 2 1.149299860277e-02 9.840518873235e-03 1.107111643013e-02 -6.762866185113e-06 -1.108242477584e-04 -1.101596567525e-05 -2.438551267979e-02 5.371861579810e-03 1.066694389142e-02 1.000000000000e-03 1.047197551197e-05 4.377312536399e-07 1.186904983336e-06 3.076414510381e-07
272 2 1.644172663296e-03 7.883548563881e-03 1.447021830014e-02 6.802503320354e-06 -1.245617450163e-05 -1.404547463687e-06 -5.285329247384e-03 -2.884551290764e-03 9.225378302375e-03 1.000000000000e-03 1.047197551197e-05 -7.743592684734e-09 8.250193227007e-08 9.292806963997e-08
273 2 8.922056075243e-03 1.804802100875e-03 7.186617044497e-03 1.105524627043e-04 -1.411046753430e-04 -7.581046459141e-05 -1.036654260346e-01 -2.363281649463e-02 -1.570675377038e-02 1.000000000000e-03 1.047197551197e-05 -9.155181799542e-07 1.588093474932e-06 1.376964398008e-06
274 2 8.780215864668e-03 1.485139683202e-02 5.095481009064e-03 1.357702869401e-05 -3.782915972219e-04 -7.485838285295e-05 1.139951710657e-01 5.366780661891e-02 -6.925192391452e-02 1.000000000000e-03 1.047197551197e-05 1.554712550965e-07 1.249920848004e-06 9.368517673627e-07
275 2 6.069778434302e-03 7.167891030340e-03 1.226358143352e-02 4.692745775752e-06 -5.008516797374e-05 -2.065882135951e-05 -5.420545760099e-03 1.056824115544e-02 6.278050572424e-03 1.000000000000e-03 1.047197551197e-05 8.220453392013e-08 6.511496690020e-07 7.125256005310e-08
276 2 9.356207073155e-03 6.647732749112e-03 9.023457662387e-03 -8.418417508983e-06 -9.843289298098e-05 -5.473860942242e-05 -1.242756035673e-03 4.019169461604e-02 -1.896383759342e-02 1.000000000000e-03 1.047197551197e-05 4.778039969753e-07 1.399085863464e-06 3.255507392960e-07
277 2 2.951323553181e-03 9.777457406141e-04 5.879402707300e-03 1.158607118655e-04 -5.951784614241e-05 -1.096170331402e-04 4.828873905687e-02 -8.715571154651e-02 -7.116589486465e-02 1.000000000000e-03 1.047197551197e-05 8.713218502466e-07 8.056114970659e-07 1.556919921017e-06
278 2 1.304466657921e-02 6.942068499277e-03 3.484942935142e-03 1.317468447567e-04 -5.337141876070e-05 -9.216839676856e-05 -3.076195406027e-02 -7.748756152182e-02 -2.807406575921e-02 1.000000000000e-03 1.047197551197e-05 -2.043050356515e-06 6.064642816227e-07 6.313933810606e-07
279 2 7.971241720047e-03 9.972819243915e-03 2.074854014229e-03 2.082778162565e-04 2.405806097777e-05 1.228965122074e-05 3.141000650966e-01 7.648050338221e-02 -4.589933834335e-02 1.000000000000e-03 1.047197551197e-05 -1.467456150431e-06 4.740662397076e-07 4.879727404200e-07
280 2 8.692695064483e-03 1.478693487548e-02 2.177817653499e-03 5.814261675812e-04 -3.729045262469e-04 6.566252149487e-04 -3.985866207463e+00 -3.560515356824e+00 3.329305073666e-01 1.000000000000e-03 1.047197551197e-05 -3.415456278071e-06 2.104358945652e-06 -1.824090347660e-06
281 2 9.467046068151e-03 3.648186538217e-03 7.081631079520e-03 8.599177581672e-05 -1.284230337932e-04 -8.450155292645e-05 6.178996169687e-02 -3.015840184550e-02 2.422268493298e-02 1.000000000000e-03 1.047197551197e-05 -5.206259439784e-07 1.262430701811e-06 6.358809580746e-07
282 2 1.458556277878e-02 1.429901761728e-02 8.798919353010e-03 7.389583368891e-05 -8.588588711827e-05 -1.790753386760e-05 -1.048818733102e-02 -1.220227101218e-02 1.765114266785e-02 1.000000000000e-03 1.047197551197e-05 -2.300603015188e-07 6.809098615779e-07 1.143393678282e-07
283 2 2.506384341146e-03 2.513575004722e-03 1.445130754934e-02 4.436630985387e-06 -1.431082210509e-05 -2.166467699319e-06 -6.816513749729e-03 5.185028482200e-03 4.988081243868e-03 1.000000000000e-03 1.047197551197e-05 -5.534009495616e-08 -1.902708293117e-08 -1.323088400663e-07
284 2 8.205273862784e-03 2.451977291592e-04 1.121016682700e-02 4.303196592668e-05 -4.945932949588e-05 -1.984163620867e-05 -6.316418518269e-02 1.899037121509e-02 1.765873976980e-02 1.000000000000e-03 1.047197551197e-05 -5.273503419138e-07 7.359471438701e-07 8.039332005588e-07
285 2 1.353542249351e-02 1.979525646575e-03 2.986430960702e-03 8.367019254675e-05 -1.125347126983e-04 -1.104803478549e-04 5.294049042114e-02 -1.007260499613e-01 -1.445811096549e-02 1.000000000000e-03 1.047197551197e-05 -5.433371835290e-07 8.231001884006e-07 7.817973263775e-07
286 2 1.368438420050e-02 1.749157064078e-03 1.181232079586e-02 3.355516779025e-05 -4.492963131236e-05 -2.052002129489e-05 -3.310434128298e-03 4.994777955526e-04 -3.937397700401e-03 1.000000000000e-03 1.047197551197e-05 -3.919162009677e-07 7.580165311721e-07 1.093481515157e-07
287 2 2.060712819573e-03 9.550547173193e-03 8.809196985404e-03 -1.180009455553e-05 -1.083895037434e-04 -4.189151394245e-05 -3.035525833244e-03 5.045866378242e-03 -9.967438886629e-03 1.000000000000e-03 1.047197551197e-05 1.604100590711e-07 1.135925059394e-06 2.553503357224e-08
288 2 1.189331555294e-02 2.940656165109e-03 1.090437928405e-02 4.122782992590e-05 -5.762190101328e-05 -2.442302183337e-05 -1.207037048463e-02 3.073918601494e-03 1.576026554006e-02 1.000000000000e-03 1.047197551197e-05 -2.148258254944e-07 8.913506876561e-07 5.396224099639e-08
289 2 2.914436762713e-03 8.253789766155e-04 1.033077359557e-02 5.238212107593e-05 -6.818459671448e-05 -3.549267987257e-05 -2.328415833084e-02 -3.591412342287e-02 -7.031014794623e-03 1.000000000000e-03 1.047197551197e-05 -7.762114004955e-07 8.285530850026e-07 5.367696965353e-07
290 2 1.356434047737e-02 6.286824677408e-03 8.947364094216e-04 7.000765894807e-05 -1.260132677071e-05 -4.190812729721e-06 -9.403201217405e-03 1.836904221232e-02 -3.951613847149e-02 1.000000000000e-03 1.047197551197e-05 -5.494338059283e-07 1.891740808310e-08 -5.860672091876e-08
291 2 3.006355715475e-03 4.121181398222e-03 1.264678803056e-02 9.039230862984e-06 -3.370608720552e-05 -2.125294413075e-05 -1.195077274462e-02 -7.059908523189e-04 8.049064420312e-03 1.000000000000e-03 1.047197551197e-05 2.528249508929e-07 3.541431971031e-07 1.372718163170e-07
292 2 1.162522127155e-02 6.629766172028e-03 1.002064364798e-03 1.342626477073e-04 -6.987900538727e-05 -1.118377329438e-04 -1.298124411802e-01 -7.994332405301e-02 1.111604396985e-01 1.000000000000e-03 1.047197551197e-05 -1.425674507841e-06 1.029657060155e-07 1.851796529051e-07
293 2 4.061107367126e-03 3.431153114566e-03 3.561049236902e-03 -1.579918375441e-04 -1.976282481794e-04 -1.511499508352e-04 -6.437741031443e-02 2.705969049860e-01 -1.270380607507e-01 1.000000000000e-03 1.047197551197e-05 1.389988087068e-06 2.164940885503e-06 1.167525609612e-06
294 2 1.203102167585e-02 5.118056687317e-03 6.928129861037e-03 3.969725112001e-05 -1.038773940874e-04 -3.416560436398e-05 -2.492585145038e-02 5.648584984606e-03 1.680533833982e-02 1.000000000000e-03 1.047197551197e-05 -2.386731071588e-07 1.066756442053e-06 2.842551697271e-07
295 2 1.115586444146e-02 6.688493453471e-03 3.109463892976e-03 2.060226830087e-04 -2.206144964512e-04 -2.626572437133e-04 1.074556723271e-01 -6.640737154763e-02 2.451745734298e-01 1.000000000000e-03 1.047197551197e-05 -2.904643201003e-06 1.271684687047e-06 1.001802572316e-06
296 2 1.652348373898e-03 4.058138413380e-04 1.156583652405e-02 3.207997762275e-05 -4.122092953489e-05 -2.439353557344e-05 -9.767756937510e-03 1.170572221154e-02 -1.367874868925e-04 1.000000000000e-03 1.047197551197e-05 -8.522466812293e-07 4.016312237017e-07 -1.091925118023e-07
297 2 1.044419413837e-02 5.317895773005e-03 9.716261125975e-03 8.316522458428e-06 -8.954349856142e-05 -5.376944861295e-05 -2.036238233379e-02 -1.297264649974e-02 2.701889051071e-02 1.000000000000e-03 1.047197551197e-05 1.010628732080e-07 1.221411364986e-06 2.695013909308e-07
298 2 6.520016682720e-03 1.265284394638e-02 3.464600397698e-03 4.206490786132e-04 2.485292255795e-04 -1.340855378170e-04 3.676213010597e-01 -9.810308698184e-01 -2.974344945609e-01 1.000000000000e-03 1.047197551197e-05 6.119577181597e-07 -1.371751156775e-07 -1.278583813674e-06
299 2 5.960814662724e-04 1.094325500561e-02 1.202747464096e-02 1.008808245571e-06 -5.023533318027e-05 -3.011609114514e-05 -2.380084668070e-02 -3.771247591807e-03 -3.820905532148e-03 1.000000000000e-03 1.047197551197e-05 3.816023971000e-08 1.296480185706e-07 1.975158992817e-07
300 2 1.757704245415e-03 1.096100635967e-03 1.340692446628e-02 2.385815706343e-05 -2.289333654389e-05 -1.685243488937e-05 -7.315570187159e-05 1.636238438814e-03 1.159172264244e-02 1.000000000000e-03 1.047197551197e-05 -3.372073720510e-07 2.013069148148e-07 -1.720696030813e-07
301 2 1.291036902251e-02 4.084144246031e-03 1.333796448578e-02 1.863962957642e-05 -2.969337351663e-05 -2.264787200876e-05 -7.045378461263e-03 -5.762060610578e-03 1.177609057755e-02 1.000000000000e-03 1.047197551197e-05 -2.426739073997e-07 5.656555099589e-07 1.917505632963e-07
302 2 2.943594591286e-03 6.455817930640e-03 1.446692994602e-02 3.695622941048e-06 -1.387689469959e-05 -3.036092612731e-06 -6.141875535897e-03 -1.452019479082e-03 -1.714574863222e-02 1.000000000000e-03 1.047197551197e-05 -7.280115003390e-08 1.648887100776e-07 -5.678679062536e-09
303 2 3.520002231735e-03 1.071475811062e-02 8.811102526331e-04 6.389043814215e-05 5.548051423890e-05 1.692207219982e-05 -3.046173891114e-02 -2.684559955270e-03 -1.189774697121e-02 1.000000000000e-03 1.047197551197e-05 -8.954364471440e-08 -4.208073617210e-08 1.328626160881e-08
304 2 8.451859887879e-03 1.528420003840e-02 6.952981802270e-03 6.018726907320e-05 -9.406078134949e-05 -5.591352294602e-05 5.952775290180e-02 -9.301291914511e-02 -9.652642893294e-02 1.000000000000e-03 1.047197551197e-05 -1.103138094259e-06 1.774646208526e-06 7.344476353832e-07
305 2 1.045303656265e-02 1.422672096604e-02 5.920819367738e-03 -5.756006478206e-05 -2.854642443310e-04 -2.148787991205e-05 -3.571700921927e-01 -2.480404044227e-02 -1.340871831323e-02 1.000000000000e-03 1.047197551197e-05 9.975329074349e-07 1.921736529272e-06 7.250231608332e-07
306 2 1.336713493850e-02 5.072441769946e-03 2.380152407509e-03 1.918839330536e-04 -1.284944662061e-04 -4.891070330484e-05 1.569834667491e-01 4.623036542153e-03 4.822703311459e-02 1.000000000000e-03 1.047197551197e-05 -2.036996947602e-06 9.107190735580e-07 2.116102632721e-07
307 2 1.287422546685e-02 8.807358631810e-03 1.196866633737e-02 5.558977950092e-06 -7.575015090875e-05 4.473515878084e-06 -3.177913902158e-02 2.824083943765e-03 6.031464558848e-03 1.000000000000e-03 1.047197551197e-05 1.998444822406e-08 7.057458049561e-07 3.097767519616e-07
308 2 8.993966060137e-03 1.022127480161e-02 6.051996279441e-03 4.881900641205e-05 -2.309007576869e-04 3.142609701046e-05 -1.657685304663e-01 8.824751445570e-02 -4.409414510797e-01 1.000000000000e-03 1.047197551197e-05 -7.671790057494e-08 9.823422445994e-07 -5.050658974450e-07
309 2 4.805753338396e-03 8.074875274568e-03 6.881515445022e-03 5.475255215539e-06 -6.849219701543e-05 -6.085305907075e-05 2.718496172799e-02 5.144336600418e-02 -1.926680121511e-02 1.000000000000e-03 1.047197551197e-05 6.679730080845e-07 7.387270373309e-07 3.778417300287e-07
310 2 3.324994002908e-03 1.432251669676e-02 1.442320086178e-02 1.159774712706e-05 -1.934964513497e-05 1.496863078211e-06 -3.476551627674e-03 2.317582229864e-04 5.140178770122e-03 1.000000000000e-03 1.047197551197e-05 -8.094787072903e-08 1.145273342221e-07 3.878203499806e-07
311 2 9.022278066865e-03 7.365207101917e-03 3.478414618778e-03 -7.485590141169e-04 6.434172457094e-03 -4.729600044206e-03 -8.213703004546e+00 -1.600115042299e+00 4.183755156746e+00 1.000000000000e-03 1.047197551197e-05 1.072264276832e-05 -5.939151330990e-05 3.570978642705e-05
312 2 2.275868701815e-03 6.642152678895e-03 8.647923709858e-03 2.218742517255e-05 -7.436216910630e-05 -6.399317057128e-05 1.146663355940e-02 1.929581902584e-03 4.948982768348e-02 1.000000000000e-03 1.047197551197e-05 -9.228244207339e-08 1.246199025257e-06 5.325769062999e-07
313 2 3.868174103249e-03 8.242560780462e-03 1.439125777636e-02 -9.762440752157e-06 -3.608017717037e-05 -5.193308946550e-06 -3.180928238777e-02 8.074760027382e-03 -9.981087700389e-03 1.000000000000e-03 1.047197551197e-05 1.561413567779e-07 3.603370489955e-07 1.081943252819e-08
314 2 1.148053158902e-02 1.269821855525e-02 1.394772615300e-02 1.489581001157e-05 -2.920908453448e-05 -3.731367997661e-06 2.236315873432e-02 -5.115653634480e-02 -3.300980912032e-03 1.000000000000e-03 1.047197551197e-05 2.904084756000e-07 4.995658947713e-07 -2.846391437688e-08
315 2 1.370838762706e-03 1.380968585392e-02 5.929443830674e-03 1.066789207567e-04 -8.306408731780e-05 5.128347371333e-06 1.071750951347e-01 -4.482152025543e-02 -8.868845105958e-02 1.000000000000e-03 1.047197551197e-05 -1.291707723222e-06 9.934704090033e-07 -6.600999864101e-07
316 2 5.307507212622e-04 6.373938370812e-03 1.442316342352e-02 -3.244941367684e-07 -9.866542568045e-06 -1.030626256549e-07 5.424080828262e-03 6.937509548945e-03 -1.453213383939e-02 1.000000000000e-03 1.047197551197e-05 4.437739606933e-08 6.986580769762e-08 1.592640316873e-10
317 2 4.464414853627e-03 7.350486453726e-03 5.134181103733e-03 1.412122940621e-04 -1.892496549453e-04 -8.895655245707e-05 1.034512124036e-01 1.310220436990e-01 1.037888927918e-02 1.000000000000e-03 1.047197551197e-05 -4.777120536886e-07 2.673661438893e-06 5.705166363836e-07
318 2 1.170877823894e-02 7.478492128444e-03 1.161895272546e-02 -6.810399185417e-06 -5.372485962829e-05 -5.018116478074e-05 9.213647215270e-02 -1.196537375272e-02 -2.484000275095e-02 1.000000000000e-03 1.047197551197e-05 6.523159350903e-08 7.078434926502e-07 6.476474516444e-07
319 2 1.223054668205e-02 4.812821595896e-03 8.854492043312e-04 1.340051604651e-04 1.446696483085e-05 2.567714760329e-05 -2.970733886211e-02 1.239621748301e-01 -4.249939462508e-02 1.000000000000e-03 1.047197551197e-05 -1.414600871435e-06 -3.531188687942e-07 -1.780989186649e-07
320 2 1.178295081612e-02 6.968140463646e-03 6.809906301355e-03 -3.121170148330e-05 -1.387603174329e-04 -1.615130869329e-04 -7.787769423104e-02 -2.282250288537e-02 5.062981049560e-02 1.000000000000e-03 1.047197551197e-05 7.803980330923e-07 1.453060950826e-06 1.173842650150e-06
321 2 8.355837025412e-03 1.432556824246e-02 1.258085142398e-02 5.505638633386e-05 -1.023253231895e-05 2.334012825395e-05 6.040763378078e-03 -2.426641969483e-02 4.647270721357e-03 1.000000000000e-03 1.047197551197e-05 -6.786095302472e-07 -2.500764918437e-08 -4.100312447817e-08
322 2 1.490623607974e-02 3.374867595868e-03 1.203895050830e-02 1.494376858298e-05 -3.055570021376e-05 -6.994824684607e-06 8.789753794384e-04 5.328688195472e-02 -2.508065953886e-02 1.000000000000e-03 1.047197551197e-05 -6.881027849711e-08 6.219886430355e-07 -2.018726168380e-08
323 2 1.236954426442e-02 3.255523231163e-03 7.353889709196e-03 7.214765661121e-05 -9.401447001495e-05 -3.707811406609e-05 9.411450657861e-03 1.186638509868e-03 2.235435412540e-02 1.000000000000e-03 1.047197551197e-05 -5.809900079337e-07 8.547139019839e-07 -2.109570061879e-08
324 2 2.044398327724e-03 1.089274616267e-02 3.301017240986e-03 6.828545060430e-05 -2.355000909599e-05 5.648817395221e-06 1.719645999930e-02 -4.021009339803e-02 -1.909770979474e-02 1.000000000000e-03 1.047197551197e-05 -1.567768581540e-07 1.934431206762e-07 -8.940510833743e-08
325 2 1.440098800674e-02 8.007900265816e-03 1.265454835936e-02 1.294380085368e-05 -4.689360171556e-05 -9.494785145911e-07 1.191728838722e-02 6.410819528672e-03 1.469036099154e-02 1.000000000000e-03 1.047197551197e-05 -8.633923630717e-08 3.092509957022e-07 1.860262443080e-07
326 2 6.127441547185e-03 7.236630150834e-03 1.437247054513e-02 3.773022200274e-06 -4.813567857093e-05 -6.464581489562e-06 3.576535514880e-02 2.649449152135e-03 1.146673403946e-02 1.000000000000e-03 1.047197551197e-05 -5.398707938415e-08 6.272173964984e-07 2.693616101938e-07
327 2 1.034735121252e-02 4.719044919580e-04 6.929497887054e-03 1.379446392195e-04 -2.072464842964e-04 4.911983782655e-05 -1.082531576314e-01 -2.333078054309e-02 1.696669850137e-02 1.000000000000e-03 1.047197551197e-05 -1.210903814900e-06 1.486053044996e-06 4.101120185095e-07
328 2 1.183909190972e-02 1.025798994567e-02 7.904972550862e-03 -2.225153915106e-05 -1.456758586892e-04 -7.859257739652e-05 2.013987508868e-02 1.702007223580e-01 -9.538845414113e-02 1.000000000000e-03 1.047197551197e-05 4.297486427582e-07 1.221028248951e-06 6.210457607192e-07
329 2 1.279421751052e-02 2.643853374241e-04 6.399943165135e-03 1.298670894636e-04 4.518105482725e-05 1.805283306915e-04 3.047322404438e-01 -1.700215260019e-01 -5.568044176628e-02 1.000000000000e-03 1.047197551197e-05 -5.149889336058e-07 -6.765508030137e-07 -1.361213795488e-06
330 2 7.067935703308e-04 1.453574694292e-02 3.682329935518e-03 8.797926360109e-05 -4.707321811832e-06 7.848543849464e-05 -6.239344593121e-02 5.567183786679e-03 -1.916340938869e-02 1.000000000000e-03 1.047197551197e-05 -1.859439977615e-07 1.727202310416e-08 -1.393171984657e-06
331 2 6.471153852600e-03 9.151460060889e-03 1.449735852634e-02 -3.369992622928e-06 -4.167611413367e-05 -1.101029681517e-05 -3.942522711347e-02 6.522299973015e-03 -1.263012830863e-03 1.000000000000e-03 1.047197551197e-05 3.675424737753e-08 4.858687065419e-07 4.288916076088e-08
332 2 1.357955668131e-02 1.123102929126e-03 4.710417305667e-03 4.799949396757e-05 -7.597988128315e-05 -5.468512025446e-05 -9.471180316071e-02 6.944027819576e-02 -2.319480267182e-02 1.000000000000e-03 1.047197551197e-05 3.300823228168e-07 8.535617105315e-07 6.014975654323e-07
333 2 4.686162960186e-04 2.225234898789e-03 8.422999474842e-03 7.064813921992e-05 -7.479027466315e-05 -3.902372012914e-05 -1.257478121566e-02 -1.092440520741e-02 9.782400440108e-03 1.000000000000e-03 1.047197551197e-05 -4.686504160089e-07 7.593362491452e-07 -1.112858689882e-06
334 2 5.523852831999e-03 8.514468745220e-03 1.097987452884e-02 -8.644035205957e-06 -6.984199860682e-05 -2.600176497382e-05 -2.750480584315e-03 -1.130712688825e-03 1.326047886472e-02 1.000000000000e-03 1.047197551197e-05 8.929993876173e-08 7.621903000511e-07 1.265350462107e-07
335 2 1.985535477955e-03 1.264860289350e-02 2.499072049106e-03 3.686432445406e-05 -2.630571005766e-05 -4.619449536726e-05 1.225736773846e-01 1.026908794418e-02 -2.946470196831e-02 1.000000000000e-03 1.047197551197e-05 1.520497826277e-07 -2.283293053201e-08 -5.548425040949e-08
336 2 1.079720895184e-02 1.076956128030e-02 9.496828647115e-03 9.415398812985e-05 -1.062121511208e-04 -1.278695676007e-05 3.458487308965e-02 -8.465913918156e-02 -7.354261169550e-02 1.000000000000e-03 1.047197551197e-05 3.194376853618e-07 1.930554657244e-06 8.417249327344e-07
337 2 8.237218351948e-03 2.295393340553e-03 3.713145354289e-03 1.894381088742e-04 -9.146127089165e-05 1.203132268528e-04 9.692110310974e-02 1.784450149518e-01 -3.490285145541e-01 1.000000000000e-03 1.047197551197e-05 -1.606705685727e-06 -1.096074921829e-06 3.538155778221e-07
338 2 1.091872695213e-02 4.262962599332e-03 8.201728569341e-03 5.267910385493e-05 -1.144408552636e-04 -2.730607000751e-05 -1.160023455769e-02 -1.178176795524e-02 1.889744028079e-02 1.000000000000e-03 1.047197551197e-05 -3.208278061840e-07 1.290099525076e-06 4.289318900100e-09
339 2 4.422893898272e-03 8.029766564144e-03 1.248744686445e-02 -4.068344586097e-06 -5.024314788561e-05 -1.245982780625e-05 -2.726086688179e-02 1.244732571905e-02 6.490842761168e-03 1.000000000000e-03 1.047197551197e-05 2.201173607996e-07 4.894482291543e-07 9.926951915089e-08
340 2 3.469986237393e-03 2.295363465520e-03 1.286745941388e-02 2.856096886491e-06 -3.424080661513e-05 -4.784439787166e-06 -3.472960233038e-03 -5.894120327267e-03 -1.839103464066e-02 1.000000000000e-03 1.047197551197e-05 1.306059203390e-07 3.793454204320e-07 -2.664783568503e-07
341 2 7.855916711087e-03 1.126912095193e-02 1.118286228651e-02 1.397374173079e-05 -8.843400719288e-05 -4.813766575588e-05 -4.636037472015e-02 -2.416337301601e-02 -2.235591065916e-02 1.000000000000e-03 1.047197551197e-05 4.140893815350e-07 7.586580935174e-07 6.777769194630e-07
342 2 1.532815914732e-02 7.111319841700e-03 3.561804396990e-03 8.280084757130e-05 1.507990950507e-05 -4.160270137853e-05 -2.308840702549e-02 -5.510927078296e-02 5.523999819630e-02 1.000000000000e-03 1.047197551197e-05 -9.067852136846e-07 -1.782130657380e-07 3.632152909497e-07
343 2 9.290265478954e-04 4.091028917941e-03 8.410910593145e-03 7.293666632600e-05 -7.542525443559e-05 -6.707198421378e-05 -2.830745524000e-02 -3.854602031319e-02 -2.093973281889e-02 1.000000000000e-03 1.047197551197e-05 -9.359293414690e-07 1.123178608652e-06 4.406041479403e-07
344 2 1.331807887957e-02 1.069506355093e-02 3.237889608093e-03 -1.469288735491e-05 -7.293004630407e-05 -2.045442463260e-05 7.148436190660e-02 -7.518600683210e-02 1.149855861317e-01 1.000000000000e-03 1.047197551197e-05 4.354838057148e-07 7.066661827339e-07 -2.238744232041e-07
345 2 1.125307053068e-02 9.110397023671e-03 1.455197353314e-02 -7.365786821137e-06 -1.763732068180e-05 3.336481806835e-06 -1.169410959294e-02 3.015351786257e-03 3.505506438483e-03 1.000000000000e-03 1.047197551197e-05 1.118069982830e-07 2.824965250581e-07 1.539717758270e-08
346 2 4.517546257516e-03 6.461341013563e-03 1.057794388056e-03 -1.787777775465e-05 4.031955098217e-04 -1.253322577624e-04 2.966998871440e-01 6.694758622822e-02 4.736411442167e-01 1.000000000000e-03 1.047197551197e-05 -2.283556177371e-07 -4.134342775474e-06 9.438504428460e-07
347 2 8.223568469679e-03 1.943724038973e-03 9.050684320720e-04 3.607403185516e-04 -3.756852432826e-04 -8.336175696337e-05 3.974992168287e-01 4.317650017011e-01 6.360254251325e-01 1.000000000000e-03 1.047197551197e-05 -2.247081791297e-06 1.505019113595e-07 8.102704504502e-07
348 2 1.301128239119e-02 6.079809672815e-03 8.212561454826e-03 2.282638662501e-05 -4.491384029458e-05 -9.569810308540e-05 -2.957284100781e-02 1.906673955549e-02 4.538366476203e-02 1.000000000000e-03 1.047197551197e-05 -2.125506211437e-07 5.119871914732e-07 8.629597034838e-07
349 2 6.599115520728e-03 1.152986367268e-02 9.827538050431e-03 -3.166338943441e-06 -9.760011548843e-05 -3.521304943170e-05 -4.479734541097e-03 5.492539492354e-02 -2.574420473248e-02 1.000000000000e-03 1.047197551197e-05 4.835889105014e-07 1.289887880320e-06 2.401047799569e-07
350 2 5.008384822669e-03 9.615838626148e-03 8.198755589377e-04 9.855793449843e-05 7.850898307653e-05 7.998357836408e-06 -6.559935133211e-02 8.215239686101e-02 4.711671087564e-02 1.000000000000e-03 1.047197551197e-05 -2.171065632649e-07 6.313109620663e-08 -1.829559927114e-09
351 2 9.640230056422e-03 8.106944965416e-03 1.151890549166e-02 -3.927945815351e-05 -2.895288591392e-05 1.239877544222e-05 9.845710680771e-02 6.628479259335e-02 -2.566801786435e-03 1.000000000000e-03 1.047197551197e-05 7.695041051265e-07 5.988296725393e-07 -7.642139182557e-07
352 2 1.188246214033e-02 8.202880445815e-03 2.178699419417e-03 6.903291838923e-05 -1.249812103982e-04 -1.359397953380e-04 4.778320694716e-02 -4.410169696020e-03 -2.355820138973e-02 1.000000000000e-03 1.047197551197e-05 -8.943952631734e-07 1.050426503362e-06 5.635481648312e-07
353 2 3.108817823205e-03 4.406194674665e-03 1.447357938025e-02 4.999177352422e-06 -1.235713938525e-05 -8.651772264351e-06 -7.145661349873e-03 -3.693135361766e-03 -1.126901166011e-02 1.000000000000e-03 1.047197551197e-05 5.485529445580e-08 1.224780473700e-07 4.734580592976e-08
354 2 1.346717335896e-02 7.745868884531e-03 7.310596856011e-03 -7.012957308583e-05 -3.896459491983e-05 -1.306105662696e-04 -5.808923232170e-02 -3.419237655146e-02 6.498916512644e-02 1.000000000000e-03 1.047197551197e-05 9.845003311147e-07 3.539925003541e-07 1.140855088049e-06
355 2 7.638616683709e-03 1.362869544559e-02 9.884635296223e-04 1.207196102128e-03 -3.328731383241e-04 3.889864373726e-04 1.974826341527e+00 2.635095517832e-01 -1.213183943082e+00 1.000000000000e-03 1.047197551197e-05 -5.757237672930e-06 2.934406645721e-06 -1.441207591124e-06
356 2 4.137110028882e-03 5.027668861726e-03 6.922115011610e-03 1.085975056307e-04 1.595483847946e-04 -1.593527979587e-04 2.136328083393e-01 1.231059279135e-01 2.089408488684e-01 1.000000000000e-03 1.047197551197e-05 -1.105303207651e-06 -1.375345785010e-06 1.730339199884e-06
357 2 1.076874687265e-02 1.087896324359e-02 6.407189744661e-03 1.122848333816e-04 -4.146672652683e-04 -1.028252567979e-04 -3.899376612863e-01 -1.904767201442e-01 1.075389019843e-01 1.000000000000e-03 1.047197551197e-05 -6.186724766777e-07 3.648574621258e-06 8.910819969102e-07
358 2 9.554380289897e-03 1.026724815707e-02 1.098834709205e-02 -1.399548212123e-05 -1.134695296653e-04 -2.237478218931e-05 3.267823724636e-02 -8.663250180254e-03 -7.424535645563e-03 1.000000000000e-03 1.047197551197e-05 3.106155497124e-07 5.471462896363e-07 9.337254276873e-07
359 2 5.447953163813e-03 2.262630561828e-03 6.505423846827e-03 4.150291318715e-06 1.107397178845e-04 6.208858102434e-05 4.429060377220e-01 3.962819971783e-02 1.628928599235e-01 1.000000000000e-03 1.047197551197e-05 4.958502296968e-07 -1.804187071053e-08 6.330618318228e-07
360 2 1.455959136290e-02 3.879014347691e-03 8.423747798858e-04 1.416047250449e-04 -9.293824146737e-05 -1.404721877913e-05 9.137163619131e-02 1.390202845283e-01 1.758347452162e-01 1.000000000000e-03 1.047197551197e-05 -1.742273748534e-06 1.116808279871e-06 1.087545431452e-07
361 2 6.809110176053e-03 3.293391068659e-03 8.622066730075e-03 5.815730635859e-05 -7.882693682172e-05 -6.700666784975e-05 4.097487613431e-02 2.273319874234e-02 6.664607228551e-03 1.000000000000e-03 1.047197551197e-05 -3.402081042126e-07 1.447215282153e-06 2.090111084672e-06
362 2 4.262893342336e-03 3.918099882870e-03 1.131603890898e-02 2.014046390447e-05 -5.621905521561e-05 -2.033153088329e-05 -4.894310259168e-03 -9.977491829101e-03 -1.443099728545e-02 1.000000000000e-03 1.047197551197e-05 -1.347180657801e-07 9.654319052751e-07 -2.644895745788e-08
363 2 1.266833141751e-02 1.275594771366e-02 2.694166859343e-03 -6.892009694575e-05 -1.035565212112e-04 2.697545866956e-05 5.052501977970e-02 -1.042416294722e-01 1.030375909102e-01 1.000000000000e-03 1.047197551197e-05 7.689946703919e-07 8.666194640032e-07 -2.612893779197e-07
364 2 1.010014186372e-02 7.521760278653e-03 1.773679563683e-03 4.502885427367e-05 -1.140828796533e-04 -2.204468930643e-04 1.517205522883e-01 -5.203744088472e-02 -1.684233287070e-02 1.000000000000e-03 1.047197551197e-05 -9.859598485744e-07 3.448730245761e-07 1.408122384015e-06
365 2 1.191136045765e-02 6.389191331489e-03 1.014899770741e-02 -2.340252651208e-06 -4.304680674118e-05 -8.197734789353e-05 -5.885383142541e-02 -1.189042081319e-02 -8.738100219225e-03 1.000000000000e-03 1.047197551197e-05 1.221985128122e-07 6.059238332367e-07 7.749235793311e-07
366 2 7.637947852625e-03 1.164607064867e-02 1.041139624833e-03 1.444874086861e-04 -2.798351351793e-04 -2.501136432984e-04 -1.002656202939e+00 -2.612691125016e-01 -9.552978041416e-02 1.000000000000e-03 1.047197551197e-05 -5.350500074210e-07 2.315187828973e-06 1.080953082355e-06
367 2 4.725644938393e-03 4.557557851457e-04 1.000112082198e-02 5.715013825300e-05 -6.110093195451e-05 -2.274701873644e-05 2.629953519907e-02 9.885414247973e-03 9.558539503323e-03 1.000000000000e-03 1.047197551197e-05 -7.890605500661e-07 9.923182511371e-07 6.585452486830e-07
368 2 1.173839396948e-02 9.631725999803e-04 8.251723235696e-03 8.086169365439e-05 -1.000291541590e-04 -2.035324787205e-05 -9.990268732049e-03 -1.224927901354e-02 1.983495497080e-02 1.000000000000e-03 1.047197551197e-05 -7.056046838547e-07 1.089816373036e-06 2.663761189936e-07
369 2 5.847533650502e-03 1.388353908028e-02 6.531907261192e-03 1.412473834993e-04 -1.645763930235e-04 8.578941743687e-05 -7.541812234760e-02 -1.710586252447e-01 -6.361365504284e-02 1.000000000000e-03 1.047197551197e-05 1.989621829135e-07 2.353561403814e-06 1.093557811511e-06
370 2 1.772398863453e-03 1.142310184499e-02 1.055507417450e-03 4.613933721745e-05 2.524153953545e-05 -6.560144959529e-05 -9.012026358778e-02 -1.556687487983e-02 3.086894991895e-02 1.000000000000e-03 1.047197551197e-05 -1.626700286597e-07 -1.371865145753e-07 -1.142542790618e-09
371 2 1.288216859024e-02 4.137606402763e-03 5.707482339978e-03 7.823472137920e-05 -6.362581989138e-05 -1.048695704529e-05 4.283398465479e-02 -2.906378985789e-02 -2.277719038781e-03 1.000000000000e-03 1.047197551197e-05 -1.085806819241e-06 8.887858409957e-07 -3.677446665500e-07
372 2 1.532572640273e-03 9.355250554743e-03 6.914492904247e-03 2.929089964774e-05 -9.829663689569e-05 -6.093226508767e-05 1.245100620066e-02 -7.081709934639e-02 -2.064867353153e-02 1.000000000000e-03 1.047197551197e-05 -6.904343905970e-08 1.142365152337e-06 2.389432061242e-07
373 2 1.012976217491e-02 5.191037967898e-03 2.772492842115e-03 2.983908670057e-04 -1.313995810726e-04 -8.176419977410e-05 -1.732581319269e-01 1.743895509869e-01 -2.905077118813e-01 1.000000000000e-03 1.047197551197e-05 -3.793512097557e-06 -4.363013196655e-07 -6.225516985438e-07
374 2 1.722621173436e-03 4.612694649811e-03 1.131949009116e-02 5.531541927449e-06 -3.984136733681e-05 -4.305970840862e-05 1.189468345816e-02 -1.365904767625e-02 1.078721086823e-02 1.000000000000e-03 1.047197551197e-05 2.078222919162e-07 5.793947388083e-07 3.601589464331e-07
375 2 4.845685582068e-03 9.125543164301e-03 9.262609927316e-03 -1.748257807258e-05 -7.194419235632e-05 -9.897617643046e-06 1.152494698826e-02 7.512131258230e-03 -1.673298950642e-03 1.000000000000e-03 1.047197551197e-05 4.610273526082e-07 9.148493663747e-07 1.617302753949e-07
376 2 3.772983228094e-03 1.080918618109e-02 1.441626486642e-02 5.771958717079e-06 -2.342269649861e-05 -7.878411017821e-07 -1.564765182287e-02 -5.645950704370e-03 -1.396499978972e-02 1.000000000000e-03 1.047197551197e-05 -1.097567530166e-07 1.918265169754e-07 -2.741666692350e-07
377 2 6.353833614244e-03 1.515611649002e-03 1.234365041733e-03 -4.571658684716e-05 2.765898826812e-04 -2.081384214229e-04 1.084372346651e+00 -4.035045407568e-02 -1.842526936661e+00 1.000000000000e-03 1.047197551197e-05 -1.089959541907e-06 -9.726796677472e-07 1.073882444448e-06
378 2 5.358221114961e-05 1.378896552143e-02 1.449113704070e-02 1.993505650541e-05 -2.615039564945e-05 -9.811988223875e-06 -2.353243385841e-02 -1.729106043569e-02 1.393769485014e-02 1.000000000000e-03 1.047197551197e-05 -1.370015329152e-07 2.246048465622e-07 4.423976679941e-09
379 2 1.011279527327e-02 5.398759011522e-03 6.954573651666e-03 3.145746087273e-05 -1.014464490036e-04 2.963661299639e-05 7.284790546909e-02 1.583892242445e-02 1.763297996900e-02 1.000000000000e-03 1.047197551197e-05 1.179764121667e-07 1.102396622424e-06 -1.163870152022e-06
380 2 2.086226129666e-03 3.645274479683e-04 4.030213789736e-03 1.565663948064e-04 5.944370441697e-05 -1.097169261253e-04 -9.447428339241e-02 1.144498885782e-01 -2.615266024841e-02 1.000000000000e-03 1.047197551197e-05 -1.414867507504e-06 -6.107013382416e-07 1.941410963915e-06
381 2 8.631161738195e-03 1.168431170821e-02 1.282278090938e-02 -1.613307308644e-05 -2.703655796754e-05 -3.238576071479e-05 -1.847061456904e-02 -1.604849019437e-02 1.485031935719e-02 1.000000000000e-03 1.047197551197e-05 3.746472154274e-07 4.071455222020e-07 7.419249213906e-07
382 2 4.948560475218e-03 9.642533244828e-03 1.351901929774e-02 -2.591197675031e-06 -4.087097727807e-05 -1.061486064072e-05 2.541086511599e-02 -1.369583623283e-03 -6.120465389649e-03 1.000000000000e-03 1.047197551197e-05 1.790229504540e-07 4.352934148497e-07 1.590679948327e-08
383 2 6.164287765009e-04 2.932198705900e-03 6.239659187339e-03 3.483481173900e-05 -8.265275912772e-05 2.899902878168e-05 -1.550319157822e-01 -1.744108651652e-02 -4.555485140668e-02 1.000000000000e-03 1.047197551197e-05 1.156861574336e-07 1.631413250651e-06 -1.095612826856e-07
384 2 3.102024970529e-03 6.017760746686e-04 9.082904078267e-04 2.197596893232e-04 2.331610054794e-05 -1.937978182845e-05 3.621260254595e-02 2.102419520432e-01 -2.538490588676e-02 1.000000000000e-03 1.047197551197e-05 -1.903732957289e-06 9.158380712960e-08 -1.903187980279e-07
385 2 8.235542099013e-03 5.594237921535e-03 3.002918678780e-03 9.889803237403e-04 9.613898209132e-04 4.570839178787e-04 5.795098957704e-01 2.940410587670e-01 -8.758137210474e-01 1.000000000000e-03 1.047197551197e-05 -1.046168041848e-05 -1.184332719104e-05 -6.164696127195e-06
386 2 1.192474148336e-02 1.996484416231e-03 1.260383912565e-02 3.823436487344e-05 -4.239398951969e-05 -1.310071438808e-05 -1.037189850718e-02 -8.766835158117e-04 6.552111300322e-03 1.000000000000e-03 1.047197551197e-05 -4.120353366697e-07 8.169940872546e-07 1.155319122523e-07
387 2 1.344393261651e-02 1.298993762358e-02 4.458926534991e-03 -2.480769692082e-07 -3.794185423555e-05 7.281935324408e-05 -8.329296530881e-02 1.315075781270e-01 -4.663236426697e-02 1.000000000000e-03 1.047197551197e-05 5.700170217392e-07 9.371988567750e-07 -5.147217111341e-07
388 2 6.857169444200e-03 1.238017785475e-02 5.820465557658e-03 1.406651444762e-05 -2.749212203150e-04 9.804333945084e-05 1.860615029048e-01 -4.537628979605e-02 -2.120332008049e-01 1.000000000000e-03 1.047197551197e-05 9.861464648387e-07 3.706391071680e-06 9.133931142329e-07
389 2 7.781055764357e-03 1.125880841225e-02 7.137832515265e-03 1.422253924045e-04 -7.048071189879e-05 -1.188300454708e-05 -1.350908819912e-01 6.803226691412e-02 4.552670844700e-01 1.000000000000e-03 1.047197551197e-05 -7.142833830075e-07 7.267484844163e-07 -1.891330564472e-07
390 2 3.055817409796e-03 7.451642697660e-03 1.012172432151e-02 -6.218851800709e-06 -5.033605612675e-05 -5.003131368060e-05 6.142743195698e-03 -2.775602589240e-03 2.454614290790e-02 1.000000000000e-03 1.047197551197e-05 -8.323634653373e-08 1.096215723478e-06 6.009171635328e-07
391 2 6.950450497860e-04 6.925956952106e-03 6.469989286269e-03 1.519898836534e-05 -3.975274945025e-05 -7.419487190398e-05 4.968915998666e-02 -1.746694609684e-02 1.723898979535e-02 1.000000000000e-03 1.047197551197e-05 3.298575646092e-07 6.629825944917e-07 5.006425267178e-07
392 2 5.850640503934e-03 6.446518314737e-03 5.915599351733e-03 2.040717586417e-04 -2.077899227987e-04 -1.449174005884e-04 -9.181802361114e-03 -1.762816131668e-01 1.128687714316e-01 1.000000000000e-03 1.047197551197e-05 -2.041832610648e-06 2.155175602015e-06 1.463035623640e-06
393 2 7.961768746195e-03 1.044762731449e-02 9.065623822734e-03 -5.652470742475e-05 -1.321228491515e-04 -8.932372197241e-05 -6.237141777537e-02 4.854195972523e-02 1.443514413446e-02 1.000000000000e-03 1.047197551197e-05 6.066090775653e-07 1.243057954354e-06 5.855908744257e-07
394 2 1.503961571336e-02 9.230680618902e-03 9.720861663069e-04 3.477785174324e-05 -9.397098454745e-08 -5.731588516304e-07 5.699263258181e-03 2.113379307644e-02 4.021408221462e-03 1.000000000000e-03 1.047197551197e-05 -2.585401953617e-07 1.227778252660e-08 -2.320790970129e-08
395 2 1.172038191560e-02 1.545813225745e-03 3.614067843802e-03 3.998859293133e-05 -8.496627182508e-05 -1.100304283570e-04 -5.199994065573e-02 2.432856888575e-02 -1.482728755001e-01 1.000000000000e-03 1.047197551197e-05 -5.533484318374e-08 6.458914897130e-08 8.908341544462e-07
396 2 9.526981997900e-03 1.130458731688e-03 2.126041671699e-03 3.032304244622e-04 -2.308277379623e-04 -4.613130453812e-04 4.269095029329e-01 -7.002558499819e-01 1.133255477446e-01 1.000000000000e-03 1.047197551197e-05 -1.130853509555e-06 -6.931370020321e-07 3.171844952693e-06
397 2 8.688431783828e-03 5.840624376277e-03 1.064779047041e-02 -8.762159712878e-06 -8.671642983170e-05 -3.479593858808e-05 3.978523379686e-03 -7.997962394309e-03 1.108567557035e-02 1.000000000000e-03 1.047197551197e-05 3.719233295819e-07 1.316772642553e-06 2.483253153011e-07
398 2 3.880194816469e-03 3.632763955498e-03 5.523213937372e-03 1.278340408050e-04 8.772051451746e-06 -1.454361251512e-04 -1.447405222812e-03 1.834526068012e-01 -1.586460419448e-01 1.000000000000e-03 1.047197551197e-05 -8.212269830099e-07 2.827619815824e-07 1.413840040865e-06
399 2 8.408254441771e-04 1.083895200683e-02 7.922070985437e-03 9.544635649025e-06 -1.009784186446e-04 -4.589325754498e-05 2.372816041580e-02 -1.933846837631e-02 -1.566735469447e-02 1.000000000000e-03 1.047197551197e-05 2.710956833359e-07 1.108704839313e-06 2.153745705438e-07
400 2 1.071194016883e-02 5.117526600363e-04 1.280519766398e-02 4.507710450342e-05 -5.621317609811e-05 -1.544801058311e-05 1.419290116102e-02 -9.169506521572e-03 5.629632685134e-03 1.000000000000e-03 1.047197551197e-05 -3.415663539428e-07 9.673127524024e-07 2.927378473370e-08
401 3 5.108180781322e-03 1.532823991659e-02 8.014808104040e-03 5.004370601784e-05 -6.574252790719e-05 -3.848265679830e-05 -2.905352786621e-02 5.626284952386e-03 1.411477142835e-02 1.250000000000e-03 2.045307717181e-05 -7.111233616770e-07 1.306050300804e-06 1.852562186211e-06
402 3 1.182784167621e-02 1.256631974015e-02 5.734377614653e-03 4.578141119456e-05 -2.411267589788e-04 5.522617712677e-05 2.756975390349e-01 -9.880980862075e-02 1.045460070152e-01 1.250000000000e-03 2.045307717181e-05 1.420435348532e-06 4.227675131822e-06 -4.118373068907e-07
403 3 1.536548055084e-02 1.146404904179e-02 2.951586735177e-03 4.793778766964e-05 9.090919754461e-06 -3.704648985867e-06 -2.963942163668e-02 3.712945656722e-02 -3.013501257141e-02 1.250000000000e-03 2.045307717181e-05 -3.638262728794e-07 -2.144229404189e-07 -3.290469428301e-07
404 3 4.602112443802e-03 1.358422547986e-02 9.502659252484e-03 3.589782377379e-05 -6.566492377313e-05 -1.211136434958e-05 1.589119766477e-03 8.675641622396e-03 -2.883200620049e-02 1.250000000000e-03 2.045307717181e-05 -3.552300242172e-07 1.946421712777e-06 2.055737983484e-06
405 3 8.385465260924e-04 3.786041358493e-03 1.415225747933e-02 7.942021323078e-06 -2.184237123792e-05 -5.889536020795e-06 -9.355371853707e-03 -3.866910423315e-03 1.662508579667e-03 1.250000000000e-03 2.045307717181e-05 -1.982786458857e-08 5.643797827844e-07 -1.926241626978e-07
406 3 8.385584177674e-03 6.782573666734e-03 6.910902883498e-03 1.360621358881e-05 -1.060830901239e-04 -3.843373935316e-05 -2.849147950021e-02 -3.943896242617e-02 3.389151922503e-02 1.250000000000e-03 2.045307717181e-05 4.014651732224e-07 1.949269893658e-06 -4.152965153745e-07
407 3 5.166922012513e-03 5.107510153366e-03 4.442714681497e-03 2.395279885102e-04 -2.287402345482e-04 -2.909700013276e-04 6.968300396892e-02 7.357919174822e-02 -9.460329797213e-02 1.250000000000e-03 2.045307717181e-05 -3.655588184668e-06 5.008067103260e-06 5.206549105645e-06
408 3 1.185075282422e-02 6.467282156454e-03 1.375897631380e-02 1.695890386445e-10 -1.963698829107e-10 -1.531123856237e-10 2.085992870193e+03 2.296827900218e+03 -1.255597875352e+03 1.250000000000e-03 2.045307717181e-05 -1.696719953526e-11 1.964659398209e-11 1.531872825604e-11
409 3 4.293879685979e-03 5.299998830301e-03 9.717471249051e-03 4.641117621887e-05 -7.164885363829e-05 -3.403608006741e-05 -1.100519853000e-02 -5.074900062101e-03 -1.264159560686e-03 1.250000000000e-03 2.045307717181e-05 -1.470011152826e-06 2.007950457284e-06 3.879509586970e-07
410 3 5.419207653197e-03 3.559740336546e-04 3.750543781275e-03 1.129864230909e-04 -3.047951478740e-05 -8.465534453160e-05 -8.792402469046e-03 -9.122271751197e-02 1.132140159102e-01 1.250000000000e-03 2.045307717181e-05 -1.942004627708e-06 6.720402042055e-07 1.889549130497e-06
411 3 2.776447907368e-03 1.485287788215e-02 7.359389411936e-03 3.035836130681e-05 -5.924406645040e-05 -8.263935565352e-05 -5.107853454283e-02 2.241306899383e-02 9.020157315076e-03 1.250000000000e-03 2.045307717181e-05 1.735025670849e-06 1.443863021564e-06 2.056253331874e-06
412 3 1.849937498046e-03 1.145592902994e-02 1.034335872622e-02 -2.019299842356e-07 -9.104406795736e-05 -3.492564266803e-05 -2.783897909969e-02 -8.725760196971e-03 1.381365128653e-02 1.250000000000e-03 2.045307717181e-05 4.263655463343e-07 2.814617098336e-07 1.127132554371e-06
413 3 1.430298601529e-02 7.669427161649e-03 5.392001587397e-03 -6.461456348964e-07 -3.886694131681e-05 -7.526663794579e-05 2.331320530476e-02 -1.018319689914e-02 4.301273765117e-02 1.250000000000e-03 2.045307717181e-05 6.930995219496e-07 1.300538192098e-06 1.501552377466e-06
414 3 1.004731568914e-02 1.100331708146e-02 4.287577220551e-03 2.954273738238e-05 -1.939210340900e-04 1.158914349526e-04 6.063479915684e-01 2.196705022134e-01 -9.821154651434e-02 1.250000000000e-03 2.045307717181e-05 1.727354017649e-07 2.758263974376e-06 1.748874441606e-07
415 3 7.061960919592e-03 5.466104726698e-03 1.300306497403e-02 1.589767078914e-05 -4.691660327302e-05 -2.301647648798e-05 7.311316269127e-03 -8.731286698439e-03 8.746680913685e-04 1.250000000000e-03 2.045307717181e-05 -1.636712373858e-07 1.366285627255e-06 3.903730846220e-07
416 3 5.471062670821e-03 1.010352433370e-03 1.386419722270e-02 1.040688684468e-05 -2.863199456879e-05 1.563072559190e-06 3.527836469077e-03 1.153997570290e-02 -1.967495258294e-03 1.250000000000e-03 2.045307717181e-05 2.758826225635e-07 8.134011957813e-07 -2.575050746611e-07
417 3 9.432896662304e-03 5.630981631906e-03 1.330020367921e-02 1.961199701764e-05 -4.021487003890e-05 -2.163948201132e-05 9.028757298829e-03 6.240292671044e-03 4.618324125874e-03 1.250000000000e-03 2.045307717181e-05 -2.919871867333e-07 1.439802018110e-06 2.840548488023e-07
418 3 1.516341656057e-02 1.226354958696e-02 9.190789795137e-03 5.216492690687e-05 -7.751474026080e-05 -2.450218880169e-05 1.219788220681e-02 9.803229249985e-03 -4.532351139315e-02 1.250000000000e-03 2.045307717181e-05 -1.140221531396e-07 8.455488166886e-07 1.060615425609e-06
419 3 4.052483152465e-03 1.280201525567e-02 7.326818288779e-03 2.519862564847e-05 -6.652893047486e-05 -2.572661392481e-05 8.285935704162e-03 -2.060195936595e-02 -1.602019189472e-02 1.250000000000e-03 2.045307717181e-05 -2.517322783274e-07 5.170245317768e-07 2.090629238488e-06
420 3 1.364673215252e-02 1.474560879883e-02 1.386565000879e-02 1.203649023346e-05 -4.411013465688e-05 -1.724076390801e-05 3.319198491220e-03 1.685836055184e-02 2.879280937614e-03 1.250000000000e-03 2.045307717181e-05 -2.577438753791e-08 1.540734469601e-06 2.398892236130e-08
421 3 7.408911172019e-03 7.535220884039e-03 1.062871090029e-02 -8.359866500525e-06 -8.180605033834e-05 -3.836924073463e-05 -1.397825490825e-02 9.226750867296e-03 -1.713862927400e-02 1.250000000000e-03 2.045307717181e-05 5.312598521783e-07 2.293335760341e-06 4.161445055374e-07
422 3 6.269924250903e-03 6.858729146279e-03 7.900185318956e-03 2.955617095504e-06 -1.021193906280e-04 -7.738841367423e-05 -3.041724703358e-02 -4.844226602635e-04 -1.706134221964e-02 1.250000000000e-03 2.045307717181e-05 9.929667013931e-07 2.138501917562e-06 1.274134144825e-06
423 3 1.508127375713e-02 1.731121350328e-03 1.343218209305e-02 2.113257408280e-05 -3.519304257271e-05 -9.701784606654e-06 1.462065142629e-03 -4.673157497241e-03 2.217184401365e-03 1.250000000000e-03 2.045307717181e-05 -4.055187701465e-07 1.163272226059e-06 -1.614387709998e-07
424 3 1.725055651277e-03 7.081683411511e-03 2.169274944730e-03 4.425054754696e-05 6.673292453603e-06 -2.542970995845e-05 -7.858568143652e-03 5.606313624821e-02 3.880387465778e-03 1.250000000000e-03 2.045307717181e-05 -7.047681554064e-07 -2.005634909984e-07 3.164187030832e-07
425 3 6.266782417411e-03 2.625930112088e-03 4.498827307561e-03 1.239389195907e-04 3.138495041913e-04 6.994425793213e-06 -4.139739596527e-01 -1.531876101098e-01 1.488340313050e-01 1.250000000000e-03 2.045307717181e-05 -5.490653744826e-07 -7.471164258514e-06 2.899746572103e-06
426 3 1.215147322452e-02 9.008601651245e-03 6.237106455588e-03 -2.203869531580e-04 -1.677083460891e-04 -2.173162933163e-04 1.379433326865e-02 6.208136279044e-03 8.309070520038e-02 1.250000000000e-03 2.045307717181e-05 5.261407743901e-06 3.020069400825e-06 2.750678737847e-06
427 3 4.410553385448e-03 4.084908478354e-03 1.301181758528e-03 1.496748555852e-04 2.466003361761e-04 -3.988793745530e-04 4.615674446728e-03 2.912482476347e-01 1.605384236317e-01 1.250000000000e-03 2.045307717181e-05 -3.372619019478e-06 -3.578921026628e-06 9.376445968688e-06
428 3 3.555985465914e-03 9.308628080768e-03 1.101894505203e-02 -1.412089704177e-05 -5.935446013036e-05 -2.058035340070e-05 1.283838584933e-02 -6.305687043691e-03 -1.742548024597e-02 1.250000000000e-03 2.045307717181e-05 7.424556932055e-07 1.806012381319e-06 1.452231421280e-06
429 3 1.025381170236e-02 1.091469577520e-02 1.391345398652e-02 -4.721185768285e-06 -1.691132353926e-05 -1.375057767203e-05 -2.688234984115e-02 1.438894251637e-02 -1.744302312892e-02 1.250000000000e-03 2.045307717181e-05 1.160483067218e-06 7.469790105160e-07 4.238952436854e-07
430 3 1.402579631530e-02 1.343637758880e-02 1.193485644385e-02 1.795851152012e-05 -6.348276374278e-05 -1.093915241673e-05 -2.063936128069e-02 -8.836918697451e-03 1.255209983593e-02 1.250000000000e-03 2.045307717181e-05 -1.716047444293e-07 1.641833540071e-06 -3.491108661455e-07
431 3 3.807809937118e-03 1.262681302323e-02 1.335271959126e-02 1.307901005475e-05 -3.116909595182e-05 -1.094257480365e-05 -1.071297474876e-03 1.059207506835e-02 1.876536293484e-03 1.250000000000e-03 2.045307717181e-05 -1.075593366352e-06 1.230624063161e-06 3.910758173468e-07
432 3 2.303247631970e-03 2.801292356238e-03 9.558649462648e-03 4.796638004429e-05 -6.405797912218e-05 -3.440251630061e-05 5.526884330819e-03 -2.120383663185e-03 6.014760357005e-03 1.250000000000e-03 2.045307717181e-05 -1.783063773860e-07 2.036978036375e-06 -2.288050675626e-07
433 3 1.450222897322e-02 5.474361559965e-03 1.311308956272e-02 2.915085035087e-06 -1.311652385030e-05 -1.394936486782e-05 -1.082852927617e-02 -1.702858052038e-02 6.251963009021e-03 1.250000000000e-03 2.045307717181e-05 -1.743063820205e-07 5.109637604583e-07 1.081364280587e-07
434 3 1.590016263201e-03 2.576122042928e-03 1.187374959496e-02 1.805222171718e-05 -4.035469769513e-05 -3.610894564493e-05 -1.663455687992e-02 -1.753387902479e-02 9.522780021954e-03 1.250000000000e-03 2.045307717181e-05 -2.464471746255e-07 1.133925593303e-06 8.722236567957e-08
435 3 1.173133941280e-02 1.420798475400e-02 7.699369538983e-03 -7.161208942101e-06 -1.226187223908e-04 -3.023652584892e-05 1.201651435473e-02 5.756918077123e-02 -6.206741807563e-02 1.250000000000e-03 2.045307717181e-05 6.227586016294e-07 2.116235408212e-06 9.878142017541e-07
436 3 1.925238496227e-03 1.423452162821e-02 1.086614346198e-03 7.813169868172e-05 4.708292756837e-05 3.364921818480e-05 -2.862213553315e-03 5.130232998486e-02 -7.052680579721e-02 1.250000000000e-03 2.045307717181e-05 -1.205517543015e-06 -4.994210264130e-07 -6.418712862774e-07
437 3 1.371714990449e-02 1.098367761839e-02 1.153809556541e-03 2.988108866379e-05 1.119356963127e-06 1.146713700899e-05 -8.180060115198e-03 -2.783457022352e-04 -2.579132363780e-03 1.250000000000e-03 2.045307717181e-05 -3.778850570436e-07 2.778388550534e-07 -3.597787173204e-07
438 3 3.401928920789e-03 6.096639008222e-03 1.181433840771e-02 5.106790056461e-06 -4.094209086735e-05 -3.829275050741e-05 -8.899446978871e-03 -1.762852133496e-02 9.324934600878e-03 1.250000000000e-03 2.045307717181e-05 5.282885967177e-07 1.436983601984e-06 8.884216792669e-07
439 3 7.932595985457e-03 6.720777706820e-03 1.178839620895e-03 4.102368292730e-04 5.016912413847e-04 2.795532163934e-04 -6.218613074865e-01 2.926919217252e-01 1.604562445416e-01 1.250000000000e-03 2.045307717181e-05 -9.251781038844e-06 -1.389266205817e-05 -7.071911317532e-06
440 3 5.425030351917e-03 1.178388709148e-02 1.200462300118e-03 1.586790979127e-04 1.240066072887e-04 -1.686435534092e-04 -1.405178332242e-01 2.159028276362e-01 -3.880334823384e-02 1.250000000000e-03 2.045307717181e-05 -1.433044654491e-06 3.098906307089e-07 9.963957232627e-07
441 3 8.052899194011e-03 1.729358612626e-03 9.710962576386e-03 4.225449140065e-05 -8.003460875790e-05 -5.383045559972e-05 2.318007860805e-02 -1.383093914421e-02 -1.166668507139e-02 1.250000000000e-03 2.045307717181e-05 -1.666717067737e-07 1.782132229277e-06 2.417925512348e-06
442 3 1.350475786513e-02 1.259516017327e-02 7.459545108996e-03 3.709919106083e-05 -1.606995183329e-04 -4.307386328322e-06 -8.009263252115e-02 1.452187725969e-02 1.068424846831e-01 1.250000000000e-03 2.045307717181e-05 5.395925509181e-07 2.177807985803e-06 7.877918640551e-07
443 3 2.802068144233e-03 7.168116754682e-03 6.584139850225e-03 2.079831143810e-05 -4.118870193939e-05 -4.748926856485e-05 1.764750155412e-02 3.615391565316e-03 -1.478341023494e-02 1.250000000000e-03 2.045307717181e-05 6.543053678993e-07 1.557467595442e-06 2.330250158890e-07
444 3 6.660034596020e-03 2.838789267737e-03 1.285721175235e-02 1.176215001632e-05 -4.206174962909e-05 -2.898940313916e-06 -1.079363277285e-03 2.972326772888e-03 -1.151888472592e-02 1.250000000000e-03 2.045307717181e-05 1.984805082445e-07 1.248266501844e-06 -4.072292757136e-07
445 3 1.425399680153e-02 5.069827816746e-03 4.369873754463e-03 1.213769705623e-04 -7.378142340421e-05 -2.467094786271e-05 -1.157857647945e-01 -2.783703439298e-02 5.677886036759e-02 1.250000000000e-03 2.045307717181e-05 -3.303160724325e-06 2.044110976487e-06 -6.191790058857e-07
446 3 4.834378626707e-03 1.237826046292e-02 5.109027570407e-03 5.784882700192e-05 -4.532872485413e-05 6.858489685101e-06 -1.585023903898e-02 -3.009210433277e-02 1.308689328411e-02 1.250000000000e-03 2.045307717181e-05 1.751193367404e-06 3.021587071023e-06 4.851383301191e-07
447 3 3.965473993862e-03 1.445955387561e-02 2.257535208090e-03 1.580050736501e-04 -1.171096881404e-04 -8.282025241078e-05 -6.328709521177e-02 1.360688178279e-02 -1.085330451376e-01 1.250000000000e-03 2.045307717181e-05 -2.781859515026e-06 2.594876760813e-06 7.040919076996e-07
448 3 9.460216739158e-03 5.181363601075e-03 4.864956211089e-03 2.294244361493e-04 1.762607753659e-05 -2.999368472831e-05 5.651642641193e-02 -1.511925907125e-01 6.646419546055e-02 1.250000000000e-03 2.045307717181e-05 -4.673083133544e-06 7.641106277558e-07 -2.076487818317e-06
449 3 9.633621894454e-03 1.262706209446e-02 1.162351331482e-03 8.693133366839e-05 -7.671755713651e-05 -1.105659107083e-04 -5.419222449222e-02 -7.825580989491e-02 2.765883605763e-01 1.250000000000e-03 2.045307717181e-05 -1.964530813866e-07 3.707415520923e-07 9.768835329301e-07
450 3 1.031558940400e-03 1.404640627290e-02 1.253842254264e-02 2.529294206566e-05 -3.336180190732e-05 -1.498385942770e-05 6.675301751874e-03 5.552382869010e-03 -5.248328243168e-03 1.250000000000e-03 2.045307717181e-05 -1.909544991508e-06 6.748209143973e-07 -3.080878742522e-07
451 3 1.372009958571e-02 1.408225236115e-02 1.119802247244e-03 4.279321649335e-06 -2.342942533866e-05 4.839919256042e-06 1.101621041154e-02 1.120556926216e-02 7.714839696714e-03 1.250000000000e-03 2.045307717181e-05 -4.355665196278e-07 2.813734339775e-07 -2.638257642281e-07
452 3 8.930711302653e-03 1.272720358827e-02 5.420928761484e-03 7.503517017122e-05 -5.207187489934e-04 4.142916542156e-04 -4.424087962343e-01 -2.262242210554e-01 7.254804099524e-02 1.250000000000e-03 2.045307717181e-05 9.162886696332e-07 6.030382937649e-06 -2.344427448462e-06
453 3 1.188010888050e-02 3.126976963947e-03 2.184774075768e-03 1.657865864309e-04 -2.893427700600e-06 -6.068603633296e-05 1.740538761540e-01 -1.400457128984e-02 -3.955205432832e-02 1.250000000000e-03 2.045307717181e-05 -3.797728046839e-06 -1.022690222471e-06 1.122713071968e-06
454 3 2.961175285300e-03 1.377774588850e-02 1.117522179133e-02 3.213297073769e-05 -3.932578000096e-05 -1.491456697773e-05 1.111364003427e-02 -1.662906634823e-02 -1.701669828728e-02 1.250000000000e-03 2.045307717181e-05 -2.649013396419e-06 1.598845406985e-06 -4.965478360100e-07
455 3 9.772663744404e-03 7.882849600799e-03 1.386100182612e-02 -3.566564487675e-07 -3.931316719502e-05 -1.597024570866e-06 -5.313342345055e-05 -1.671754082003e-02 7.922521674642e-03 1.250000000000e-03 2.045307717181e-05 -1.242623891227e-07 1.484430984138e-06 1.799044712370e-08
456 3 6.945053364882e-03 1.329248201611e-03 7.686098919943e-03 7.281118371457e-05 -5.053097319743e-05 -8.008435607880e-05 -2.255710521117e-02 -2.306630845549e-02 -1.812383317812e-02 1.250000000000e-03 2.045307717181e-05 -1.273798701999e-06 2.576517965088e-06 3.449289701668e-06
457 3 9.442629262137e-03 3.259270235032e-03 2.237431514282e-03 8.509693347281e-05 -1.329704328598e-04 6.567966547338e-05 8.643954966980e-02 7.645459403728e-02 1.437389202142e-01 1.250000000000e-03 2.045307717181e-05 -2.610008750743e-06 -3.110330773800e-06 -2.605328787272e-07
458 3 1.923877547176e-03 6.550506416495e-03 4.453528410286e-03 7.084605859950e-05 -2.364863821822e-06 -4.348207263992e-05 1.383282047223e-02 -3.994390062370e-02 2.712500781947e-02 1.250000000000e-03 2.045307717181e-05 -9.848200793476e-07 2.106467575169e-07 6.426909810135e-07
459 3 8.204079321637e-04 9.119899385063e-03 1.295528205230e-02 4.241087571404e-07 -3.403210813551e-05 -6.983439865035e-06 -6.539497240358e-03 3.013570264324e-03 2.210845034741e-03 1.250000000000e-03 2.045307717181e-05 9.497260773831e-08 3.903042885027e-07 4.053891162617e-07
460 3 1.158970764024e-02 1.360154987306e-02 1.183301852844e-02 2.853673509682e-05 -8.732817145269e-05 2.159559190220e-05 1.479363566808e-02 2.934095731441e-02 1.244112797429e-02 1.250000000000e-03 2.045307717181e-05 -4.176238777457e-07 2.048882676597e-06 -7.309471620989e-07
461 3 7.010950373693e-03 1.454049301971e-02 1.420982369282e-02 2.017911855645e-05 -2.084518829518e-05 -3.935700835337e-06 -8.582005286499e-03 -1.197736222596e-02 1.148666839693e-02 1.250000000000e-03 2.045307717181e-05 -5.518178933916e-07 3.415440543887e-07 1.341609099043e-07
462 3 1.538180666768e-04 9.265135944702e-03 3.749124197685e-03 1.429963856339e-05 4.433299809879e-06 -1.216324734529e-05 3.888162466760e-02 -8.016521072900e-04 2.107362118651e-03 1.250000000000e-03 2.045307717181e-05 6.836948205439e-07 -3.133591674797e-07 -7.659654184842e-07
463 3 1.432090305370e-02 3.918744591009e-03 7.698992687967e-03 7.270170309658e-05 -6.506274655229e-05 -7.215044750393e-05 -3.690806004408e-02 2.155963949711e-02 -4.647600523534e-03 1.250000000000e-03 2.045307717181e-05 -1.945474358601e-06 1.508498250675e-06 1.692822205815e-06
464 3 7.955068851413e-03 3.870765867303e-03 1.064912643379e-02 2.696678038099e-05 -9.080912749987e-05 -2.846422027348e-05 -7.675585622405e-03 6.369296628533e-03 1.384643469794e-02 1.250000000000e-03 2.045307717181e-05 -1.597333770360e-07 2.861995547651e-06 1.630953209608e-07
465 3 3.960835862262e-03 6.773596354664e-03 3.182180193147e-03 5.834781363724e-05 -8.779439460500e-05 -1.120449911556e-04 5.609801789965e-02 3.949442861226e-02 9.984883729130e-02 1.250000000000e-03 2.045307717181e-05 -1.948102992779e-07 2.872976722998e-06 1.339344153039e-06
466 3 1.454783526096e-02 1.468910456733e-02 5.388866216699e-03 1.079066882786e-05 -6.966004383917e-05 2.074796003387e-05 6.175947272229e-03 -5.598331494300e-02 -2.120948486587e-02 1.250000000000e-03 2.045307717181e-05 2.052743588173e-06 1.789297965343e-06 2.118549424703e-08
467 3 1.665144885981e-03 1.374838376328e-02 9.140344405362e-03 6.421073235555e-05 -5.661507949808e-05 -2.908842555195e-05 -3.697377510394e-03 -5.713997138191e-03 5.049767568277e-02 1.250000000000e-03 2.045307717181e-05 -3.016521418520e-06 2.496761599910e-06 -1.082883864119e-06
468 3 4.685032657282e-03 1.123767863847e-02 9.102229049376e-03 -1.249039374749e-05 -7.937582268688e-05 2.792595290042e-06 -1.338539314825e-02 -6.721132441474e-03 -1.432880572839e-03 1.250000000000e-03 2.045307717181e-05 9.706968067885e-07 1.848735812642e-06 9.886506464096e-07
469 3 7.683330424378e-03 8.362419469893e-03 1.296536112348e-02 7.030554123460e-07 -4.656306421520e-05 -1.924233909627e-05 1.879305128405e-02 -2.304261580469e-03 7.272560073109e-03 1.250000000000e-03 2.045307717181e-05 3.897417413791e-08 1.297110765078e-06 3.223295717814e-07
470 3 3.138068556196e-03 1.080216247219e-02 6.383466226891e-03 2.338301415677e-05 -1.001212359612e-04 -5.314224119680e-05 3.131515088755e-03 4.985259652349e-02 3.921339671483e-02 1.250000000000e-03 2.045307717181e-05 8.053509143466e-07 1.910595595846e-06 1.765593756666e-06
471 3 1.380823399308e-02 1.549134012133e-03 8.017941339879e-03 7.295626168510e-05 -7.648196864165e-05 -2.850728653574e-05 9.243370312220e-03 6.825059823953e-03 -2.081968836860e-03 1.250000000000e-03 2.045307717181e-05 -2.057685670364e-06 1.182154591737e-06 -1.161775945281e-06
472 3 3.626557918155e-03 1.437228175131e-02 4.593674049147e-03 1.296390185199e-04 -3.185168757663e-05 -9.753311456691e-05 -3.516308049028e-02 -2.010837071799e-02 -6.619314361429e-02 1.250000000000e-03 2.045307717181e-05 -1.256472426766e-06 9.340522378766e-07 1.331586370905e-06
473 3 1.069016364929e-02 7.537599434331e-03 4.971914402218e-03 -1.502521112055e-04 -4.420360589225e-04 -3.240957368026e-04 -9.141794504479e-02 -4.619222845711e-02 2.844927734582e-01 1.250000000000e-03 2.045307717181e-05 2.050952230862e-06 8.739831648298e-06 5.152135905422e-06
474 3 1.341269325414e-02 9.520310058121e-03 1.002909507799e-02 -1.598012677921e-05 -8.913853652318e-05 -1.804715951241e-05 2.404744476968e-02 1.244744648970e-02 8.904184731011e-03 1.250000000000e-03 2.045307717181e-05 6.301458546614e-07 1.050900674981e-06 8.441285976585e-07
475 3 4.033128489958e-03 1.159681732714e-02 1.132112180595e-02 -1.649024063962e-06 -5.358368287189e-05 -1.229499720122e-05 -9.920561396016e-03 2.484384254817e-03 1.038769655709e-03 1.250000000000e-03 2.045307717181e-05 -7.312014335148e-07 2.033681680958e-06 5.025405172760e-07
476 3 1.072331062281e-02 1.509923161496e-02 3.212963388438e-03 9.656056152013e-06 -1.064348550198e-04 1.419816663894e-05 -1.757618853905e-01 -1.532413811986e-01 1.243053962776e-01 1.250000000000e-03 2.045307717181e-05 7.969458490919e-07 -8.102828822802e-07 1.315648522028e-06
477 3 4.648647377000e-03 3.120676183378e-03 8.707095639014e-03 5.855596255238e-05 -7.785017623544e-05 -2.513926191753e-05 -8.491237914833e-04 9.381573392588e-03 4.061032956631e-03 1.250000000000e-03 2.045307717181e-05 -7.251504263301e-07 1.859636079659e-06 5.129935323860e-07
478 3 9.146835495406e-03 8.742231933905e-03 9.443541462274e-03 -1.111344327110e-05 -1.076251589622e-04 -5.003404384984e-05 -6.702557092549e-03 8.997510602960e-03 1.827878946766e-02 1.250000000000e-03 2.045307717181e-05 8.516718951247e-07 2.770757261125e-06 4.974593128768e-07
479 3 6.249427158179e-03 1.252402833098e-02 1.213519403745e-02 1.438121287938e-05 -7.287985288155e-05 1.595372760395e-05 2.918744306590e+01 -2.684240191886e+01 -1.100708967182e+01 1.250000000000e-03 2.045307717181e-05 1.134662517025e-07 2.186549540946e-06 -4.271029517079e-07
480 3 1.229940340356e-02 7.091697895555e-04 1.216824240329e-03 2.110270774709e-04 6.809782359891e-05 -3.876064049291e-05 -2.396320678325e-02 -3.510501112388e-02 -2.272541685401e-01 1.250000000000e-03 2.045307717181e-05 -1.942112236760e-06 -8.497350807949e-07 3.582436920703e-07
481 3 3.792211232397e-03 3.237248801174e-04 1.224977520189e-02 1.350116071319e-05 -3.878114907846e-05 -6.832654483732e-07 -1.960549904615e-03 -8.044036299553e-03 1.988062355266e-02 1.250000000000e-03 2.045307717181e-05 -9.357142815479e-07 3.788658233371e-07 7.280519518321e-07
482 3 7.657456353579e-03 4.469198569831e-03 6.414252413309e-03 1.001796007323e-04 -1.051156790267e-04 -8.467400551100e-05 2.142647469435e-02 -2.078368046314e-02 5.064687777467e-04 1.250000000000e-03 2.045307717181e-05 -1.094054894199e-06 2.640771962441e-06 1.437467762643e-06
483 3 9.628143547354e-03 2.211449110756e-03 1.198687983450e-02 3.815895313970e-05 -6.295182818810e-05 -1.274895416614e-05 -5.532140482627e-03 3.643575863408e-03 1.191290320613e-02 1.250000000000e-03 2.045307717181e-05 -6.492916454965e-07 2.111607854151e-06 -2.665583954665e-07
484 3 1.187911666559e-02 4.766110503038e-03 3.916369883097e-03 1.803807730859e-04 -1.389263442544e-04 -8.090085210134e-05 -1.515820858904e-01 -7.304371734500e-02 -5.531768005729e-02 1.250000000000e-03 2.045307717181e-05 -5.006505267171e-06 2.243358855833e-06 2.123643363017e-07
485 3 1.003747591598e-02 3.207283680709e-03 9.814912058147e-03 4.116485346323e-05 -9.152242760007e-05 -2.648129670427e-05 -1.476479455405e-02 -1.064716087859e-02 4.811401392544e-03 1.250000000000e-03 2.045307717181e-05 -4.256524849465e-07 2.353077558829e-06 2.268379047717e-07
486 3 9.581491756746e-03 1.498236425094e-03 5.155546271350e-03 1.565584718774e-04 -3.233999770413e-04 -3.616536303805e-05 -4.227085074490e-02 -2.305526813987e-03 -3.851282210473e-03 1.250000000000e-03 2.045307717181e-05 -2.883356577507e-06 2.812094504288e-06 2.668701916486e-06
487 3 1.105824405102e-02 1.497836997037e-02 9.883270789940e-03 6.473038022795e-05 -6.860839949492e-05 -4.751686551953e-06 -1.895170490224e-02 9.600305060297e-04 -1.401956466362e-02 1.250000000000e-03 2.045307717181e-05 -1.198373557834e-06 2.303916388177e-06 -2.871400287901e-07
488 3 9.614035438924e-05 1.209124925627e-03 3.572099881951e-03 5.641219117645e-05 -6.136549142837e-05 -7.477679486519e-06 -5.990735279906e-04 -5.795103894870e-02 5.326954875270e-02 1.250000000000e-03 2.045307717181e-05 3.482186195586e-07 1.819483440263e-06 7.242307463656e-08
489 3 1.085005170848e-02 3.766643915719e-03 1.338976860997e-02 2.504762835200e-05 -3.954540875937e-05 -2.439238271631e-05 -7.347783484175e-03 -1.839297438362e-03 2.066026536168e-03 1.250000000000e-03 2.045307717181e-05 -4.619541719500e-07 1.525533426109e-06 2.065558007071e-07
490 3 1.295067037901e-02 1.329195269243e-02 9.791319588885e-03 1.794869167236e-05 -8.717653296933e-05 -2.368212987059e-05 6.847980881836e-04 -6.510419121469e-03 -3.877424059869e-02 1.250000000000e-03 2.045307717181e-05 2.419060615241e-07 1.560541455279e-06 -5.668287483482e-08
491 3 1.197787696922e-02 2.178223850452e-03 5.606003003450e-03 9.964171704365e-05 -8.254608124570e-05 -6.706377110346e-05 1.719015223480e-02 -2.983620686334e-03 3.005152267929e-02 1.250000000000e-03 2.045307717181e-05 -1.284280009605e-06 9.930705873817e-07 9.010183325075e-07
492 3 7.786485295254e-03 5.230768206005e-03 8.703977606710e-03 1.442708315364e-05 -9.752038055741e-05 -4.307119989802e-05 -2.489971364267e-03 -2.007048692387e-02 2.861976032119e-02 1.250000000000e-03 2.045307717181e-05 7.675319841491e-07 2.797307626591e-06 6.872978712868e-07
493 3 1.421238447140e-02 1.007651457291e-02 1.396454389137e-02 5.952331632688e-07 -3.424064112376e-05 -4.783890960336e-06 5.911676253041e-03 4.269312557624e-03 -1.015820344282e-03 1.250000000000e-03 2.045307717181e-05 4.857491497939e-07 1.506366686191e-07 4.412258176936e-07
494 3 2.943151552484e-03 9.206779089190e-03 2.393520794907e-03 5.654991500105e-05 2.041557873736e-05 -3.174189419908e-05 5.631854415048e-02 6.497529043216e-03 1.043721783877e-02 1.250000000000e-03 2.045307717181e-05 4.944792531054e-07 -1.651870361614e-07 9.275449693388e-07
495 3 9.189234857539e-04 4.829528185463e-03 3.156864025636e-03 1.001877726274e-04 -4.701473128536e-05 -2.628139377431e-05 -1.583671486424e-02 3.441780769187e-02 2.516992774468e-02 1.250000000000e-03 2.045307717181e-05 -1.659660430014e-06 6.907365808198e-07 8.312395584341e-07
496 3 1.131712812289e-02 1.105697888126e-02 2.205730464971e-03 -2.043313743726e-05 4.216094561142e-05 -2.094408800188e-05 -1.397333729120e-01 -1.269066931924e-01 -9.392874442907e-02 1.250000000000e-03 2.045307717181e-05 2.546507987512e-07 1.035667700423e-06 7.696109266864e-07
497 3 9.686937881904e-03 1.335069606908e-02 8.818647287867e-03 5.049624524461e-05 -1.183151080723e-04 1.279464633294e-04 -1.054846903471e-01 1.189718640624e-02 3.075072384130e-02 1.250000000000e-03 2.045307717181e-05 8.367273724371e-08 2.407484023084e-06 1.948851430176e-07
498 3 1.171194647690e-02 9.390934791757e-03 3.920566982067e-03 -8.524521371945e-05 -1.958660602127e-04 -2.769203534232e-04 -2.631513038514e-02 -1.955510981526e-01 -3.929957986922e-02 1.250000000000e-03 2.045307717181e-05 2.260654483771e-06 3.395109555555e-06 3.084408820185e-06
499 3 6.877469874779e-03 7.944491484381e-03 3.125664555955e-03 -2.823300035375e-03 1.721022916262e-03 -1.859671856552e-03 1.135399600445e+01 2.447971867451e+00 1.482707469129e+00 1.250000000000e-03 2.045307717181e-05 5.645823194283e-05 -3.195490587452e-05 2.934590469930e-05
500 3 1.151178906805e-03 1.131851121977e-02 5.221216046424e-03 1.381878528982e-05 -7.415067248558e-05 -2.378607175133e-05 5.005567298604e-02 -3.907465636061e-02 -4.762479745692e-02 1.250000000000e-03 2.045307717181e-05 1.527431208358e-06 1.935712417185e-06 3.563929585560e-07
