LAMMPS data file via write_data, version 22 Jul 2025, timestep = 200001, units = si

500 atoms
3 atom types

0 0.0153706345204829 xlo xhi
0 0.0153706345204829 ylo yhi
0 0.0153706345204829 zlo zhi

Atoms # sphere

407 3 0.0025 2499.999999999723 0.005167090266054077 0.005107280743419113 0.004442446360771325 1 1 0
15 1 0.0015 2500.000000000352 0.003249351106954767 0.0051329851267361715 0.0040223078582338305 2 -2 0
226 2 0.002 2499.999999999919 0.00561507115940053 0.004106709431962365 0.006291143355401891 -6 0 0
293 2 0.002 2499.999999999919 0.004060941093554562 0.003430989060989805 0.0035609262414422428 0 -3 0
356 2 0.002 2499.999999999919 0.004137183558348275 0.005027792506542228 0.006921958665538806 5 -2 0
91 1 0.0015 2500.000000000352 0.0013974666531692062 0.0012106227683041273 0.0008889400818915557 -2 4 0
178 2 0.002 2499.999999999919 0.005949826106449916 0.00600315053820918 0.002465802274790646 3 -3 0
140 2 0.002 2499.999999999919 0.0017010977565483506 0.0020440821204102937 0.00491552724079186 1 4 0
248 2 0.002 2499.999999999919 0.002318455915491121 0.0037362196866833983 0.0043416065243602475 -3 4 0
180 2 0.002 2499.999999999919 0.0015107946408945926 0.0054693698676875025 0.0008522640600928845 1 -2 0
166 2 0.002 2499.999999999919 0.001710338399853799 0.005399655823894856 0.007322201152360589 1 8 0
242 2 0.002 2499.999999999919 0.002837449888898044 0.005199303787165943 0.002299150738972331 0 -4 0
482 3 0.0025 2499.999999999723 0.007657517494695947 0.004469090076627176 0.0064141729035106735 -5 -1 0
9 1 0.0015 2500.000000000352 0.0032194846524163327 0.005307425459892646 0.0006397296103651462 -3 0 0
73 1 0.0015 2500.000000000352 0.0001409012941419862 0.00620329170558118 0.005119769573705793 2 6 0
238 2 0.002 2499.999999999919 0.003522208510792594 0.0014400696145479466 0.003289063802729246 -3 3 0
384 2 0.002 2499.999999999919 0.0031021559025362993 0.0006017935873863631 0.0009083021126387353 2 6 0
424 3 0.0025 2499.999999999723 0.001725070531934964 0.007081669459014716 0.002169254424043382 2 4 0
27 1 0.0015 2500.000000000352 0.005940500460408792 0.0030642717189633337 0.0006842228490285221 1 2 0
189 2 0.002 2499.999999999919 0.0011639366499010414 0.00031730655121734147 0.005728105678927829 3 2 0
19 1 0.0015 2500.000000000352 0.006729531519008059 0.001549973863932258 0.0029260403956454482 -1 -4 0
60 1 0.0015 2500.000000000352 0.0028452454713970288 0.006652359937393518 0.000679315631299649 4 -7 0
165 2 0.002 2499.999999999919 0.007304511167450554 0.004565789279871495 0.0042926703742357086 -1 3 0
119 2 0.002 2499.999999999919 0.005188216203876425 0.0022358392045957855 0.0025645856640159506 -1 1 0
33 1 0.0015 2500.000000000352 0.006295695530464548 0.004462828679060084 0.0010623653712142323 2 -1 0
465 3 0.0025 2499.999999999723 0.003960858783769001 0.006773492870765142 0.0031820982424211343 -2 1 0
120 2 0.002 2499.999999999919 0.00729989663804266 0.002959286811401123 0.002213957182091937 3 -1 0
410 3 0.0025 2499.999999999723 0.005419238847944386 0.0003559249395271342 0.003750506057184649 2 5 0
359 2 0.002 2499.999999999919 0.005447938096571903 0.002262704693369804 0.006505465589224104 0 -3 0
202 2 0.002 2499.999999999919 0.002680030216537546 0.005101712316006832 0.00574283584096718 2 -4 0
495 3 0.0025 2499.999999999723 0.0009189972067621672 0.004829468465728514 0.003156835056976927 1 7 0
458 3 0.0025 2499.999999999723 0.0019239192528026994 0.006550487280879283 0.004453489280355591 -1 7 0
57 1 0.0015 2500.000000000352 0.004761710303202347 0.001950920014235806 0.0007265420539884276 -1 -4 0
220 2 0.002 2499.999999999919 0.00011505419721612411 0.0032326846512523836 0.004365387242885576 4 -1 0
391 2 0.002 2499.999999999919 0.0006950389257084004 0.006925907629455563 0.00646992396714598 -3 -5 0
425 3 0.0025 2499.999999999723 0.006266791189311267 0.0026262557891760688 0.004498765992964336 0 -1 0
398 2 0.002 2499.999999999919 0.003880264971067922 0.0036327597276368325 0.00552311228923796 2 -1 0
249 2 0.002 2499.999999999919 0.0033326926674063537 0.002277020367889687 0.0016191925425473451 -4 6 0
76 1 0.0015 2500.000000000352 0.0018053289801870822 0.0013905899286415864 0.0024582275605565195 3 1 0
108 2 0.002 2499.999999999919 0.005894413314036888 0.004025398189704997 0.002793591948574048 3 -7 0
223 2 0.002 2499.999999999919 0.002270131965061424 0.0037197087607276835 0.0009540073744160941 -2 -1 0
346 2 0.002 2499.999999999919 0.004517545363002222 0.006461841836669442 0.0010576878505602657 -2 4 0
1 1 0.0015 2500.000000000352 0.00610135320571707 0.0058839146367351955 0.0007264574732802867 -2 3 0
18 1 0.0015 2500.000000000352 0.004202461023991471 0.0013055183494866652 0.006959966454090216 6 1 0
35 1 0.0015 2500.000000000352 0.004524325469329946 0.0009088915192816826 0.0017729304309203192 2 0 0
383 2 0.002 2499.999999999919 0.0006164269360534797 0.0029321189942324677 0.006239722603777961 1 -4 0
96 1 0.0015 2500.000000000352 0.0021648512853075248 0.0036686761190633565 0.006605409756096863 4 6 0
392 2 0.002 2499.999999999919 0.005850870829865115 0.006446309553861971 0.005915441420251371 -5 4 0
145 2 0.002 2499.999999999919 0.006579052019242682 0.0004129452056847711 0.0057693905333044415 5 4 0
427 3 0.0025 2499.999999999723 0.0044106771386634375 0.00408510120165507 0.0013007442266586722 -3 -1 0
380 2 0.002 2499.999999999919 0.002086313858174593 0.00036454488884861007 0.004030154298338722 3 -6 0
153 2 0.002 2499.999999999919 0.006096281156068409 0.007653673884558068 0.0009089815005211144 -2 3 0
12 1 0.0015 2500.000000000352 0.0035072674177346773 0.0025749224569827913 0.006798849872976009 2 1 0
443 3 0.0025 2499.999999999723 0.002802067179152749 0.00716806376462774 0.006584101606208745 -2 3 0
167 2 0.002 2499.999999999919 0.001996942471845929 0.0019799859766224883 0.007278464216663415 3 1 0
47 1 0.0015 2500.000000000352 0.007633786361386579 0.0018984958974426296 0.005823743592105578 -1 2 0
209 2 0.002 2499.999999999919 0.007542022320006163 0.006472673105229079 0.004848056314427569 2 4 0
208 2 0.002 2499.999999999919 0.004324166272586937 0.0018475582511265098 0.0049544529404194635 -2 2 0
377 2 0.002 2499.999999999919 0.00635388791130757 0.001515738330119311 0.00123426828543279 -2 -4 0
179 2 0.002 2499.999999999919 0.00469059639789667 6.85556508257003e-05 0.005970070548332504 -2 1 0
28 1 0.0015 2500.000000000352 0.007468320410583994 0.0005379186279106037 0.0020027854647201005 -1 0 0
488 3 0.0025 2499.999999999723 9.617913457001235e-05 0.0012090695084778324 0.003572097769624403 0 0 0
277 2 0.002 2499.999999999919 0.0029513969584357026 0.000977678780094629 0.005879327197466051 -3 3 0
193 2 0.002 2499.999999999919 0.00027881755010131834 0.004831347513090386 0.006189467638397875 3 2 0
317 2 0.002 2499.999999999919 0.0044645380405292315 0.007350275444841599 0.005134105772795889 0 -2 0
146 2 0.002 2499.999999999919 0.007500129446892692 0.000570753501861662 0.004096245009145292 6 -5 0
138 2 0.002 2499.999999999919 0.0004009739297432931 2.4821987186962233e-05 0.007678499800369857 0 0 0
316 2 0.002 2499.999999999919 0.0005307467757982719 0.006373927795129155 0.014423162846999295 -1 6 0
374 2 0.002 2499.999999999919 0.0017226147734511258 0.004612652414654913 0.011319451941140167 -4 -5 0
132 2 0.002 2499.999999999919 0.0014767842564619087 0.006431613615704815 0.010723425363776988 -2 -2 0
409 3 0.0025 2499.999999999723 0.004293910311512219 0.005299920249423391 0.009717440044736155 2 -3 0
201 2 0.002 2499.999999999919 0.002180618175786818 0.004969160125120615 0.009545553441884241 2 4 0
296 2 0.002 2499.999999999919 0.0016523647181849314 0.0004057700880825766 0.011565814887595583 1 -1 0
438 3 0.0025 2499.999999999723 0.003401924549845057 0.006096596990023857 0.011814301403921708 -5 3 0
123 2 0.002 2499.999999999919 0.0050132045404141 0.004803837428744073 0.013120699900620425 -1 5 0
390 2 0.002 2499.999999999919 0.0030558019795866097 0.007451587688769556 0.01012167138444306 0 0 0
361 2 0.002 2499.999999999919 0.0068091438402254414 0.0032933044873331625 0.008622002236976522 0 -5 0
142 2 0.002 2499.999999999919 0.006059940911396113 0.004401034926752012 0.011421505866976123 0 6 0
326 2 0.002 2499.999999999919 0.006127440990166552 0.007236583301639622 0.01437246347901229 2 -1 0
213 2 0.002 2499.999999999919 0.004257768975307635 0.002148499896991283 0.010673492520645894 2 0 0
416 3 0.0025 2499.999999999723 0.005471066165501421 0.001010322274593257 0.013864194204192512 -1 1 0
243 2 0.002 2499.999999999919 0.0061878308557316184 0.0025257952573647315 0.010696412037608644 -5 -4 0
87 1 0.0015 2500.000000000352 0.004556595585663412 0.005285380486246688 0.014688037749885493 -1 -3 0
405 3 0.0025 2499.999999999723 0.0008385485728310241 0.0037860204138447508 0.014152251667384666 3 1 0
422 3 0.0025 2499.999999999723 0.006269906837254838 0.006858623335843375 0.007900105813600454 2 0 0
100 1 0.0015 2500.000000000352 0.0017569975117941257 0.005362036322929665 0.01473203767523463 1 4 0
55 1 0.0015 2500.000000000352 0.006480511014764901 0.00585377796752555 0.010076532187678343 5 -1 0
353 2 0.002 2499.999999999919 0.0031088184011723577 0.004406181610810134 0.014473571297619418 -2 -1 0
367 2 0.002 2499.999999999919 0.004725684994857826 0.000455694172484265 0.010001102565456766 4 -7 0
161 2 0.002 2499.999999999919 0.0045382808234436505 0.006556864228734222 0.013583390809990239 -2 4 0
40 1 0.0015 2500.000000000352 0.004967081740744567 0.002327082611477048 0.012173420215132794 -5 -3 0
432 3 0.0025 2499.999999999723 0.0023032701516167093 0.002801222773523101 0.009558621838078651 2 2 0
275 2 0.002 2499.999999999919 0.006069775866382217 0.0071678453670740916 0.01226355825285656 3 1 0
302 2 0.002 2499.999999999919 0.0029435950424051465 0.0064558056223989226 0.014466925792498449 2 3 0
59 1 0.0015 2500.000000000352 0.006052468962727928 0.004404868113774961 0.00969835220255629 2 -5 0
168 2 0.002 2499.999999999919 0.001711103466872594 0.0007462064604336297 0.00885008304192716 3 2 0
133 2 0.002 2499.999999999919 0.004181300067813753 0.006624628946281086 0.008073534599076976 3 -1 0
343 2 0.002 2499.999999999919 0.000929073370852767 0.004090948314607362 0.008410853940688221 0 1 0
247 2 0.002 2499.999999999919 0.0062596555456495085 0.004166750291899053 0.014492141406074684 -3 -6 0
415 3 0.0025 2499.999999999723 0.007061966724664309 0.005466063518007605 0.01300304301443706 -1 -4 0
283 2 0.002 2499.999999999919 0.00250638291514511 0.00251355970377599 0.014451305251301439 -6 2 0
139 2 0.002 2499.999999999919 0.003390261800323697 0.0008127279409950115 0.014448975251271454 -3 -1 0
333 2 0.002 2499.999999999919 0.00046865756843617756 0.0022251547122794446 0.0084229690036846 5 -1 0
266 2 0.002 2499.999999999919 0.001642296279842448 0.005439887433222351 0.013041738545647276 8 3 0
300 2 0.002 2499.999999999919 0.0017577173142357923 0.001096076068306695 0.013406908104426511 -4 2 0
258 2 0.002 2499.999999999919 9.555890078935262e-06 0.0012300722708905255 0.011287401977230072 1 7 0
477 3 0.0025 2499.999999999723 0.004648682858085144 0.0031205923365779506 0.008707083569980846 -8 6 0
66 1 0.0015 2500.000000000352 0.005385501969369267 0.006275915376714763 0.011000734479226141 -1 7 0
340 2 0.002 2499.999999999919 0.0034699793837242505 0.0022953265615517585 0.012867454118556245 -3 -4 0
217 2 0.002 2499.999999999919 0.00516449331936289 0.007273658287693457 0.009641660484995042 -1 -3 0
434 3 0.0025 2499.999999999723 0.0015900207322736416 0.002576080182864582 0.011873718319978998 1 0 0
80 1 0.0015 2500.000000000352 0.005463880611553803 0.0011202358665261486 0.011431821791592396 -2 -1 0
481 3 0.0025 2499.999999999723 0.0037922163682613886 0.00032368367678342527 0.012249765651511715 6 -1 0
291 2 0.002 2499.999999999919 0.003006353951687852 0.004121147158244202 0.01264676935316457 -4 -4 0
444 3 0.0025 2499.999999999723 0.00666003724724955 0.002838750610274554 0.012857207823414311 4 -3 0
188 2 0.002 2499.999999999919 0.0034584416356719847 0.0013448975901382417 0.008424340015131794 3 6 0
210 2 0.002 2499.999999999919 0.004727939227962714 0.003126613851396496 0.013935053986424676 -6 1 0
42 1 0.0015 2500.000000000352 0.006085164782959472 0.002572675276853404 0.014723215152981584 -2 -2 0
163 2 0.002 2499.999999999919 0.0008657295470787996 0.007053448798020511 0.0124533258022881 -1 2 0
362 2 0.002 2499.999999999919 0.004262901125176545 0.0039180415858296146 0.011316025433321617 -5 0 0
289 2 0.002 2499.999999999919 0.0029144691683724347 0.000825310095250788 0.010330740260541907 -1 1 0
58 1 0.0015 2500.000000000352 0.0031415544207830876 0.005268495061865477 0.008189870343642585 5 3 0
312 2 0.002 2499.999999999919 0.0022758715870752643 0.006642069522502506 0.00864786492828027 -4 -1 0
4 1 0.0015 2500.000000000352 0.0056426396429177395 0.004961251545355731 0.00781938586309226 5 -3 0
456 3 0.0025 2499.999999999723 0.006945096154237748 0.0013291804335877977 0.007686028050631012 3 9 0
267 2 0.002 2499.999999999919 0.00019226433742941372 0.00763643887381437 0.009886128146194943 0 -3 0
421 3 0.0025 2499.999999999723 0.007408891511442878 0.007535140987970629 0.010628665532953942 -4 -3 0
22 1 0.0015 2500.000000000352 0.0009064840324959101 0.00876343411084464 0.0020332531495502455 -1 -4 0
335 2 0.002 2499.999999999919 0.001985550067593694 0.01264856278118098 0.002499041169638159 -6 -2 0
64 1 0.0015 2500.000000000352 0.003448487771418216 0.012653147654574853 0.003761295547894517 5 -5 0
303 2 0.002 2499.999999999919 0.003520024836949962 0.010714759804547806 0.0008811103725471757 0 -2 0
199 2 0.002 2499.999999999919 0.0036466748923200806 0.008928867628096856 0.005579591472661146 -2 3 0
470 3 0.0025 2499.999999999723 0.0031380533694351535 0.010802048348878237 0.006383414179230332 -3 -3 0
191 2 0.002 2499.999999999919 0.007136194999449131 0.010070531221451903 0.005758458049659728 -6 -4 0
369 2 0.002 2499.999999999919 0.005847582771956261 0.013883407696897308 0.006531925324236511 -2 3 0
74 1 0.0015 2500.000000000352 0.003029564765030281 0.00824818841727535 0.004186971287698332 2 -2 0
103 2 0.002 2499.999999999919 0.005197312871285156 0.00999397898111801 0.00601403819190678 1 4 0
447 3 0.0025 2499.999999999723 0.003965548039904762 0.01445947653285752 0.0022575093036068853 -3 1 0
148 2 0.002 2499.999999999919 0.0037416772087800003 0.011515048903108924 0.0026082470208783556 0 -2 0
186 2 0.002 2499.999999999919 0.0001906455753130458 0.013496290078533061 0.007378439102093309 4 -1 0
107 2 0.002 2499.999999999919 0.007578617163528573 0.011286770670983066 0.004345561592298587 7 -2 0
350 2 0.002 2499.999999999919 0.00500843502322127 0.009615844298149287 0.000819869811854866 -4 -1 0
309 2 0.002 2499.999999999919 0.004805734237528133 0.008074797435217019 0.006881468414675603 8 -1 0
298 2 0.002 2499.999999999919 0.006520124073944748 0.012652856908684946 0.0034645802371218006 -2 -8 0
38 1 0.0015 2500.000000000352 0.001747258538425381 0.00828255931964333 0.0036204507512413134 4 3 0
411 3 0.0025 2499.999999999723 0.0027764514557942913 0.01485280695644431 0.007359321275580367 7 -3 0
324 2 0.002 2499.999999999919 0.0020444227308111665 0.010892702576882173 0.0033010091158399584 2 -5 0
440 3 0.0025 2499.999999999723 0.005425103925493546 0.011783902995064254 0.0012003888582778485 3 -1 0
472 3 0.0025 2499.999999999723 0.0036266030435147196 0.014372224884922815 0.0045936350680568045 -1 -2 0
90 1 0.0015 2500.000000000352 0.0037463604854056543 0.01029403352242926 0.004604371893512713 -5 6 0
446 3 0.0025 2499.999999999723 0.004834378741006991 0.012378180477109332 0.005109014939478921 -2 0 0
366 2 0.002 2499.999999999919 0.007638027573222362 0.011645991331160017 0.0010410384854582064 -2 3 0
419 3 0.0025 2499.999999999723 0.00405248045609744 0.01280193856761906 0.007326780987971345 -2 0 0
372 2 0.002 2499.999999999919 0.0015325728108443366 0.009355146536591207 0.006914437761430827 4 -4 0
500 3 0.0025 2499.999999999723 0.0011511567181518387 0.01131842132090655 0.005221184361220041 8 4 0
184 2 0.002 2499.999999999919 0.005117033413939477 0.0101176461386633 0.0025781954581234265 1 4 0
315 2 0.002 2499.999999999919 0.0013709059415218019 0.013809591221665496 0.0059294514307970956 0 -3 0
370 2 0.002 2499.999999999919 0.0017724169602926167 0.011423098009477106 0.0010554688856898309 -1 0 0
218 2 0.002 2499.999999999919 0.0017642498997222737 0.012373886204349493 0.0071022725920229565 -1 0 0
149 2 0.002 2499.999999999919 0.0018653411755033722 0.009275305358475955 0.0050428749684837725 -3 3 0
494 3 0.0025 2499.999999999723 0.002943162086086602 0.009206760756779833 0.0023934733537500177 -1 2 0
32 1 0.0015 2500.000000000352 0.006726031476599638 0.010950127577822218 0.002836338494305472 3 -2 0
499 3 0.0025 2499.999999999723 0.00687356684869724 0.007946862462791802 0.003122447722606731 -1 1 0
205 2 0.002 2499.999999999919 0.006206539121087611 0.008327391354993408 0.005237338377586938 -2 -3 0
37 1 0.0015 2500.000000000352 0.002814585008715415 0.01283578917779524 0.005756286395609387 2 1 0
54 1 0.0015 2500.000000000352 0.004445875400118385 0.009891827110498741 0.007610266686738103 4 -2 0
102 2 0.002 2499.999999999919 0.006853498817662503 0.01442807422687825 0.0026982078227482144 -4 -5 0
88 1 0.0015 2500.000000000352 0.0047130865972105284 0.010988849868760212 0.0038665626851428526 1 -3 0
86 1 0.0015 2500.000000000352 0.00029347886985996695 0.010740532602809532 0.000715838817600522 -2 -2 0
229 2 0.002 2499.999999999919 0.0048050740628917095 0.008237774266849289 0.0020002740464230514 1 -4 0
182 2 0.002 2499.999999999919 0.0019006546146652914 0.013145407277466164 0.0042842786768618486 4 -2 0
34 1 0.0015 2500.000000000352 0.004749878886607528 0.0135996578243283 0.0007014576658481724 3 0 0
94 1 0.0015 2500.000000000352 0.0009689545302133081 0.010162473904589171 0.0018642763850868647 1 3 0
70 1 0.0015 2500.000000000352 0.006433947210398631 0.010110749667214616 0.0015046073887165785 1 2 0
388 2 0.002 2499.999999999919 0.00685715572338041 0.01237999679664981 0.005820470843890964 0 -8 0
61 1 0.0015 2500.000000000352 0.0013121961915122935 0.008240754738038206 0.0006870297408038301 4 5 0
127 2 0.002 2499.999999999919 0.005619650312925438 0.015126348292205721 0.000940867368465501 -3 6 0
126 2 0.002 2499.999999999919 0.006098238660965259 0.010032006727839696 0.0041915150626035645 2 0 0
227 2 0.002 2499.999999999919 0.003354309055045761 0.012620713953505273 0.0010569464803798644 1 -1 0
250 2 0.002 2499.999999999919 0.006453927822453372 0.008992852728758985 0.00710708127631363 0 -2 0
436 3 0.0025 2499.999999999723 0.0019252798897854888 0.014234536841685975 0.001086635638215231 5 1 0
462 3 0.0025 2499.999999999723 0.00015379586226778566 0.009265128335662754 0.0037491188375785227 -7 -9 0
206 2 0.002 2499.999999999919 0.0002513730655412484 0.013536720536918982 0.0022207582174820365 4 -1 0
330 2 0.002 2499.999999999919 0.000706840910316361 0.014535725950784749 0.0036823838194889836 -3 5 0
52 1 0.0015 2500.000000000352 0.005221919424455304 0.013753434138223011 0.0035973499381102537 -1 4 0
141 2 0.002 2499.999999999919 0.006947452916402176 0.014129078217929482 0.004727194748918827 2 1 0
49 1 0.0015 2500.000000000352 0.006001092596387225 0.013585798155886848 0.0015073110053939042 1 -1 0
254 2 0.002 2499.999999999919 0.004600042844214094 0.008774972923725628 0.003848887651393221 0 2 0
36 1 0.0015 2500.000000000352 0.0008087504361288005 0.007973134362701273 0.005120103960595719 -2 -2 0
134 2 0.002 2499.999999999919 0.0059850492813078 0.01181391657821527 0.007467993185540825 1 0 0
355 2 0.002 2499.999999999919 0.007639043417281243 0.013628582789547415 0.0009886052295156869 -2 -1 0
46 1 0.0015 2500.000000000352 0.007313903700993801 0.009278873173722774 0.0006766330387045098 -2 3 0
256 2 0.002 2499.999999999919 0.006863077133890035 0.009748146867035888 0.010456250355221491 3 -2 0
428 3 0.0025 2499.999999999723 0.003555964988035552 0.009308567531172502 0.011018915871499176 2 -4 0
190 2 0.002 2499.999999999919 0.006580925988877419 0.015341855781989443 0.010198188056329636 -4 -1 0
105 2 0.002 2499.999999999919 0.0055414741892463835 0.012979943076478312 0.014513771412547467 0 1 0
194 2 0.002 2499.999999999919 0.002298013234778646 0.009659657331357263 0.01444969739403928 1 -1 0
468 3 0.0025 2499.999999999723 0.004685017209786936 0.011237595336399606 0.009102208451279698 3 -4 0
128 2 0.002 2499.999999999919 0.006941844701766778 0.008677428581070368 0.008894352786183909 0 -2 0
454 3 0.0025 2499.999999999723 0.002961188026592199 0.0137776970457629 0.011175202771246645 3 -7 0
287 2 0.002 2499.999999999919 0.0020606846967205104 0.009550436118524856 0.008809156089423587 -3 -5 0
160 2 0.002 2499.999999999919 0.00254649626377299 0.00796451406013181 0.012573208755858831 -5 3 0
459 3 0.0025 2499.999999999723 0.0008203984254792261 0.009119866019764172 0.01295527131782327 4 -3 0
241 2 0.002 2499.999999999919 0.0066874805962316925 0.01340638297169041 0.01010685116836952 0 4 0
255 2 0.002 2499.999999999919 0.006575154857094061 0.010277807768917386 0.012297842433912784 -5 -1 0
75 1 0.0015 2500.000000000352 0.00046502848540683856 0.015005630665820157 0.010648580041014866 0 -4 0
349 2 0.002 2499.999999999919 0.006599106456403979 0.011529774742924218 0.009827497438658652 3 0 0
272 2 0.002 2499.999999999919 0.0016441737417938198 0.007883536860176376 0.01447021544772963 2 -4 0
382 2 0.002 2499.999999999919 0.004948551605560825 0.009642493987670664 0.013519005946114165 1 2 0
334 2 0.002 2499.999999999919 0.005523836873221732 0.008514399355212593 0.010979841465017029 1 -1 0
399 2 0.002 2499.999999999919 0.0008408117366101048 0.01083884888534634 0.007922024852078855 -5 3 0
412 3 0.0025 2499.999999999723 0.0018499273193323753 0.011455840693247921 0.010343320346899292 1 1 0
375 2 0.002 2499.999999999919 0.0048456620545763865 0.009125464323807845 0.009262587958380183 4 -4 0
467 3 0.0025 2499.999999999723 0.00166517168557549 0.013748318453216822 0.009140314608445265 -1 0 0
245 2 0.002 2499.999999999919 0.0015590422753215963 0.014956198100149162 0.014456528586427415 5 -2 0
450 3 0.0025 2499.999999999723 0.0010315748111525685 0.014046370798889672 0.01253841175311622 3 4 0
63 1 0.0015 2500.000000000352 0.0060260533400339645 0.01004570354226814 0.008365212232992955 -5 -3 0
479 3 0.0025 2499.999999999723 0.006249452400119026 0.012523939952872373 0.012135214271122016 -8 3 0
376 2 0.002 2499.999999999919 0.003772984870905357 0.010809162049862908 0.014416262495105074 7 -2 0
475 3 0.0025 2499.999999999723 0.004033120514972528 0.011596759463610965 0.011321100375568898 1 0 0
211 2 0.002 2499.999999999919 0.0075046052570288 0.010642675425074279 0.013933105051057397 -1 -2 0
164 2 0.002 2499.999999999919 0.0010305002164049115 0.007957873535034762 0.008105624901167134 0 -1 0
30 1 0.0015 2500.000000000352 0.0005949732960944156 0.010542956758757865 0.014660000322751797 3 0 0
339 2 0.002 2499.999999999919 0.004422883659934766 0.008029719191460269 0.012487429352199455 1 2 0
310 2 0.002 2499.999999999919 0.003325000569322853 0.014322496621471968 0.014423199495045353 -1 -2 0
151 2 0.002 2499.999999999919 0.002689761173249949 0.011352563990497012 0.008395140577542494 -2 3 0
79 1 0.0015 2500.000000000352 0.0058681651712836945 0.008803480785935687 0.012514116728372516 1 -3 0
331 2 0.002 2499.999999999919 0.0064711445803011325 0.009151419066775838 0.014497345829256342 -4 -4 0
185 2 0.002 2499.999999999919 0.0019532864896308366 0.011564317558728601 0.014473609370916112 1 1 0
270 2 0.002 2499.999999999919 0.002454454447219968 0.010493074405471111 0.01237964463097772 0 -2 0
461 3 0.0025 2499.999999999723 0.007010966797513384 0.014540471563950658 0.014209817631773312 1 0 0
39 1 0.0015 2500.000000000352 0.006925304864883235 0.012194883434368566 0.014052464588992173 -4 0 0
171 2 0.002 2499.999999999919 0.0015425324602704733 0.008637551237405474 0.01074220948534732 2 -5 0
378 2 0.002 2499.999999999919 5.359418507278563e-05 0.013788938903153929 0.014491127388192901 4 -1 0
299 2 0.002 2499.999999999919 0.0005960725594102381 0.01094320615913765 0.012027440734717738 -1 0 0
8 1 0.0015 2500.000000000352 0.00040809442735725994 0.01354944590807342 0.010578693985034063 1 1 0
233 2 0.002 2499.999999999919 0.005083606985810537 0.014322783881745883 0.013238173308131696 -3 0 0
404 3 0.0025 2499.999999999723 0.004602122615007617 0.013584149123576856 0.00950263887962608 2 4 0
82 1 0.0015 2500.000000000352 0.0018767534680693941 0.013273025454625461 0.01421711257559145 2 -5 0
53 1 0.0015 2500.000000000352 0.003409679340051773 0.00929335204148842 0.013038952924743948 2 0 0
313 2 0.002 2499.999999999919 0.0038681599167512365 0.00824252452341246 0.014391250688587818 2 -5 0
143 2 0.002 2499.999999999919 0.005680919188276756 0.011087954124198714 0.014454085825967895 -1 -4 0
155 2 0.002 2499.999999999919 0.006411477032811293 0.015211203020889368 0.012134524908708855 -2 2 0
98 1 0.0015 2500.000000000352 0.004922385038849458 0.013900051565639239 0.011547669993387686 -2 -2 0
170 2 0.002 2499.999999999919 0.007128089923062587 0.014630472996504185 0.00842868798356196 -3 -1 0
431 3 0.0025 2499.999999999723 0.0038078173656489822 0.012626779750161464 0.013352704691453436 -1 -2 0
246 2 0.002 2499.999999999919 0.0034712586522623184 0.008412210540164536 0.008214533455095369 -3 4 0
45 1 0.0015 2500.000000000352 0.0004983891168923755 0.009255240688988517 0.00931855931596027 5 -5 0
104 2 0.002 2499.999999999919 0.0017714295530296177 0.012171271877321772 0.012725655423938104 0 -4 0
29 1 0.0015 2500.000000000352 0.0001280374799426917 0.012365610530056796 0.01128896675430964 0 5 0
469 3 0.0025 2499.999999999723 0.007683324471761992 0.008362378998958225 0.012965339516496213 2 -5 0
401 3 0.0025 2499.999999999723 0.005108208799562198 0.015328163508163264 0.00801478044226225 0 -1 0
373 2 0.002 2499.999999999919 0.010130085444247492 0.005190922597166782 0.002772413578073925 -2 0 0
192 2 0.002 2499.999999999919 0.015121076628240953 0.005456703981514663 0.0015451861767705713 -6 -2 0
117 2 0.002 2499.999999999919 0.012610704293562305 0.006264535278826791 0.005260506034476676 6 0 0
329 2 0.002 2499.999999999919 0.012794273332942594 0.00026437975167936694 0.0064000427564194235 0 4 0
109 2 0.002 2499.999999999919 0.01501418743548437 0.0012444617942468192 0.006324147533339097 -4 -3 0
81 1 0.0015 2500.000000000352 0.00842757182518702 0.0033314904344234043 0.005038146376467356 -4 -6 0
292 2 0.002 2499.999999999919 0.01162530818388707 0.0066297119361776145 0.0010019603181876796 3 -2 0
319 2 0.002 2499.999999999919 0.012230644524720958 0.0048127996511985035 0.0008854643674770003 -3 -6 0
457 3 0.0025 2499.999999999723 0.009442674328636535 0.0032592281013212087 0.0022374795915433353 -4 -2 0
379 2 0.002 2499.999999999919 0.010112801028984745 0.005398651834325959 0.006954592826277912 0 3 0
491 3 0.0025 2499.999999999723 0.011977950815293096 0.0021781590226803093 0.0056059676304905555 -9 4 0
262 2 0.002 2499.999999999919 0.010739435499037395 0.002323967596793227 0.0073382847337484436 2 3 0
198 2 0.002 2499.999999999919 0.013995206871881107 0.005776826707327762 0.0065148186623421155 -10 5 0
364 2 0.002 2499.999999999919 0.010100128711434321 0.007521598966159846 0.0017735474517488754 -1 1 0
67 1 0.0015 2500.000000000352 0.01017458956762352 0.00693123617799442 0.006607168043141272 1 2 0
395 2 0.002 2499.999999999919 0.011720419370520036 0.0015457284747717043 0.003614037457903078 2 -1 0
237 2 0.002 2499.999999999919 0.009884296078191114 0.005697060342988276 0.0009491078148646818 4 1 0
295 2 0.002 2499.999999999919 0.011156063551477653 0.006688282370042942 0.0031092272288627846 3 -2 0
269 2 0.002 2499.999999999919 0.014121315514160827 0.0019767963543864697 0.0010910351072465595 -2 3 0
281 2 0.002 2499.999999999919 0.009467099364614047 0.0036480741970473635 0.00708157066237206 3 -9 0
181 2 0.002 2499.999999999919 0.015271185601193595 0.0003413204557090818 0.0011459533099335783 0 0 0
97 1 0.0015 2500.000000000352 0.014287950150149335 0.006529451694894121 0.002442072102130752 1 0 0
273 2 0.002 2499.999999999919 0.008922119020015003 0.0018046913020439358 0.007186576024063596 -6 0 0
337 2 0.002 2499.999999999919 0.008237296447997401 0.002295401745715364 0.003713195596693488 -1 -5 0
323 2 0.002 2499.999999999919 0.012369589982432337 0.003255438463994169 0.007353873631480599 3 1 0
396 2 0.002 2499.999999999919 0.00952712253889221 0.0011303945384937377 0.0021258935831596684 4 5 0
332 2 0.002 2499.999999999919 0.013579604012534127 0.001123033229581934 0.004710392380607612 3 7 0
216 2 0.002 2499.999999999919 0.014554320269285978 0.0035535387813966524 0.002708929166376032 1 2 0
259 2 0.002 2499.999999999919 0.012916963125451982 0.00012674621480638647 0.0032569770986806777 -1 1 0
13 1 0.0015 2500.000000000352 0.009297780355761344 0.004160145782799367 0.000599522809417578 -2 0 0
176 2 0.002 2499.999999999919 0.01412834150092269 0.0027395067786519923 0.005608831070296835 -2 4 0
371 2 0.002 2499.999999999919 0.01288223058924958 0.004137534358719674 0.005707480565734453 -4 -2 0
306 2 0.002 2499.999999999919 0.01336729281615699 0.005072312073990647 0.0023801092503418025 -5 -3 0
480 3 0.0025 2499.999999999723 0.012299492889643184 0.0007091910884154353 0.0012168139226314966 -5 1 0
294 2 0.002 2499.999999999919 0.012031036197398672 0.0051179555010090385 0.006928091860597289 5 0 0
311 2 0.002 2499.999999999919 0.009021435856895292 0.007374426123199582 0.0034709638092012083 0 2 0
484 3 0.0025 2499.999999999723 0.011879293316930497 0.004765966040237342 0.003916284440927253 2 3 0
486 3 0.0025 2499.999999999723 0.00958156351762113 0.0014980858410514782 0.005155529476103383 -2 0 0
413 3 0.0025 2499.999999999723 0.014302959202279041 0.007669370945991929 0.005391930069000709 -4 2 0
406 3 0.0025 2499.999999999723 0.008385572658777726 0.006782461213677981 0.006910854666050734 -3 1 0
106 2 0.002 2499.999999999919 0.010624445374291235 0.0020711724879693945 0.0008611084627663068 3 -2 0
285 2 0.002 2499.999999999919 0.013535477413282766 0.001979411322604063 0.00298635891525598 -5 1 0
347 2 0.002 2499.999999999919 0.008223734854457806 0.001943585603128313 0.0009050241133976598 -7 4 0
278 2 0.002 2499.999999999919 0.013044766001144896 0.0069420324676852255 0.0034848617734354916 0 2 0
360 2 0.002 2499.999999999919 0.01455970474153954 0.0038789249096801413 0.0008423632254590943 -1 -5 0
112 2 0.002 2499.999999999919 0.007943354452856906 0.0045886563840522605 0.0013653503903464823 0 -2 0
342 2 0.002 2499.999999999919 0.015328207026804144 0.007111323116795218 0.0035617672495761982 5 -1 0
448 3 0.0025 2499.999999999723 0.009460419594101037 0.005181387908055557 0.004864913250277068 1 4 0
290 2 0.002 2499.999999999919 0.01356438194005707 0.006286804222849104 0.0008947361408410133 2 6 0
385 2 0.002 2499.999999999919 0.008236551622611618 0.005595303745787881 0.003003409349174341 -2 1 0
320 2 0.002 2499.999999999919 0.0117828876013228 0.006967991497189361 0.006809751065924303 -3 2 0
93 1 0.0015 2500.000000000352 0.008105451723100423 0.00011169455322448957 0.0007213448471428879 -5 -1 0
445 3 0.0025 2499.999999999723 0.014254101905086877 0.005069741041837255 0.0043698563272415525 -2 4 0
453 3 0.0025 2499.999999999723 0.011880207446755092 0.0031269079319078013 0.002184723471724071 0 1 0
111 2 0.002 2499.999999999919 0.010627431730615748 0.003042657703189479 0.0041081304662686086 -6 -1 0
327 2 0.002 2499.999999999919 0.010347425160540043 0.0004717710682799426 0.006929501229827162 -1 -8 0
24 1 0.0015 2500.000000000352 0.009029985821457562 0.0003063555959261598 0.0036644471396109716 -1 2 0
174 2 0.002 2499.999999999919 0.015249769845832999 0.0072941642715203875 0.0009618356861564691 0 0 0
439 3 0.0025 2499.999999999723 0.007933110513023228 0.006721382193401098 0.0011791401098200309 -2 1 0
473 3 0.0025 2499.999999999723 0.010689974947996814 0.0075371537594693585 0.004971602247414688 -5 1 0
200 2 0.002 2499.999999999919 0.00877499346318887 0.0004776014243587748 0.014453929046153998 -3 3 0
72 1 0.0015 2500.000000000352 0.009888067206165908 0.00011122729761509842 0.01137424230795963 -1 3 0
463 3 0.0025 2499.999999999723 0.014320948337855549 0.003918677650330265 0.007698933195771909 8 3 0
144 2 0.002 2499.999999999919 0.013046323137420225 0.0049079568898164555 0.011572843841931425 -2 3 0
3 1 0.0015 2500.000000000352 0.013159333647092647 0.006537978909620452 0.011145932769372056 -5 0 0
365 2 0.002 2499.999999999919 0.011911342892701156 0.006389148416422434 0.010148917549696504 -4 -2 0
48 1 0.0015 2500.000000000352 0.008283647943212721 0.006681881098547088 0.01211863358519045 -1 0 0
129 2 0.002 2499.999999999919 0.01474729739326901 0.006683412245360575 0.011326070722266535 0 -2 0
489 3 0.0025 2499.999999999723 0.010850063447760037 0.0037666084639300813 0.013389746438127513 0 3 0
251 2 0.002 2499.999999999919 0.00845795834333222 0.0038395630747645334 0.012675491827800239 -3 -4 0
228 2 0.002 2499.999999999919 0.00995956540729759 0.001422278219431737 0.008771199265269744 0 -2 0
433 3 0.0025 2499.999999999723 0.01450222258641061 0.005474348771464805 0.013113078079445104 -5 -7 0
318 2 0.002 2499.999999999919 0.011708757195225383 0.007478446094252959 0.011618895206310136 2 3 0
25 1 0.0015 2500.000000000352 0.007886323817251855 0.007266962310341366 0.008809594535997813 -2 -1 0
441 3 0.0025 2499.999999999723 0.00805291285710176 0.0017292796965607323 0.009710921085118639 -5 -5 0
162 2 0.002 2499.999999999919 0.012461671861408586 0.0011570009055407884 0.010520058434651139 0 -4 0
483 3 0.0025 2499.999999999723 0.009628160075954547 0.0022113883118012228 0.011986870762775121 -4 4 0
288 2 0.002 2499.999999999919 0.011893332897710659 0.0029406000960779865 0.010904363190975964 -1 0 0
56 1 0.0015 2500.000000000352 0.008520737665326116 0.0034197211197937 0.008606846643163673 -1 1 0
240 2 0.002 2499.999999999919 0.0077599482262666886 0.0009763741836832686 0.012954409809145246 3 -5 0
68 1 0.0015 2500.000000000352 0.012281533263718185 0.002717337905419381 0.014122201666138557 -4 4 0
92 1 0.0015 2500.000000000352 0.013126536580020465 0.003255844840699085 0.011946341877910951 -5 -5 0
173 2 0.002 2499.999999999919 0.011143274143745845 0.006947927257662111 0.008541933783881987 -3 -1 0
69 1 0.0015 2500.000000000352 0.013594279999944836 0.006965440688518755 0.014619935738958386 5 -2 0
322 2 0.002 2499.999999999919 0.01490623534102944 0.003374828734932267 0.012038930927201937 -6 0 0
348 2 0.002 2499.999999999919 0.013011281287446764 0.0060797571289539585 0.008212470691237378 1 -3 0
408 3 0.0025 2499.999999999723 0.011850752824249508 0.006467282156414503 0.013758976313768195 0 -1 0
492 3 0.0025 2499.999999999723 0.007786480417143779 0.005230670059971032 0.008703930823047183 4 1 0
417 3 0.0025 2499.999999999723 0.009432905683233328 0.0056309476167627414 0.013300178589972117 -4 3 0
116 2 0.002 2499.999999999919 0.013226478239023856 0.0013949443591007205 0.014461017246019997 2 -3 0
423 3 0.0025 2499.999999999723 0.01508128207986063 0.0017310866341716704 0.01343217135886382 5 -2 0
471 3 0.0025 2499.999999999723 0.013808271924804825 0.0015490566333645629 0.008017921619528474 -2 -2 0
386 2 0.002 2499.999999999919 0.011924757952315918 0.001996444669498909 0.012603828997926557 -5 6 0
136 2 0.002 2499.999999999919 0.012691165300127465 0.002924245630849606 0.009174989924381328 2 3 0
244 2 0.002 2499.999999999919 0.011290809075173224 0.0013845006987626529 0.014439175038362027 -5 0 0
187 2 0.002 2499.999999999919 0.014102495634753054 0.005131384346030826 0.0094769437092372 -3 4 0
196 2 0.002 2499.999999999919 0.010858084127878764 0.004437325274743742 0.01137051946627374 0 -4 0
2 1 0.0015 2500.000000000352 0.011717578260400699 0.004715805099871077 0.01473851289874794 1 1 0
85 1 0.0015 2500.000000000352 0.010791620473308006 0.0011569633822775664 0.010937616515070145 2 14 0
301 2 0.002 2499.999999999919 0.01291037637271401 0.0040841162635929 0.01333794724502389 2 -3 0
485 3 0.0025 2499.999999999723 0.010037492809180674 0.0032071983906392467 0.009814891157971795 5 3 0
397 2 0.002 2499.999999999919 0.008688410885672347 0.005840542155758716 0.010647749653236723 -1 5 0
264 2 0.002 2499.999999999919 0.009257513350633437 0.002402576174733295 0.01420564853172944 2 2 0
41 1 0.0015 2500.000000000352 0.014850672942168347 0.0025503134063004293 0.010254237542235232 -1 0 0
297 2 0.002 2499.999999999919 0.010444183803856293 0.005317813057584861 0.00971621273797806 -4 0 0
113 2 0.002 2499.999999999919 0.010337899184045504 0.006259733946620267 0.011452847824439515 3 -4 0
276 2 0.002 2499.999999999919 0.009356181549803985 0.0066476362588599874 0.009023396312592965 3 -3 0
50 1 0.0015 2500.000000000352 0.011368225461571192 0.0019182617811889437 0.009633992847210941 1 -1 0
20 1 0.0015 2500.000000000352 0.013427239239916587 0.005099739750038298 0.01467695758094776 -4 -2 0
195 2 0.002 2499.999999999919 0.00829289427238311 0.0043332622124897914 0.014506931149029305 -3 1 0
368 2 0.002 2499.999999999919 0.011738438173803965 0.0009630791628300959 0.00825170841463605 -3 8 0
338 2 0.002 2499.999999999919 0.010918754373763688 0.004262858700409984 0.008201706471233859 4 -6 0
212 2 0.002 2499.999999999919 0.007979519509522175 0.006791505360403116 0.014466503276441743 -3 4 0
284 2 0.002 2499.999999999919 0.00820529971007377 0.0002451389581834652 0.011210145487440107 4 4 0
137 2 0.002 2499.999999999919 0.012250674952565908 0.004582312801026114 0.00986677552301348 -4 -2 0
265 2 0.002 2499.999999999919 0.014159550044478638 0.003351759190066462 0.014504218289577094 -1 3 0
286 2 0.002 2499.999999999919 0.013684394997699606 0.0017491106331992876 0.011812301774513525 5 4 0
400 2 0.002 2499.999999999919 0.010711970657101062 0.0005116945417180546 0.012805183011835612 3 -8 0
204 2 0.002 2499.999999999919 0.015211759853993577 0.0006982259977316793 0.00943239370205168 -2 5 0
207 2 0.002 2499.999999999919 0.015187161921123425 0.0061975495326515315 0.008137967233346938 -1 4 0
135 2 0.002 2499.999999999919 0.01270167236238691 0.00011092244350012545 0.012104977099856586 1 4 0
464 3 0.0025 2499.999999999723 0.007955076660809192 0.003870681778030992 0.01064910050889419 2 4 0
154 2 0.002 2499.999999999919 0.015247024834056712 0.0049053878921877115 0.010952349250546846 0 -1 0
7 1 0.0015 2500.000000000352 0.015305008718605637 0.0001828704271326803 0.014639213166538696 -9 -3 0
274 2 0.002 2499.999999999919 0.008780204426102415 0.01485123948078601 0.005095429714043484 2 -4 0
101 2 0.002 2499.999999999919 0.015204857732249924 0.00971958353551394 0.005986165527822171 -1 2 0
403 3 0.0025 2499.999999999723 0.015365490315602947 0.011464033701553748 0.002951582481590946 1 -8 0
214 2 0.002 2499.999999999919 0.008352911833430251 0.00891796630317853 0.007396197210341682 0 3 0
426 3 0.0025 2499.999999999723 0.012151235442559126 0.009008412075433713 0.0062369036561001215 1 -1 0
130 2 0.002 2499.999999999919 0.008413585131522554 0.008425698242692818 0.005472757769480319 3 -4 0
357 2 0.002 2499.999999999919 0.0107687616364857 0.010878704108137602 0.006407084797625977 3 -3 0
496 3 0.0025 2499.999999999723 0.011317095745829822 0.01105698865624267 0.0022056861610457836 -1 0 0
466 3 0.0025 2499.999999999723 0.014547829895522507 0.014689020699956137 0.005388898040679691 3 -2 0
157 2 0.002 2499.999999999919 0.012109221723019307 0.009547595624867795 0.0008697775694587544 -1 0 0
225 2 0.002 2499.999999999919 0.012069909638145951 0.01473567319450736 0.004872532695713474 -9 1 0
354 2 0.002 2499.999999999919 0.013467083242187726 0.00774581926879423 0.007310474387332557 0 0 0
442 3 0.0025 2499.999999999723 0.013504761555439108 0.012595034646965519 0.007459509129890184 3 0 0
305 2 0.002 2499.999999999919 0.010452986943308203 0.014226557576124217 0.005920794672945253 -2 -8 0
95 1 0.0015 2500.000000000352 0.014217267654852829 0.012616694293244931 0.002135543654870866 -3 2 0
304 2 0.002 2499.999999999919 0.008451897007111055 0.015284111838744355 0.00695294599409662 4 1 0
280 2 0.002 2499.999999999919 0.008692907391631114 0.014786827071991885 0.0021780989750492296 4 0 0
11 1 0.0015 2500.000000000352 0.013326288411170195 0.010642171135815436 0.007076022148940399 -1 2 0
231 2 0.002 2499.999999999919 0.013589694126681665 0.008724899879773339 0.002922429510399484 0 -8 0
451 3 0.0025 2499.999999999723 0.013720114945653622 0.014082233007522897 0.001119803751556189 2 3 0
344 2 0.002 2499.999999999919 0.013318029635523768 0.010694992412951208 0.0032378806230849377 1 1 0
253 2 0.002 2499.999999999919 0.013811388198937617 0.011407775969280403 0.005584359630525434 -5 -1 0
125 2 0.002 2499.999999999919 0.011334656016778199 0.013798183501206892 0.0017757792697280443 -1 -2 0
159 2 0.002 2499.999999999919 0.010188402277899106 0.008264672481950295 0.00755534799812595 -1 -3 0
77 1 0.0015 2500.000000000352 0.014852381239571489 0.012652984684057948 0.006092636443938852 3 7 0
260 2 0.002 2499.999999999919 0.014155863475411484 0.014154739550184698 0.003201787260908878 2 1 0
183 2 0.002 2499.999999999919 0.015343682244763976 0.012926904300638649 0.004518380843435944 1 0 0
232 2 0.002 2499.999999999919 0.009260357284604661 0.013380246431639863 0.003307433725083852 9 -4 0
394 2 0.002 2499.999999999919 0.015039626484798601 0.009230672226015004 0.0009720832520876266 7 3 0
14 1 0.0015 2500.000000000352 0.012297101396165274 0.011759821745131734 0.0040353473692367 -4 -2 0
498 3 0.0025 2499.999999999723 0.011711813988513542 0.00939076165150022 0.0039203568137432775 -2 -4 0
65 1 0.0015 2500.000000000352 0.010337215829057665 0.009319237352408602 0.00575066194944466 0 0 0
177 2 0.002 2499.999999999919 0.012182178547926163 0.012504729183591887 0.0008407858966147455 1 3 0
279 2 0.002 2499.999999999919 0.007971393071329866 0.009972817153474877 0.002074778505180664 1 1 0
152 2 0.002 2499.999999999919 0.009528572538931341 0.010455934537673687 0.0010338781226556042 -2 -7 0
43 1 0.0015 2500.000000000352 0.009878863304756675 0.012405411585973572 0.007109254797505344 4 -3 0
352 2 0.002 2499.999999999919 0.01188246640777887 0.00820280309276406 0.0021785795892622197 3 -6 0
172 2 0.002 2499.999999999919 0.008043401412164152 0.013429916162522058 0.00725817309821468 4 -4 0
26 1 0.0015 2500.000000000352 0.01107989621180014 0.00823283110506784 0.0006639517535503884 1 9 0
308 2 0.002 2499.999999999919 0.008993946114884513 0.010221122964724097 0.006051959254513485 3 2 0
235 2 0.002 2499.999999999919 0.011056516184936221 0.012914160904047409 0.003750250201309509 -2 2 0
387 2 0.002 2499.999999999919 0.013443909968417581 0.012989882194333236 0.004458957071328194 -5 -3 0
16 1 0.0015 2500.000000000352 0.014178866529323288 0.01520142894516543 0.00722502938176846 2 2 0
10 1 0.0015 2500.000000000352 0.015160060079118482 0.011320859941184773 0.006652772914680441 -2 2 0
389 2 0.002 2499.999999999919 0.007781114145259175 0.011258724892067733 0.0071378097554446 5 -3 0
437 3 0.0025 2499.999999999723 0.013717158494325005 0.010983666041892761 0.0011538138176534177 7 -3 0
452 3 0.0025 2499.999999999723 0.008930716521237746 0.012726965876215099 0.005421066119844556 6 0 0
476 3 0.0025 2499.999999999723 0.010723323723413093 0.01509918586631866 0.0032129749114870472 1 1 0
230 2 0.002 2499.999999999919 0.008843819749131229 0.008645099026598014 0.0009529996552571307 -5 2 0
115 2 0.002 2499.999999999919 0.013662340913875515 0.00963111211664562 0.0048063316002685775 0 -1 0
263 2 0.002 2499.999999999919 0.009892600512910283 0.009298005830243723 0.002633992115275551 2 5 0
150 2 0.002 2499.999999999919 0.008615567080474394 0.01163926588364694 0.0027865821877486926 2 -1 0
234 2 0.002 2499.999999999919 0.013433149317881794 0.00816312016695417 0.0010477205256915847 3 1 0
224 2 0.002 2499.999999999919 0.008397604963021249 0.009550996154351071 0.0039055571072512583 -2 0 0
402 3 0.0025 2499.999999999723 0.011827814936751894 0.012566163830229614 0.005734386901061657 2 -3 0
414 3 0.0025 2499.999999999723 0.01004728239040091 0.01100319399558344 0.004287571822704553 4 -1 0
449 3 0.0025 2499.999999999723 0.009633671022186032 0.012627115308913214 0.0011623237095430043 5 1 0
363 2 0.002 2499.999999999919 0.012668290293692526 0.01275588948500419 0.0026941787847883994 -5 0 0
261 2 0.002 2499.999999999919 0.015363825648517317 0.012360931410276872 0.0008601886242542902 0 3 0
257 2 0.002 2499.999999999919 0.012925165682934643 0.011791514916595093 0.012921257119934271 2 4 0
328 2 0.002 2499.999999999919 0.011839018155233598 0.010257838968787597 0.007904866503033464 2 6 0
493 3 0.0025 2499.999999999723 0.014212377406627924 0.010076482494341055 0.013964535009439883 -2 3 0
84 1 0.0015 2500.000000000352 0.014716324819593297 0.011733920103693982 0.014729143071635545 0 -3 0
358 2 0.002 2499.999999999919 0.009554351732781805 0.010267135678028692 0.010988303602930512 -6 0 0
122 2 0.002 2499.999999999919 0.014621701880904375 0.008513660698131031 0.008514805943013818 -2 6 0
321 2 0.002 2499.999999999919 0.008355876757548997 0.01432554735909647 0.012580862723085338 5 4 0
497 3 0.0025 2499.999999999723 0.009686959562429433 0.013350587187534551 0.008818692287408931 0 4 0
131 2 0.002 2499.999999999919 0.008923584143192394 0.015289206847501865 0.00883999137007507 1 1 0
6 1 0.0015 2500.000000000352 0.010732502178803689 0.01093374513290896 0.01202310990751285 0 -1 0
110 2 0.002 2499.999999999919 0.0113087274619058 0.012093066213766256 0.0081312437175729 -3 -4 0
282 2 0.002 2499.999999999919 0.014585593833493176 0.014298925370245115 0.008798898815429102 -7 -3 0
83 1 0.0015 2500.000000000352 0.010462349937307424 0.012433667302892514 0.010377326873423808 3 0 0
78 1 0.0015 2500.000000000352 0.008765130654617374 0.00960275900217375 0.014613081604519199 -3 -2 0
271 2 0.002 2499.999999999919 0.011492974364512023 0.00984041775876737 0.011071083016135247 3 -5 0
236 2 0.002 2499.999999999919 0.014969885231754966 0.00803392224442916 0.014450947144171151 -2 6 0
23 1 0.0015 2500.000000000352 0.011862829881546574 0.010396051646625392 0.012857699704964483 -4 -3 0
490 3 0.0025 2499.999999999723 0.012950657034149438 0.013291865995195494 0.009791285793645618 -3 -4 0
21 1 0.0015 2500.000000000352 0.010255931974358458 0.0122011958373598 0.01182388676466014 0 -1 0
215 2 0.002 2499.999999999919 0.01416073811405371 0.015215893895815546 0.010788986679145419 -1 0 0
474 3 0.0025 2499.999999999723 0.01341266531320189 0.009520224281416384 0.01002906218286281 7 2 0
99 1 0.0015 2500.000000000352 0.008035124608838888 0.014417088386192625 0.009984206113632934 2 -3 0
381 2 0.002 2499.999999999919 0.008631140885076943 0.011684279790980578 0.012822743182873438 -3 -5 0
307 2 0.002 2499.999999999919 0.012874215017410403 0.00880729371707731 0.011968657631102246 0 -5 0
147 2 0.002 2499.999999999919 0.00842112038074935 0.012842429080487681 0.014357991750160922 -5 6 0
429 3 0.0025 2499.999999999723 0.010253800344363516 0.010914676004392273 0.01391343473528863 0 -2 0
219 2 0.002 2499.999999999919 0.010207344126397143 0.0141662893063643 0.013397107430285934 5 -2 0
121 2 0.002 2499.999999999919 0.01280724555962943 0.007740000724197901 0.009083489177030168 0 1 0
314 2 0.002 2499.999999999919 0.011480537179680806 0.012698186710745662 0.013947725752154135 2 1 0
17 1 0.0015 2500.000000000352 0.013218977681704623 0.012258021105251933 0.014591860823656048 -3 0 0
351 2 0.002 2499.999999999919 0.009640173864822101 0.008106927283556588 0.011518902272611221 9 0 0
175 2 0.002 2499.999999999919 0.012835279902213202 0.011314229597970661 0.009086729141477968 1 6 0
221 2 0.002 2499.999999999919 0.012292147460029481 0.010764031275686847 0.014483218522700507 0 -3 0
430 3 0.0025 2499.999999999723 0.014025799271373653 0.013436309321088094 0.011934840394580119 -1 0 0
44 1 0.0015 2500.000000000352 0.009331598421493613 0.01154257815099341 0.008249005715322295 1 -2 0
393 2 0.002 2499.999999999919 0.007961720824565015 0.010447517796898412 0.009065543272495546 -6 -5 0
478 3 0.0025 2499.999999999723 0.009146809025805327 0.008742129173729655 0.009443463336211183 5 1 0
336 2 0.002 2499.999999999919 0.010797234809852318 0.010769452127929622 0.00949677613212415 -3 -1 0
158 2 0.002 2499.999999999919 0.007915633201368427 0.012275390622738608 0.008740579158163621 2 2 0
118 2 0.002 2499.999999999919 0.013085870941579534 0.015340919799439388 0.009210978380020322 6 -3 0
156 2 0.002 2499.999999999919 0.009355405042864416 0.013890589469146118 0.010928496100584256 0 5 0
222 2 0.002 2499.999999999919 0.009887122645555635 0.010063083419426251 0.00785926879414941 0 -3 0
62 1 0.0015 2500.000000000352 0.015134316564722465 0.01530133894389194 0.012906472905308101 -1 3 0
239 2 0.002 2499.999999999919 0.015318393042549327 0.010465849358595389 0.010281997566411096 3 -3 0
169 2 0.002 2499.999999999919 0.0119307763419678 0.011691604659327873 0.010866727858851013 -3 -4 0
124 2 0.002 2499.999999999919 0.0152731380193053 0.012275872787055083 0.013257140841092998 -3 2 0
51 1 0.0015 2500.000000000352 0.014101261078299007 0.01032528468868529 0.008322723633850677 -4 -6 0
420 3 0.0025 2499.999999999723 0.01364673205483437 0.01474556359598828 0.01386563004215202 -1 -3 0
203 2 0.002 2499.999999999919 0.014452095528579031 0.00979824791734803 0.011880810687973795 -5 -2 0
89 1 0.0015 2500.000000000352 0.009253265681099493 0.01420865802740893 0.014722894370195359 -2 2 0
460 3 0.0025 2499.999999999723 0.01158972093238885 0.013601454698956931 0.011833034322881224 1 0 0
345 2 0.002 2499.999999999919 0.011253062726514166 0.009110380301388853 0.014551971101377126 0 -5 0
5 1 0.0015 2500.000000000352 0.012861257719364104 0.010483908498739888 0.011807861805730957 -2 4 0
455 3 0.0025 2499.999999999723 0.009772658540830901 0.007882814682728806 0.013860995213058223 0 -1 0
252 2 0.002 2499.999999999919 0.01121984489514704 0.008401472810892862 0.009876125198828812 5 6 0
268 2 0.002 2499.999999999919 0.01107813573668594 0.008896964639778682 0.012636041854230015 3 -5 0
487 3 0.0025 2499.999999999723 0.011058281220390284 0.014978286145305943 0.009883263966449054 3 2 0
114 2 0.002 2499.999999999919 0.013877045844304332 0.011488485958627023 0.01101398647504656 0 -1 0
325 2 0.002 2499.999999999919 0.014400985369653117 0.008007857652573934 0.012654541552429012 -6 -6 0
435 3 0.0025 2499.999999999723 0.011731319427751904 0.014207876971748289 0.007699337718673831 1 -1 0
197 2 0.002 2499.999999999919 0.011727532074881848 0.014505084709587156 0.014517302911290554 -1 -8 0
418 3 0.0025 2499.999999999723 0.015163431076189901 0.0122634618154335 0.009190753754901899 1 -2 0
71 1 0.0015 2500.000000000352 0.009403437416335994 0.013095630581852995 0.01241660062212676 -3 2 0
341 2 0.002 2499.999999999919 0.007855918962499103 0.011269035366134477 0.011182810759354504 1 0 0
31 1 0.0015 2500.000000000352 0.010333272315963796 0.015360493285702805 0.014654350133012466 6 -1 0

Velocities

407 2.2887831444739626e-09 -3.9158514670410215e-09 -5.122737179357169e-09 9.607876578901387e-07 4.792692857463372e-06 -4.115592601886829e-06
15 1.0961793282325822e-09 -1.6171009552451316e-09 -2.4431376379262885e-09 -3.282010955338626e-06 -5.579471379009702e-06 2.5825553844102274e-06
226 4.265917652033867e-10 1.0472924955149268e-09 -1.5466228793038756e-09 -9.292007125089576e-06 -2.1351421414264527e-06 -3.8007902764818038e-06
293 -3.671332576671101e-09 -1.9291563427391546e-09 -2.5204776159428095e-09 1.9831617546448456e-06 4.623741966172973e-06 2.2004193947548465e-06
356 6.902969176334193e-10 2.4718050302980344e-09 -3.03214669392587e-09 3.5615418015604898e-06 3.131118740279539e-06 3.857992996034489e-06
91 5.5225592185054626e-08 3.0397652482694484e-08 -6.4722044042855845e-09 33.329237041222605 7.938405252934861 -10.302783349927855
178 -5.3496435222088685e-08 -2.879497244328436e-07 5.4622816167376754e-08 0.0009619048369680683 -0.0003630159191433974 -0.0021256922437922323
140 -5.069994803157343e-10 -8.855071567731031e-11 1.4075564692036118e-09 3.423707009688668e-06 1.034185073969658e-06 3.0178951397152924e-06
248 -7.736213723763856e-10 -7.186813740079811e-11 8.140024417314386e-10 -4.262867035234976e-06 -1.127406089177748e-07 -2.9689431059608463e-06
180 -4.5039782832239646e-10 -2.4255819648856255e-10 -2.5141074911019245e-10 1.2998172404968024e-07 -5.5945716728784215e-08 4.0319819320151885e-07
166 1.3572634230074896e-11 -1.4297965471797898e-09 -9.183499510231221e-10 4.289978697528216e-07 8.363151625214545e-07 5.70217320760602e-07
242 -3.60707684460772e-11 -1.9570295924156505e-09 -2.5215349453479387e-09 1.4229945705853527e-06 1.6608363525656253e-06 -1.9314967420261787e-06
482 3.6214900665748797e-10 -1.5565695075662678e-09 -1.4734104511762015e-09 1.3419634402471906e-07 8.809004473880771e-08 5.02610127214483e-07
9 -2.043398215764055e-09 6.540889508181282e-10 -1.4813754915270626e-09 2.137530259874854e-06 6.787707770189793e-07 -2.726522302162859e-07
73 -2.0473092181725325e-11 -2.1354405678755864e-10 -1.1177915801335532e-09 -1.1538752026316494e-07 -5.77683029534859e-08 2.843987545446303e-07
238 1.9017689420881707e-09 -3.144693593049882e-10 -2.700133462089008e-10 2.498117573175785e-06 -5.29287236699493e-07 -1.4870020340641537e-06
384 1.4356196638119448e-09 5.561508824553943e-10 2.907290631100363e-10 6.253642137424687e-08 1.1475455215114964e-06 -1.260144778109347e-06
424 -1.7967842977947676e-10 -2.4528375281705954e-10 -3.073195656945686e-10 -6.180892646196416e-08 1.0048008664356494e-06 4.156314954678614e-07
27 6.153310254488787e-09 7.853476958233958e-10 2.1629071848228126e-09 1.4450632629030556e-06 7.75131787784988e-06 -3.969423527301711e-06
189 4.457648194273997e-10 -1.5768962193310108e-09 -6.59448868504786e-10 -2.016877200528539e-06 1.564042950576761e-06 1.8809277376739608e-06
19 1.3342991853922223e-10 2.1422400259630213e-09 8.49710211852422e-10 1.0522622899881986e-06 -4.7565282375487055e-07 -1.1669672777411943e-06
60 -9.025293432097614e-10 1.6523405010892193e-10 -2.4478220128204747e-10 -5.6243569759938084e-08 -1.0022220474223382e-06 -6.785814246378356e-07
165 1.085000344876029e-08 5.993886788472886e-09 -3.7741370638592915e-09 1.046046211232934e-05 -1.1963126037833428e-05 1.6282695521925502e-05
119 -1.2694621868113188e-10 1.2076432181223817e-09 -3.03280798035754e-09 -7.158085454516275e-06 1.2031034171495123e-06 8.665667207635069e-06
33 5.670004129375766e-10 1.3564000531700034e-08 -7.451123300709431e-09 4.008194949216142e-05 -1.4196235027105123e-05 8.208734974394832e-06
465 -1.0030437231201768e-10 -1.8361332760997426e-09 -1.1570351006714205e-09 4.787549632884748e-07 -4.1931373116909545e-09 2.115788138260947e-06
120 2.1693023225364984e-09 1.0336334108062736e-11 -1.4182696880591423e-09 -3.996983368075837e-06 -1.431040460698398e-06 -4.276351375062578e-07
410 -3.038822618854988e-10 1.284844980217653e-10 -7.304247809511205e-10 8.482802289850039e-08 5.8843009140617606e-08 1.001135516612379e-06
359 -9.790168245971713e-10 1.6111228899682817e-09 5.95216993101022e-10 7.189302709348441e-06 8.676251344798995e-07 2.739565971726139e-06
202 2.2027953948934714e-10 4.228248114943714e-10 -7.650870017384912e-10 3.8144624322691853e-07 -1.0561515605614871e-06 1.61496558274908e-06
495 8.578621041410869e-10 -9.880805505225868e-10 -5.598400374934466e-10 -7.993025943337586e-08 7.079623642415853e-07 3.117116122772309e-07
458 1.866088728361309e-10 -1.865606121349839e-10 -6.356752040235374e-10 2.887055427564548e-08 -7.186459069988518e-07 3.771753487431404e-07
57 2.1997000264155775e-09 1.319490686383887e-09 2.637335247954516e-10 -2.632675673189944e-06 2.506869254414347e-06 4.137761541354286e-07
220 1.1634216737812069e-09 -1.015428629578135e-09 6.580273684668628e-10 -4.263837481915399e-08 1.5002649009483023e-06 -1.28547901352731e-06
391 -7.327205081828948e-10 -6.93703978255923e-10 -1.0356920913314593e-09 7.315303214573554e-07 -1.8222926613250705e-07 3.2699379347484004e-07
425 -1.3994199700076473e-09 7.095262621633233e-09 -1.7143820944015776e-09 -6.174932295903532e-06 -7.387468895149436e-07 4.572345249509549e-06
398 4.693496026152198e-10 3.054039321130668e-10 -1.627780005593142e-09 -4.1167112798961474e-07 2.8974255662284158e-06 -1.7542783905748796e-06
249 3.2434353194998613e-09 1.8487079690997032e-09 5.872648737143658e-10 -2.4106406003803673e-07 -4.014880762985439e-10 2.2460985665582784e-07
76 1.107e-321 -1.107e-321 -1.1e-321 2227.8464197317508 1564.8277479672547 641.3044216017191
108 1.4396499444364815e-09 5.419905828798612e-10 -8.789698655347971e-09 7.357488263340345e-06 -1.1187133897736135e-05 -2.85132614918559e-06
223 8.987503686682058e-10 3.1648620902044303e-10 5.749159198945345e-10 -3.350548621500271e-07 -2.0583300209910865e-07 1.6110996290867666e-06
346 4.5736934928790264e-10 1.1005278879125834e-08 -1.6327506473771755e-09 8.303988490546754e-06 9.372589575120642e-07 1.3468537603283809e-05
1 2.152231375866379e-09 1.7153476634887148e-08 7.639640429052942e-10 -2.4576062548570273e-05 1.3765283456793783e-06 -6.727630553526247e-06
18 1.4867825580186313e-10 -1.4431070282633368e-09 -1.0825900585024732e-09 -1.6799263394148671e-06 1.006769410605465e-06 -9.763675962217001e-07
35 3.559097548056321e-09 -3.126572436621522e-09 5.287960225788604e-10 1.6354953964567378e-06 -8.780761998058615e-07 -4.326278082935519e-06
383 -9.101105756456267e-10 -1.1982402146551672e-09 1.5255534736994202e-09 -3.5049696502618646e-06 -1.9574408707538313e-07 -7.337635869041638e-07
96 -1.1e-321 1.107e-321 -1.1e-321 -9.321708230130216 -24.82570319847082 14.228211723449103
392 4.53339167876282e-09 -3.4778828488890034e-09 -3.04344548919906e-09 4.191274979910274e-07 -4.656062012735131e-06 3.6430364362918026e-06
145 -3.797528822875116e-10 -9.248979473016067e-10 -6.942451938534392e-10 5.554922752740467e-07 1.0507748497207375e-06 -7.176123015916721e-08
427 1.9769136138178245e-09 3.2374070409947566e-09 -9.36360536243767e-09 -2.936843092159718e-06 9.42114961481631e-06 1.0131142966190577e-06
380 7.465984920539136e-10 4.421034158497071e-10 -7.190789094179863e-10 -1.5351401981311957e-06 7.543516884532877e-07 -6.552973752007782e-07
153 4.792795989004625e-09 5.130373045505508e-09 2.226717165624195e-09 -6.31991301716301e-06 1.8802252161211331e-06 1.5135212715684227e-05
12 9.688609564170846e-10 -3.214458335692073e-10 -9.572786262890992e-10 1.6014952047156975e-06 -1.1503366302814095e-07 -7.146374941974895e-07
443 -6.624212692647313e-10 -7.303662417339716e-10 -5.701787491713521e-10 4.884216108678478e-07 -7.897371332005066e-09 -2.565761893641719e-07
167 3.713163892709022e-10 -6.014456628234714e-10 -6.581792346264014e-10 2.5520947274002314e-08 5.925186904812619e-07 1.4358231766722165e-07
47 -1.107e-321 -1.1e-321 1.1e-321 26.245517918479475 -66.084262489868 -310.962079389011
209 1.3438817116400763e-08 2.1189111994734582e-10 -8.507477689921907e-09 14.8423737808761 0.2313838909084792 -9.36789418603201
208 9.066920581406669e-10 4.867790082585794e-10 2.568674255545271e-10 -2.5005047947058324e-06 -9.003564956661141e-07 3.4299209188510765e-06
377 1.8026078500111595e-09 -5.120845760831395e-10 2.002135281064721e-10 -3.0753651828590177e-07 -1.356795456836399e-06 -2.806448263637367e-06
179 -1.4753057176840698e-10 -1.4816572240960088e-09 -3.165168159848839e-10 3.438169539800128e-07 -3.2188398646301725e-07 5.68538492435623e-07
28 3.281844409710113e-10 -7.7811523892768e-10 4.613760319279656e-10 1.455184188056562e-09 9.754211830536425e-07 1.8501118469756846e-06
488 4.828680058976774e-11 -7.000180410946746e-10 6.331474553069176e-11 6.465339605981105e-07 -5.958631676808836e-07 4.428521103806614e-07
277 4.0403512993320486e-10 -7.023825138670071e-10 -1.0347299386340584e-09 9.660325672991308e-07 -1.4236260901001259e-06 -1.0579292103994999e-06
193 -1.473427950822774e-11 -9.233058940550832e-10 -1.1198808190063505e-09 8.460229761209307e-07 -4.0543387913338915e-07 -2.150414048697292e-07
317 2.2113893798533647e-09 -3.6026572154097387e-09 -1.0884075949305387e-09 2.5869290275243237e-06 3.672193272473884e-06 6.805390544572744e-07
146 -9.489505672648406e-10 1.951510605624535e-09 -1.3656713837898428e-11 1.95794453932079e-06 -8.820710292423661e-07 1.7341467835434072e-06
138 -1.91782077873305e-10 -1.2009645837148684e-09 -3.4119577146625585e-10 1.665173136701064e-07 1.330026779694457e-07 8.842791025804661e-08
316 -1.4219626759773587e-10 -1.7377683210558278e-10 -4.2544562069316294e-11 -1.0838176104446785e-08 7.65653042762263e-08 -6.955755409166267e-08
374 -4.630517780551552e-10 -5.407152800136603e-10 -5.705293470309994e-10 1.5973133971989029e-07 -1.7489204156708085e-07 2.0117962247350008e-07
132 -6.307129252458723e-10 -5.4355136496732e-10 -6.771665868005158e-10 -2.8474008580836815e-07 2.5504577608704606e-07 -1.953095177513572e-07
409 6.272528483567672e-11 -1.1404727181112586e-09 -5.454081625158256e-10 -2.499737809703626e-07 -1.563182011613646e-08 -4.5317275001370664e-08
201 2.710922006552034e-11 -9.337800311680963e-10 -7.580513834426881e-10 -5.119738854747167e-07 -2.2200777199830377e-07 -2.437592142461166e-07
296 -8.200631271267746e-11 -5.841299308920785e-10 -3.3575855970693025e-10 -1.422254484497514e-07 3.8275386529425517e-07 1.0884690162967443e-07
438 -4.2625233436995815e-10 -5.387278304380746e-10 -6.540161497344555e-10 -2.0004666319358426e-07 -2.0390820892793641e-07 1.339831888249415e-07
123 -3.092566369045458e-10 -5.648459357205405e-10 -2.9378630571980006e-10 -2.804108792298589e-07 1.0781526196169194e-07 8.241505693839512e-08
390 -6.170244487887846e-10 -8.377320811763871e-10 -9.54686098601123e-10 -4.7317383678768735e-09 6.088344923919681e-08 1.260042230210472e-07
361 -2.2746455040595282e-11 -1.1352721673980007e-09 -1.1602944820286845e-09 8.090988476601912e-07 9.005925162399286e-07 6.178591911051036e-08
142 -2.6842475729164503e-10 -7.639314865631343e-10 -3.180334395143765e-10 -4.980904325142465e-07 1.2239259114979953e-07 -3.620961766771395e-08
326 -1.9916060073339027e-10 -6.487211409684086e-10 -2.01541181446004e-10 6.083894073499145e-07 -1.4383108255070503e-07 2.10766328856366e-07
213 -7.523023675092333e-11 -8.810727389389908e-10 -1.635870486377099e-10 1.0118208218530307e-07 -2.13253883300813e-07 4.259143377043891e-08
416 -1.2045806108098944e-10 -4.267436169184101e-10 -1.5869177794399259e-10 8.388105075301372e-08 5.5281098552619246e-08 -9.837145940607738e-09
243 -2.147763167396991e-10 -9.46078901637619e-10 5.351279478173021e-11 -5.466854006574948e-07 -1.4575534976676783e-07 -1.0944997050657003e-07
87 -8.162720263942055e-11 -2.2870941511804155e-10 -2.3183083831591402e-10 -2.6753643765412073e-07 1.1933209921731466e-07 5.6251798781492074e-08
405 -1.0657793697473528e-10 -2.3147313522907271e-10 -8.390626680108487e-11 -6.978018738532859e-08 -6.65043572217173e-08 -1.3136214629175371e-08
422 -8.31080426576551e-10 -1.549188254449187e-09 -1.5738860978545061e-09 -6.966244226739779e-07 1.6438060371579698e-07 -1.6170625532427519e-07
100 -8.607986813822368e-11 -1.1733532703420152e-10 -1.1709777963698153e-10 -4.663222272668895e-08 2.363107555448167e-08 1.3641085685202123e-07
55 -3.861091413542446e-10 -1.4314849584268862e-09 -5.932269133514092e-10 -3.3646336795106614e-07 1.2198483549063691e-06 2.2804251173083174e-09
353 -9.98029218453784e-11 -1.5167174441751378e-10 -1.5043730158601402e-10 -7.315069965248304e-08 6.875957180130048e-08 -1.1551651512403407e-07
367 1.3300569294544811e-10 -7.436366149056291e-10 -4.725388797783419e-10 1.5118404678269923e-07 2.982702213427546e-07 2.1570874230429336e-07
161 -2.243158247914269e-10 -3.83822283281586e-10 -4.0293084972324495e-10 1.138704069207799e-07 2.441960443124878e-07 -1.8199735824886608e-07
40 -2.851014761772494e-10 -6.78048803775935e-10 -4.78886391491378e-11 -2.857014886756777e-07 -5.940548352517206e-08 2.4428357698711395e-07
432 -1.1294274786757433e-10 -9.208379528927618e-10 -3.7654112355674273e-10 4.0662762990455936e-08 1.9417167787249687e-07 8.857916550672844e-08
275 -3.791378291204867e-10 -4.726396978273799e-10 -5.514171503255199e-10 -2.2601923536148842e-07 2.1636108006635387e-07 1.869202737356664e-08
302 -9.243992923895004e-11 -1.1159074452086488e-10 -1.0550941968433048e-10 -6.970432552723375e-08 4.1229777571205884e-08 -1.0896841437993423e-07
59 1.1500577014965804e-10 -1.392617209706761e-09 -2.983447334943107e-10 -5.336126283626375e-08 -5.026550812335745e-07 -1.17383371225351e-07
168 6.916602267944494e-11 -9.85021609229636e-10 -7.269056018582817e-10 1.8464551459375165e-07 5.738835842188193e-07 2.6237761860397746e-07
133 -4.3116581924834146e-10 -1.2464837337136996e-09 -7.297414204521511e-10 1.767050899775532e-07 4.5008809622304406e-07 2.561066991631416e-07
343 2.021274588596567e-10 -1.1107664139927773e-09 -7.463150860326116e-10 -6.74670018399673e-07 -5.602247044956577e-07 -5.417796814867227e-07
247 -1.4742661243491103e-10 -2.4133417715911575e-10 -2.1112885044076326e-10 -2.25125766591819e-07 1.1911854927477168e-07 -6.926472634834236e-08
415 -2.3736855793130615e-10 -3.9705673646395175e-10 -4.0188328808329657e-10 7.459028168150501e-08 -5.4704868065644415e-08 6.069798035020847e-08
283 -1.6591990483523167e-10 -1.9466972925248846e-10 -4.7706408386009303e-11 -1.2541335954865227e-07 2.1952765950311098e-07 1.7967370436131405e-08
139 -8.460083029504166e-11 -2.0014704217731574e-10 -9.837771175288116e-11 -7.235477283747304e-08 1.4405838465378225e-08 -8.53557130327695e-08
333 6.421560644511779e-11 -1.0583236727546603e-09 -2.348382581360367e-10 7.149260266978196e-08 -1.8858385225367436e-07 2.2576305515328612e-07
266 -3.822493785092044e-10 -4.1859598082791035e-10 -4.473050697891202e-10 -3.37803118891226e-07 3.086790936363116e-07 1.260148187054606e-07
300 -5.444934924604884e-11 -3.188281609436355e-10 -2.4719842083317475e-10 -6.075328530048962e-09 1.7981559549522548e-08 2.2847545555066144e-07
258 -2.0465879427208168e-10 -8.537443879433569e-10 -2.7493270757792953e-10 -3.6434842303123746e-07 -4.6213626668064374e-08 5.579510749747963e-08
477 7.949991040096077e-11 -1.157030050286271e-09 -1.330393265778581e-10 -1.4740516734993963e-07 8.340401393829351e-08 1.6333357610824214e-08
66 -2.1474885602965768e-10 -8.403133118312835e-10 -5.506906509972932e-10 -5.477760645953496e-07 -8.688574407077423e-07 -3.3362403858276955e-07
340 -3.629155683821117e-10 -5.06878249672865e-10 -1.1495842914984588e-10 -9.127806079707452e-08 -1.3599986380818702e-08 -2.356276892493134e-07
217 -3.941310816218602e-10 -1.0695488533920002e-09 -8.990233070905537e-10 2.1420092448995233e-07 5.062781064817985e-07 5.98574602269608e-07
434 -2.4976764089992204e-10 -5.703440848797827e-10 -4.6402709039373545e-10 -2.16537773367025e-07 -2.167888890378857e-07 9.653600537990569e-08
80 -2.457156448440601e-10 -9.507768948859266e-10 -2.5085301082998557e-10 6.688910164984832e-07 -5.495079557079618e-07 5.553896606328707e-07
481 -1.419648040338996e-10 -5.66970403337535e-10 -3.297316667324146e-10 2.0620766901628382e-07 3.403154809791293e-08 4.0191483709005406e-07
291 -3.284081423120257e-10 -4.330925071668079e-10 -3.2295784964562024e-10 -1.720484892241854e-07 9.089694483580697e-08 7.15475572145842e-08
444 -2.3598840539463526e-10 -4.1567065567689673e-10 -1.221539264627438e-10 1.0014757725321383e-08 7.690181789321056e-08 -4.294967608994934e-10
188 7.321851641100868e-11 -8.005109969952258e-10 -7.570357360158406e-10 6.577725440978936e-07 -5.739801856891607e-07 -2.5220651015994947e-07
210 -1.7682597650139967e-10 -5.121765161612462e-10 -4.4408201770931924e-11 1.1421853789319587e-08 -4.795167956121161e-09 5.177991655540376e-08
42 -8.46899977313099e-11 -2.6603073506281457e-10 -2.1676003815292766e-11 -1.6292491822808393e-07 6.525598454274586e-08 1.6761140206206605e-07
163 -5.077507467693343e-10 -4.449250047250028e-10 -4.5895510559209976e-10 3.046952507798823e-07 -1.402350326313496e-07 -7.337739310302756e-08
362 -2.3813219958035097e-10 -7.532058540510037e-10 -2.1182674752398107e-10 -2.2128667877099905e-07 -2.265433671504175e-07 -5.082645494422738e-08
289 6.317245819458359e-11 -8.447463972229401e-10 -5.614223922912418e-10 -2.6496270029506473e-07 -4.781900069596272e-07 -8.27808835633396e-08
58 7.019037568132774e-10 -1.675169748435233e-09 -8.196758062319497e-10 -5.256392505308909e-07 -9.960812078741962e-07 -9.09387388299462e-08
312 -4.6004445357479023e-10 -1.2869425664372909e-09 -1.0173345087882167e-09 1.111722051333899e-07 1.8898188402886537e-07 8.890446759653672e-07
4 -2.819172443910171e-09 -8.530369783386307e-09 -3.624123312531321e-10 -1.6490760266751117 -4.98815948353397 -0.212210766341973
456 2.150278419176024e-11 -8.383881721498693e-10 -1.217721189990909e-09 -6.249721508475287e-07 -7.411728418184633e-07 -1.5820896476613692e-07
267 -1.3150009314224728e-09 -1.139263840694211e-09 -1.2594445968347148e-09 -9.357030496026605e-07 2.4774913823524744e-07 4.82752877381645e-07
421 -7.927587581650433e-10 -9.88450552807597e-10 -1.0463600836254882e-09 -3.147439748203871e-07 2.89832684866963e-07 -1.2393614063698766e-07
22 -7.367766850447904e-10 -3.20292452505458e-10 6.705498930122242e-11 -1.1992807311747949e-07 -7.307351934201997e-07 -1.7154020798072174e-07
335 -3.0073788848735435e-10 -5.122422989902186e-10 -3.6322579579776713e-10 5.594244672699099e-07 -5.766518070784705e-07 -7.177520014045759e-08
64 -7.976937587310012e-11 -7.269999415017877e-10 -1.0122025562134214e-09 -3.012149728341277e-07 -4.773795968188785e-07 -1.2160420529766533e-07
303 -1.4586553184110004e-10 -4.2364975796107687e-10 -2.0312625913788937e-10 2.268915903517974e-07 -4.666102937941238e-07 -3.361290758621565e-07
199 -1.6516617286011057e-10 -2.350549955272285e-09 3.656493142449091e-11 -1.609045429663781e-06 -1.2237982420993693e-06 8.053196230626094e-07
470 -1.222407349660145e-09 -1.9103934645912856e-09 -1.11589198340172e-09 -1.7987901923513532e-07 9.264695546385178e-07 5.360794364971837e-07
191 -1.2142564355462712e-09 -8.913767517549455e-10 -1.5406973988367353e-09 -5.35707264875755e-08 -1.6733228915539653e-06 2.0360527731279837e-06
369 -2.594995666692145e-10 -1.7918999225519726e-09 -1.9771176251247874e-10 9.692192173080117e-08 -1.1567150662783294e-06 -1.216542504893673e-06
74 -4.228900683803661e-10 -1.2355684229019526e-09 -1.9177097128240373e-10 4.0315251930371116e-06 9.669488574082228e-07 -9.161451773573658e-07
103 -9.99053145184008e-10 -1.855814928579487e-09 -1.6949938337095103e-09 -1.281724215505859e-06 1.1725361624982977e-06 -7.903162549758564e-07
447 1.6253550252230918e-10 -5.789484805011836e-10 -3.108317579617784e-10 -3.0099796501519893e-07 2.5141092300995205e-08 -6.235789819002636e-07
148 -1.4831916091111317e-10 -7.692300652168822e-10 -4.735540538357166e-10 1.4990359335734266e-08 3.7304211050107784e-07 -2.0941223610059295e-07
186 -2.732480372495987e-10 -1.3929641508774351e-09 -5.81058831036004e-10 -7.913946285736026e-08 -3.529420868607509e-07 -2.1483911007194784e-07
107 -1.7162158215851943e-09 -8.093537865431229e-10 -2.2411307567481075e-09 -1.3507402260508676e-07 1.018001932273139e-06 -1.466470268672905e-08
350 3.8976983501033493e-10 -5.964645940800974e-10 -2.41271862389363e-10 5.392522224147777e-07 2.9455970787483014e-07 5.198937110344545e-07
309 -1.129700987766754e-09 -1.0787798393872492e-09 -6.452150336937526e-10 1.0459182406668958e-06 9.6757870685283e-07 -2.085052612629918e-07
298 -6.075491538620192e-10 1.718097960443476e-10 -1.1964056908238808e-09 1.2266470943069122e-06 -5.542138471562711e-07 -1.2280820521086005e-06
38 -5.684647906692052e-10 -9.764641422852938e-12 -1.9400979186644881e-10 5.591802714109245e-07 -8.200654945193904e-07 1.1238149654333578e-06
411 -7.85580690361481e-10 -8.411609859464879e-10 -1.131817958037498e-09 -5.805964994052391e-07 6.723870933615159e-07 4.622518093466903e-08
324 -2.854572373879371e-10 -7.507624754435726e-10 -3.4728572734210946e-10 3.27988569147989e-07 -3.4454942549265393e-07 1.6323695920865612e-07
440 3.744368165129886e-10 -5.841641818191079e-10 2.2998327837795797e-11 4.295110110142168e-07 4.828132742719087e-07 1.004803098915997e-07
472 2.1391608464062518e-10 -7.333320796666082e-10 -7.63317279265584e-10 5.130316027920817e-07 3.406511599782276e-08 -3.0454091552663716e-07
90 -1.4550180079970879e-09 -2.368413968591472e-09 -1.307602933674064e-09 -2.1336228868640007e-07 -3.8816262547807736e-07 2.1743792598304715e-06
446 -8.635259998513698e-10 -1.2553563544224156e-09 -8.201091904893421e-10 -3.635532566588224e-07 -3.177910893182946e-07 -5.308409918077787e-07
366 5.309331882104766e-10 3.034769153532231e-10 -4.890706440147988e-10 1.22930482956164e-06 -6.720912024659527e-07 2.889785571610583e-07
419 -1.1352240306252165e-09 -9.627639473277687e-10 -1.2400441313211865e-09 1.8978787453312444e-07 1.8729289777995136e-07 -1.4727433367876823e-07
372 -6.990903916587546e-10 -1.6491394289223124e-09 -9.341067320928014e-10 1.5330302174316707e-07 -1.0048608763455747e-06 -2.6965271606704625e-07
500 -1.1614322176880632e-09 -1.4744349134237574e-09 -6.835587240058533e-10 6.305950718320594e-07 -6.747380540506507e-07 -9.68935913870245e-07
184 -4.1992921226435534e-10 -1.3595332644417062e-09 -2.9371249689774404e-10 1.400687574516017e-07 -1.1092882341138656e-06 -6.128049669395784e-07
315 1.3600062419886112e-09 -1.56784542859698e-09 4.228474997700246e-10 8.35017355549657e-07 -1.1068919168698942e-06 -1.162901977760697e-06
370 -1.2212205523083449e-10 -1.9906454249456442e-10 -3.4636899259162377e-10 -3.489718861420638e-07 3.1831791420632215e-07 2.423449980967136e-08
218 -5.972289432894488e-10 -2.048683167301463e-09 -4.270621517401946e-10 -7.53919539401136e-08 3.8444027992219217e-07 -5.02068637786099e-07
149 -6.59214857063213e-11 -1.526588766759549e-09 -8.052367230952667e-10 1.498300592206782e-07 6.525990053119246e-07 -1.7645595400501426e-06
494 -5.170161352046911e-10 -5.260613078818055e-10 -1.100843073548835e-09 4.514146988849398e-07 6.354595608054549e-07 -2.708134745893776e-07
32 1.1e-321 -1.107e-321 -1.107e-321 -164.84199614175418 -250.4815919862823 307.3225324935862
499 -7.549805660434864e-07 3.757521070526783e-07 -8.300817580198967e-07 -0.0009592807766217129 0.0016187313195350534 0.0028037832168910032
205 2.354453721078321e-07 1.396236654759472e-07 -3.7148885154145063e-07 0.0002964566051176826 -0.0002655664184045845 0.0002110000163049424
37 8.22552722327918e-08 -2.0777580236918817e-07 -3.3666032979207795e-07 0.00025322587452213964 0.0004043579817378555 -0.0001867103414793164
54 1.107e-321 1.107e-321 -1.107e-321 -807.3452895902758 3552.416067657551 1589.2813852646045
102 7.838394068487889e-10 5.052158680661164e-10 -1.2181156898381788e-10 -4.2722938330937866e-07 -5.443202934039293e-07 1.602277212737265e-08
88 -1.1253104116766317e-09 -1.5348555330486457e-09 -4.3785152307470374e-10 2.9188741822247035e-07 -1.216419209340554e-06 -1.142044879879078e-06
86 -5.521712869067508e-11 -1.321499500386753e-10 5.248180903696731e-12 2.5936402516610115e-07 4.22635571799069e-08 6.607469170869258e-08
229 -6.225672002899989e-10 -1.1900279354131609e-09 -2.9595321139506676e-10 -4.721260931044876e-07 -2.0867969772859287e-06 -3.538079642408698e-07
182 1.5080183978354096e-10 -9.875492592346284e-10 -2.077408351312093e-10 6.298393467340358e-08 1.2270063407948968e-06 2.4807597657208917e-07
34 2.0633596793233224e-10 -4.935136627412513e-10 -6.331342266644935e-11 5.057403246631108e-07 1.6030648203677487e-07 1.1128408150865936e-06
94 -4.758485270139513e-10 -3.365328337038074e-10 4.827503941017723e-11 1.7735158651616294e-07 -9.508957834431361e-07 1.804316423928928e-07
70 9.121895853945335e-10 -1.2239398813121896e-09 3.383507502633061e-10 2.430772137127581e-06 1.0694751653159956e-07 -5.793452285444689e-07
388 -8.828990789784763e-10 -2.0002343335424724e-09 -9.795924862587263e-10 1.420178766331839e-06 2.797334253183917e-07 -3.576604435046719e-09
61 -1.9750310505302493e-10 -3.3568332999440428e-12 -5.050152508530161e-11 2.109817105780001e-08 -2.156076603661131e-07 -2.6805118724796247e-06
127 7.221918984930497e-11 -1.9535338251376995e-10 -1.0007271086071818e-10 2.677021805102185e-07 -1.6425213622517585e-08 9.594873678860508e-07
126 -7.191705519956147e-10 -1.7874553267906956e-09 -1.1949794220667896e-09 9.972401855555515e-07 1.2767888677371374e-06 1.2612113451223633e-06
227 1.903540121379754e-10 -2.9093356930530015e-10 -2.4156988892325038e-11 1.9549720450321544e-07 -3.808992462656596e-07 -2.3029899768295169e-07
250 -1.2669329977994545e-09 -1.7411897680699923e-09 -2.076438249420723e-09 -4.1957209731235454e-07 6.952831664919232e-07 -4.6654735480873847e-07
436 1.2820404896373137e-10 1.505655097507462e-10 1.802438848165609e-10 2.0978846172577322e-07 7.688163047368487e-08 2.894777919644422e-08
462 -1.1856449159539125e-09 2.243733166834886e-11 3.661825880832298e-11 1.4659775144413664e-07 2.2179910153960923e-07 -3.331589673928917e-07
206 1.6361904313089554e-10 -3.423558915107927e-10 4.075815807618939e-10 8.168618760700447e-07 4.857373846995052e-07 -2.6175384890695614e-07
330 2.558866395633241e-10 -2.453341805130187e-10 7.385277127010281e-10 -9.606167084344978e-07 -9.56759722112836e-07 -2.8165342436359026e-08
52 2.8533320569829506e-10 1.2267853989081349e-11 -7.08147560689982e-10 -1.9167706357464866e-07 3.55560640874401e-07 7.258943895130378e-07
141 -2.862316777513596e-10 -2.759310293446076e-10 -8.19100822372927e-10 -5.895430794524156e-07 -4.778774870653947e-07 2.3461236715338273e-07
49 6.331819687384141e-10 -1.4303317231213998e-10 5.518797248579084e-11 -5.061999551573593e-07 1.2459323320325282e-07 -3.038446453460106e-07
254 -9.708635894179365e-10 -1.681056445349688e-09 -2.2551777214416266e-10 6.737620790917822e-07 1.4861768009572099e-06 -6.389695409633998e-07
36 -1.0322708236568699e-09 -3.2402543932753796e-10 -7.651228362240498e-10 1.717386860686762e-07 -4.859882652942859e-08 1.7973310046244204e-07
134 -9.49142506989811e-10 -2.0680604325849527e-09 -1.4045914157042792e-09 -6.287957902300947e-07 5.731594562849947e-08 -8.286714707508893e-07
355 2.2909187401472616e-10 2.6956476088340155e-10 5.855381284943e-11 -9.999289281484403e-08 3.146230567964837e-07 3.9970389146508466e-07
46 1.0093792076383295e-09 -1.1972943116868439e-09 -8.4005815049454e-12 -6.651634412966375e-08 1.0352557540988826e-07 -1.8657325595697157e-06
256 -7.488871578969935e-10 -1.1582347116857049e-09 -1.159887112610624e-09 2.1467413493260494e-07 3.2138779360647663e-07 -9.649772232573268e-08
428 -7.096695377602638e-10 -8.478325374582063e-10 -7.324849075398312e-10 7.851423319431659e-08 -7.816210086326007e-08 -1.5382010047637214e-08
190 -8.619334233886532e-11 -1.0136344952330567e-09 -4.892241214348776e-10 -5.737964266870994e-08 -2.6121158556716826e-07 -5.048501842767708e-07
105 8.74240437773005e-11 -3.473555442132291e-10 -2.536463657194533e-10 -2.1115111404564107e-07 -1.7235197374653237e-07 -9.423167983564468e-08
194 -2.3319632681307557e-10 -1.4321956062144012e-10 -9.974427450344683e-11 4.333770368471924e-08 6.591416718888361e-08 -6.338695494513292e-08
468 -7.402428881256119e-10 -1.1905996741045978e-09 -9.760080190003354e-10 -1.4879621153420163e-07 1.7041108917323492e-07 2.1124340377960207e-07
128 -8.201650955369034e-10 -1.2168940838277652e-09 -1.718229296837084e-09 -4.198091702593374e-08 -3.775994398449002e-07 3.651878665407239e-08
454 -1.6316920726571766e-10 -7.238550765649221e-10 -4.4649118592866764e-10 -6.233280787875634e-08 3.420844579769687e-07 -1.573368865627215e-07
287 -1.0440036413256727e-09 -1.7254233544360444e-09 -7.020356897366697e-10 -9.336599810544097e-08 1.701155483814109e-07 -8.976840200984963e-08
160 -4.3445288580515663e-10 -5.857827386337742e-10 -2.066143208602026e-10 -1.1961942504062305e-07 3.359625543513838e-08 -8.376477962122005e-08
459 -4.742145004302596e-10 -3.9921657352869176e-10 -2.650681836055267e-10 -1.383755000350912e-07 3.051287365543914e-08 3.88461758610477e-08
241 -5.524370782991759e-10 -1.1946090732713553e-09 -6.543206335755894e-10 2.103870364026685e-07 -8.760293765401475e-08 8.956658568879245e-08
255 -5.818930592583226e-10 -3.7292236006666865e-10 -1.0207265811020682e-09 -3.67668117084288e-07 -3.994675531041812e-07 1.578467002343886e-07
75 -1.6463448748346061e-10 -1.0178488688969314e-09 -2.1642819117346778e-10 2.353538501794762e-07 -1.0712823447384533e-07 3.054075018491226e-07
349 -6.745276271597954e-10 -1.0120464398798325e-09 -9.940462340459797e-10 1.1636655544663077e-07 -1.851192043998545e-08 -1.0265612922474925e-07
272 -1.5830853586447357e-10 -1.301433223751725e-10 -9.964518854558723e-11 -6.353295603033149e-08 1.2351163730038762e-07 1.5234355319139419e-07
382 -3.8582166728715924e-10 -4.988648346886819e-10 -2.82876305826119e-10 5.215002415136115e-07 -1.22493748440235e-07 -2.1969911115517005e-07
334 -6.144629456964792e-10 -8.681534438874757e-10 -7.961015710825908e-10 -2.2138803838969045e-07 8.293810800797922e-08 5.586367985281045e-08
399 -8.702726196202496e-10 -1.5523114398653997e-09 -8.627990577114622e-10 2.4590240558302134e-07 -2.7187529055459576e-07 -3.5956096595460495e-07
412 -6.305304284198515e-10 -1.2031063669285594e-09 -7.88080626564971e-10 -5.401880006295904e-07 -7.48864338402208e-08 1.5157709789827258e-07
375 -8.346176648037774e-10 -1.1759563212128849e-09 -7.065625586937247e-10 -2.456400471002677e-07 3.626367224760552e-07 -3.206447098525459e-07
467 -3.3198938527561845e-10 -8.04797108847132e-10 -5.440191799421515e-10 1.6326889897850295e-07 -2.7344440061752844e-07 3.3111536336720364e-07
245 1.6486987132755215e-12 -2.6435361040450437e-10 -1.257682934087541e-10 -2.0142241661399816e-07 -1.0463110828889945e-07 -1.1590937854711709e-07
450 4.2180693645222316e-11 -4.6068307022108106e-10 -1.3509706498141052e-10 5.8562610251167134e-08 -2.7033364734897668e-08 -9.91624404216848e-08
63 -5.830564807022376e-10 -1.254253318207259e-09 -1.5337358660953844e-09 4.794537318176441e-07 1.3586368696576037e-07 -1.1595224644776366e-07
479 6.622888178236492e-09 -2.185167864506976e-08 5.079959790693221e-09 29.090594900358784 -26.79631809341699 -10.680314322658232
376 -1.1584942177358734e-10 -3.317387292339017e-10 -9.063999924435822e-11 -2.0954791626456357e-07 -4.124045510082662e-08 -1.741996585537304e-07
475 -4.565821576551204e-10 -8.521376204021924e-10 -6.860939564676313e-10 -4.121214993398906e-08 1.1067345971604995e-07 -1.4372013642200723e-07
211 -3.885728980176864e-10 -7.566673168795463e-10 -8.360438063059021e-10 7.358837295837081e-07 6.055305789115275e-07 -3.221750613341046e-07
164 -1.5943542758783135e-09 -1.5906747989000414e-09 -1.1564807889791263e-09 -1.792484149836841e-07 -4.2723498278937246e-07 1.0940815925350263e-07
30 -1.3522481206269508e-10 -3.0082685123107555e-10 -6.561206021329821e-11 -2.6341648998914483e-07 -9.482953544648833e-08 2.8295551917807725e-08
339 -4.404911672679273e-10 -5.229146860048857e-10 -4.674039301142191e-10 -3.632926204773189e-07 1.77337402370813e-07 1.504950571697128e-07
310 -4.100711930909111e-12 -2.710909069881014e-10 -1.1802662436582315e-10 -2.6095478887597143e-08 1.2194450419796563e-07 1.3154373100152414e-07
151 -6.574922520059491e-10 -1.8524926241563729e-09 -7.904722304886174e-10 -8.692508612779205e-08 -4.5274612126502235e-08 1.3367492526994467e-07
79 -4.660154321644238e-10 -4.4727143580809376e-10 -7.193655170322559e-10 -7.319536820471923e-08 3.120444641391114e-08 -2.492811677363194e-08
331 -3.688265929554227e-10 -5.837252955247899e-10 -2.647860728400137e-10 -5.952992164628945e-07 3.6490701575608715e-07 2.6036268283719845e-08
185 -1.673858763695956e-10 -2.892195446048584e-10 -2.2102529510951795e-10 -3.14871592002181e-07 1.2345897536150899e-07 7.905403078149359e-08
270 -5.078907275151948e-10 -6.563734709064871e-10 -5.820203800363903e-10 -5.088685934606397e-08 1.336978947214953e-07 -1.8511792071612152e-07
461 1.5055307128769782e-10 -2.7624692466071756e-10 -1.7381648986051778e-10 -8.42826942441564e-08 -1.1994206402904314e-07 2.050710488033989e-07
39 2.366003132158366e-10 -6.725843524025504e-10 5.615122197434761e-10 9.454678087718909e-07 -1.2324044535244703e-06 -5.267399994822538e-07
171 -1.0080749851699476e-09 -1.0823940275957933e-09 -9.50985351823885e-10 2.7993838871754103e-06 9.133293964684913e-07 5.120634453524108e-07
378 -5.665310179155984e-12 -3.329175603657736e-10 -1.8172724023532038e-10 -2.8859558519423704e-07 -1.3417978511770853e-07 1.9612899644370601e-07
299 -5.18194736636139e-10 -5.825281981662453e-10 -5.828502427291837e-10 -2.0184087971262523e-07 5.723536771623089e-08 -9.118158390138305e-08
8 -4.13317830139562e-10 -1.1124819022022082e-09 -7.491903054584712e-10 2.2053743166638648e-07 4.747332414377302e-08 -4.6310813544821196e-07
233 1.6119547985220482e-10 -4.818597467209832e-10 -4.666101458464959e-10 8.735088983907013e-10 -5.0921634438329326e-08 -8.25500875362359e-08
404 -5.233211481587221e-10 -1.1193313091393783e-09 -7.954472570200967e-10 2.1305291740543524e-07 -4.351277511737659e-08 -3.0798882022244996e-07
82 1.0002372496437158e-10 -2.554269210881895e-10 -7.824826532274604e-11 7.189550571979166e-07 -2.5839615685562238e-06 -1.0221438313656842e-07
53 -4.4977523644175305e-10 -4.708863769086418e-10 -5.189059723977545e-10 -2.2160861669109023e-07 1.0320674732173975e-07 2.4400098742055286e-07
313 -4.027025164518919e-10 -5.185154957231063e-10 -1.6899816797720382e-10 -4.6483576838823456e-07 3.8096997032493486e-07 3.874858228930056e-08
143 -1.1041004144238848e-10 -4.877329927860776e-10 -4.4865823884695187e-11 -3.202094635080514e-07 1.0939714677415701e-07 -2.6490974865455157e-08
155 2.2445268237297386e-11 -6.198882005965238e-10 -5.022427440160725e-10 -2.0043910500107856e-07 2.437798107970743e-07 1.277352232773154e-07
98 6.26490525553056e-08 1.7245905127778064e-08 -6.46201133022246e-08 5.070639929853838e-05 -8.347441915103706e-05 9.379870282318603e-05
170 -2.3236015717052591e-10 -7.9539472811404e-10 -6.849806620365912e-10 4.583315968415547e-07 -1.7808123287998272e-08 3.2750357834342154e-08
431 -5.0175523193187e-11 -4.965076325350843e-10 -3.6815288692072015e-10 -6.020608758512332e-08 1.527844971888593e-07 -9.939171959852748e-09
246 -8.380151349473026e-10 -1.4542564192825996e-09 -3.6158378260410663e-10 -1.1986690238730548e-07 -3.7593529248522175e-07 2.3147804191221067e-07
45 -1.1028328776193978e-09 -1.714707887855466e-09 -7.847120617874591e-10 5.427888114645835e-07 -1.7651240043789203e-07 -1.1915189242306171e-07
104 -2.1157780040988255e-10 -5.637863281116442e-10 -3.957540079224189e-10 1.7382114742520846e-07 -1.0611291045605413e-07 -6.990407877810646e-08
29 -5.290437686639998e-10 -8.954771314103045e-10 -6.129693625611877e-10 -2.3378881373491145e-07 9.975486544224035e-07 -2.5855297226854844e-07
469 -4.15331058392373e-10 -3.7802446950452017e-10 -4.68729298968148e-10 3.8647637434544045e-07 -1.7401055911425556e-07 1.9374594142490375e-07
401 -2.1544172519983576e-10 -1.016684459532528e-09 -6.284915201882253e-10 -3.496352912022213e-07 1.805938790830255e-07 9.018065634120801e-08
373 6.223885832983917e-09 -1.6596280003470688e-09 -1.4188849066723305e-09 -3.6279351852550675e-06 1.8232669872452107e-06 -5.656123773150317e-06
192 1.0805087484780235e-10 -8.440847643268901e-10 -9.680244534404512e-11 -4.904102147089655e-08 2.632125501666458e-07 -1.9486051120432024e-07
117 3.70862374276312e-10 -1.7316927972846056e-09 -1.968984680737235e-09 6.104859402396311e-07 -1.1944706750144034e-06 1.1574885846636887e-06
329 -4.057410504463552e-10 -1.057855333144099e-09 -3.9727375247946646e-10 3.67425849076945e-08 -6.20360916790908e-07 -3.802293243163103e-07
109 -9.989613847539289e-11 -1.7341987059597133e-09 -2.5763092214876654e-10 -7.186332597787954e-07 2.703205041318437e-07 -2.998843393696934e-07
81 2.1663702376704084e-09 -8.317461330356142e-11 1.448246200027651e-10 2.979205194174174e-06 -6.817544911915523e-06 -4.351857036632426e-06
292 6.4012789935367e-10 -3.4907594717364193e-10 -2.006043247819736e-09 -2.4639657056840715e-06 -1.7869552735099819e-06 1.4910112299842535e-06
319 1.3795279829980557e-09 -2.2141420538285985e-10 2.4037302432553234e-10 2.9296630196012337e-07 1.3408893446732667e-06 -1.7930110411954108e-08
457 2.6055396984666444e-10 5.687719606194036e-10 6.853306098118803e-10 2.5667161561747205e-06 1.0010539720168203e-06 6.219740768690214e-07
379 -4.933437022360335e-10 -1.6294477277558694e-09 2.6870525009256733e-10 1.1458759479708495e-06 1.7749440981388383e-07 6.046743758866691e-07
491 6.16795592417322e-10 -6.720291445494936e-10 -3.6321174637728136e-10 4.429463711569003e-07 -3.2026076296742544e-07 1.0062284388040215e-08
262 1.8958283957329973e-10 -1.2403231816892745e-09 -2.584668425955689e-10 6.270698300807368e-08 -7.934772234246593e-08 1.1795423505316429e-08
198 -2.538093962108757e-10 -1.0639232227192293e-09 -1.1986238748747435e-09 1.8179760902013728e-08 -2.049863674909498e-07 3.183087495569673e-07
364 -1.6792870186385344e-09 -4.0823776745728e-09 -7.108421083672463e-10 4.11777558077319e-06 2.920432154269919e-06 3.6742349630623943e-06
67 -1.5288514843822057e-09 -2.9814827919642075e-09 -2.249183773643095e-09 -5.640138029582776e-06 2.27872338483339e-06 -7.586960617860558e-07
395 -2.1298149265919204e-11 -1.1234117710021413e-09 -6.012314686153134e-11 -1.5329353243986768e-06 1.350372002122638e-06 -4.750516353797267e-07
237 4.268111025348115e-09 -3.892036642367554e-10 5.265591867767397e-11 2.1552242045815943e-06 3.7474018978024963e-06 -1.4531420752276862e-06
295 3.4642594597857497e-09 -3.662744581549047e-09 -3.968184724193592e-09 2.0039987101879625e-06 -2.183496158289152e-06 5.369133118813591e-06
269 2.2386089601814713e-09 -2.058063554752886e-09 -4.604646851976869e-10 -4.972216673664754e-07 -4.7219533156025836e-07 -2.0098621546707037e-06
281 2.8380149014479767e-10 -1.407689944160885e-09 -8.421044957982649e-10 -2.2804013562765733e-07 -6.662661197944866e-07 -1.5543230641464185e-07
181 4.17533003879633e-08 9.317382479682316e-10 -2.3730418581710023e-08 18.219079637613373 19.142961967260216 0.3071271088380244
97 1.0246833837677647e-09 -6.541715746509935e-10 -5.509992938236801e-10 -1.281922765727428e-06 5.805761012018574e-07 8.960534052701449e-08
273 2.1647197967825193e-10 -1.1515618569787173e-09 -3.8545287334855374e-10 -1.7542243337002823e-07 -9.701651031595741e-08 6.352090746563082e-08
337 2.5642560644127224e-10 2.059947630415501e-09 4.057408692271251e-10 -1.7296827475118236e-06 1.0000416373301393e-06 -4.801748952581649e-06
323 1.5513988343382892e-10 -1.1036087773028304e-09 -7.04599381820245e-11 -5.0258975547336255e-08 2.482199301292024e-08 1.8926829686847025e-07
396 1.1359948764705555e-09 7.556727200388158e-10 -1.0775212954591813e-09 -7.345610215410128e-07 -1.7047766337649578e-06 2.9204863326376917e-07
332 1.9977480571002387e-10 -9.961585730139525e-10 -2.7865168005954915e-10 -1.20395130121719e-06 8.430489078342236e-07 -2.8432948269554373e-07
216 1.4194176633414674e-09 -1.49538812121268e-09 -1.1603089292286793e-10 -1.4420033765867826e-06 -1.978900505987829e-06 -7.501162693866434e-07
259 -3.172626367550607e-10 -1.2887642372974139e-09 8.753494582514321e-11 8.957042875746166e-07 -7.232039451897633e-07 -1.4522802970332797e-07
13 -1.0166872838442611e-09 3.471276842780652e-09 2.733043016929914e-09 -3.3903353133901053e-06 2.8845079974492898e-06 -9.627126433996252e-06
176 5.29300558012597e-10 -1.128440610629354e-09 2.2565738248840486e-10 1.7806913203468054e-06 -1.3988815264970533e-06 -1.4438135809287552e-07
371 6.883032571988465e-10 -1.1024001532655408e-09 1.609883783662408e-10 2.977653945356659e-08 -8.450629473379596e-07 -1.3269635498870728e-08
306 2.331472414744972e-09 -1.8835156495307946e-09 -5.919586458130904e-10 2.15515281426596e-06 4.3042640578285745e-07 1.0708505170669242e-06
480 5.324433312279442e-10 3.4875369914708104e-10 3.671341879616754e-12 -1.3710111094767508e-07 1.3139564084330744e-07 -7.350413823431227e-07
294 -3.1164891114662366e-10 -1.4378131621490322e-09 -6.937828861646625e-10 -5.931447733721444e-07 1.174202470305499e-07 3.9926401214471006e-07
311 -1.7580707537441176e-07 1.6271418367267062e-06 -1.474319550099914e-06 0.00029722872618116427 -0.0010919694072389925 -0.0023028320878181346
484 3.052022730231717e-09 -2.353319493430078e-09 -1.4031296594071156e-09 -1.7883462889525528e-06 -1.294217976049885e-06 -8.889777358649688e-07
486 1.0638802814515759e-10 -3.5527040549672935e-10 -1.8416878907152022e-10 5.293022452956771e-07 2.3479660377458876e-07 1.7023845681096368e-08
413 -1.1594099589492243e-09 -8.991321729794566e-10 -1.1967325508990238e-09 -1.0087847385463517e-07 -2.3266455186288349e-07 5.889760566690009e-07
406 -8.148824795272681e-10 -1.7694967162644704e-09 -1.1090471699930329e-09 -5.956009273417941e-07 -7.198308223407982e-07 2.495896402974707e-07
106 4.177109342079157e-10 9.427514166091288e-10 -6.796287762222197e-10 -1.0584613553004411e-06 2.1204983497404456e-07 6.091576558222682e-07
285 2.2240591463248925e-10 -1.7444528649304653e-09 -1.0032876419323032e-09 9.577115701326077e-08 -1.1792345511437522e-06 7.270046512820942e-07
347 1.8071023044672607e-09 -8.469454582340037e-10 -3.441948471479708e-10 8.365665570608182e-07 2.092276014501511e-06 2.0048910360465954e-06
278 1.24889303202172e-09 -1.471173306925958e-10 -1.2106419691755652e-09 1.9578527874454453e-07 -3.478178418599531e-07 -5.512361255827562e-08
360 1.553947648749496e-09 -1.3899070593711777e-09 -1.6174636252231233e-10 1.230380866623434e-06 1.5709470443730016e-06 2.669711810320413e-06
112 -8.1301267492024e-10 9.89007864432002e-09 1.1380159788025056e-08 1.4766059491612414e-05 -3.0228884447288933e-06 -2.9750767515293157e-06
342 1.3076580305880106e-10 3.494065731235458e-10 -5.758454752453982e-10 4.6855628252297627e-07 -8.692355761167377e-07 1.395506921403793e-06
448 3.1492291569440344e-09 1.0778547363737088e-09 -9.167786457249226e-10 1.6138605584197385e-06 -3.0022985904958368e-06 5.969829848884837e-07
290 2.2381541112082604e-10 -8.777885525491912e-11 3.1137297732983817e-11 -1.076141804171416e-07 7.40310883926028e-08 -4.882898873478457e-07
385 1.9585949599769178e-08 2.235021049598188e-08 9.936734555401743e-09 1.331985216741954e-05 8.216210012307926e-06 -2.0953839383061586e-05
320 -1.9595342811365687e-09 -2.4675787958801892e-09 -2.7960086000138103e-09 -1.0738879146716575e-06 -3.4742206905673137e-07 1.1117239595645185e-06
93 1.8975403441708448e-10 -1.2093434185065385e-11 -6.788308267865289e-11 6.036488559144196e-08 3.0681313189437585e-07 7.544678706640611e-07
445 1.5485329815846147e-09 -1.4104558733334836e-09 -1.4251230905199517e-10 -1.4622907963011543e-06 -3.662235416868589e-07 8.230803217523348e-07
453 1.0598853007590607e-09 -1.1224332351260173e-09 -7.840919508424782e-10 1.4206270155528256e-06 2.455836462847954e-07 -1.6987876287247415e-06
111 1.0563332445564594e-09 -6.285973449927946e-10 -4.176449125795935e-10 -5.701062176871642e-07 -1.1195237267160331e-07 -7.418970157204928e-07
327 1.8656370877785875e-10 -1.1048715277887782e-09 -4.880312000282149e-10 1.8255785513709389e-07 -1.1599429410209513e-09 -9.422876093783422e-08
24 -4.914867994689127e-10 1.5889954149333255e-09 -3.366270292314273e-10 1.4174562866695397e-06 5.492072881120475e-07 -3.285688963714668e-06
174 -1.690997940624299e-10 -4.1490423870847674e-10 1.6764832036874372e-10 2.800050668944102e-07 -4.0098605189979745e-07 3.182087324317066e-07
439 1.1727469045291613e-08 1.3654620359221189e-08 6.315288067282773e-09 -1.439010377342073e-05 7.723103799053271e-06 -6.204627659763729e-06
473 -4.5894395309330345e-09 -8.164703542114475e-09 -5.8046129975414476e-09 -1.8214174445270275e-06 -1.0840671161654212e-06 5.4489089701514755e-06
200 -1.7347226122265006e-11 -9.210780085115378e-11 -2.2240578209923592e-10 -2.672364686356871e-07 -5.1560846045702025e-08 6.893319831908785e-08
72 -5.686512981182147e-11 -7.994591827596464e-10 -4.99712621872041e-10 7.983706532023235e-08 -3.823867660809135e-07 -3.7121691682021535e-07
463 1.1765877741484177e-10 -8.438710535227788e-10 -7.867906059252212e-10 -6.135604005099156e-07 3.88155676331284e-07 -5.681123647858207e-08
144 -8.206632241862216e-10 -2.0133991138651548e-10 -9.417211336191305e-11 7.992507510014787e-08 3.4640210320499085e-07 6.21649649306766e-07
3 -9.841330963713085e-10 -5.414636667283918e-11 -6.503627640789887e-10 -6.518720675704591e-07 -9.042226700444949e-07 -7.498778238746771e-07
365 -8.286969981873478e-10 -3.04791544708825e-10 -1.3959657128950953e-09 -1.0172902601644212e-06 -1.1068848513178608e-07 -1.673975816693373e-07
48 -3.4212430582312407e-10 -4.1259958550001343e-10 -7.285332246736662e-10 -5.656433094165562e-07 1.7607885948009363e-07 -4.345882088092449e-08
129 -7.242193371915346e-10 -4.602567317149853e-10 -3.3264606837424346e-10 -3.108253741392809e-07 3.235641195799064e-07 4.260076117200438e-08
489 -2.5307322747074747e-10 -3.200761448614435e-10 -3.8350000346284137e-10 -7.988657287302131e-08 -2.394431999369378e-07 -6.702554156232176e-08
251 -1.6850996717512908e-10 -4.1812038328002945e-10 -3.301106553683792e-10 -1.719341352421213e-07 9.841132643949591e-09 1.4623314426269429e-09
228 -1.6571682257053993e-10 -1.2003200933538785e-09 -4.035802256945352e-10 1.0593205892559378e-07 -2.362374759896799e-07 -2.7075743218692654e-07
433 -3.8602072245342326e-10 -1.0765790558401636e-10 -1.5467293435654286e-10 8.567348358761022e-08 6.069199245491136e-08 -5.516834114664448e-08
318 -9.034370574966695e-10 -2.5428997966121993e-10 -1.1407247966901338e-09 1.256531491643169e-06 -2.944362058676042e-07 -4.4069407729414805e-07
25 -8.695906050633863e-10 -1.2248424153627549e-09 -1.2911330090720099e-09 2.0166015149829412e-07 -6.041435261975951e-07 2.7201304828275006e-08
441 -4.522289369647001e-10 -9.640596679953682e-10 -6.532747986089174e-10 4.1756655815027403e-07 -2.1416863948700944e-08 -1.738488840647946e-07
162 -2.45575805023822e-10 -8.025299421450678e-10 -5.348757900196707e-10 -2.34452705760446e-07 -3.111401146584478e-07 4.196156184898635e-08
483 -2.570380723661526e-10 -7.062533849834125e-10 -1.621821378651732e-10 -2.3140727697215628e-07 1.6364815337759697e-07 -6.864755036429625e-08
288 -2.631524590455944e-10 -6.255562303529396e-10 -1.9477654475848972e-10 -3.2101981047549047e-07 3.5264241990349113e-08 1.925501922853855e-07
56 1.335268698684889e-10 -1.0023610227504695e-09 -1.123011788927647e-09 9.278464631563806e-07 -1.0459413192328378e-06 2.319178851693745e-07
240 -6.230294312387817e-11 -3.216471338121264e-10 -4.865756070587348e-10 3.0351603357469006e-07 -3.9095775444605006e-08 2.5048662836006604e-07
68 -2.2024220815197093e-10 -3.1842246743709576e-10 -1.6079933874836446e-10 1.0159312397830917e-07 -4.2127580184865996e-08 1.156071184234593e-07
92 -1.755683851318087e-10 -3.351181369304359e-10 -2.62925985351773e-10 1.2241281649757772e-07 8.209063533348084e-08 -6.413649125115365e-08
173 -1.274691214338054e-09 -1.4247963424815978e-09 -2.1760370602371022e-09 -6.239971108142379e-07 2.758583849608018e-07 2.3015371991983514e-07
69 -2.4124488906344013e-09 -4.855527169793214e-09 -1.0902049120209392e-10 -507.14350725505534 -830.65782328177 1494.9611413580715
322 -3.7739328442679096e-10 -6.539938006964072e-10 -5.662241633711197e-10 -3.8637916415078614e-07 3.9265640355024854e-07 4.4766091952118076e-08
348 -6.708996259910314e-10 -6.099715863460797e-10 -1.4846847801120605e-09 -4.4889539672126987e-07 -4.792557682781688e-08 3.850866254001594e-07
408 7.493200921113686e-85 -8.676498193908416e-85 -6.765188824466531e-85 2085.9928701929402 2296.82790021805 -1255.5978753524064
492 -6.288291373387471e-10 -1.3285099445302454e-09 -9.482628845996768e-10 -5.7861852364853465e-08 -2.2088669097811166e-07 4.2257893590581626e-07
417 -1.8853486164366108e-10 -1.999143049489306e-10 -5.602055559385844e-10 5.44522226008937e-08 1.9052611110213889e-07 8.685160886746419e-08
116 -1.1178060463305582e-10 -2.7340088802688544e-10 -1.8795696353617336e-10 -7.983369869368579e-08 1.045629716883198e-07 -2.980242028246681e-08
423 -1.7149418991316857e-10 -4.050291283729219e-10 -2.2322271579051382e-10 -2.9979738201268776e-08 -4.821389631796705e-09 -4.3845292140349866e-08
471 5.565060667203549e-11 -9.824537293519037e-10 -1.598247634174145e-10 1.6690059285176547e-07 8.840507279929258e-08 -1.0925013187033505e-07
386 -2.124568133069856e-10 -3.9351851682424195e-10 -1.6604875993016204e-10 1.8251391345547016e-08 3.6211409911529994e-08 -1.0690339943836672e-08
136 -2.928850810962332e-12 -8.54265998932479e-10 -6.428864114437885e-11 -6.432474292627699e-08 -3.138702097260485e-07 -1.2374437942655817e-07
244 -3.488758284788239e-11 -3.81305083846127e-10 -1.4656804888465033e-10 -2.987439226821548e-07 -9.03892637006567e-08 1.498064178327761e-07
187 -5.248597825408176e-10 -2.4220447928621215e-10 -9.885780295746143e-10 3.1642476454273625e-07 -7.174155923219438e-07 5.438023077513078e-07
196 -3.5345718934235097e-10 -4.836496532687774e-10 -5.361951496832501e-10 -2.3774353870263792e-07 3.0393332411607346e-07 6.636250044039667e-08
2 -1.5039627001966676e-10 -1.6669863763517207e-10 -2.2079217228594564e-10 -1.950864999621236e-07 1.733572717495334e-07 -2.4698088453193133e-07
85 -2.346759492107619e-10 -8.936410558722205e-10 -4.798601597683854e-10 -1.0111394014651167e-07 4.459293651101488e-07 3.6748604689256835e-07
301 -2.6027062723448813e-10 -2.675092738233216e-10 -1.2815583966380252e-10 -8.810699991185752e-08 -3.7990109607623965e-08 1.6612972430249084e-07
485 -3.012340374766685e-10 -1.0582997757041843e-09 -3.322480792357152e-10 -1.5424636035719562e-07 -1.61301447092176e-07 9.482809381525415e-08
397 -8.174581209684237e-10 -1.0070453502455687e-09 -9.011430429471056e-10 5.570393039498256e-08 -5.115172297006019e-08 1.2437360811900115e-07
264 -1.9893841081885905e-07 7.783200834765211e-08 -1.3912952277563806e-07 -1585.1398848949427 -1758.2471590623313 802.8605350392538
41 -1.107e-321 1.1e-321 1.1e-321 227.5177583602083 -441.9301903711709 360.7398096087946
297 -7.377891981455028e-10 -1.0038780647838335e-09 -8.320067994939362e-10 -3.296773587845904e-07 -1.1958496260707364e-07 3.605501456927746e-07
113 -9.20681374391134e-10 -2.5067673660519525e-10 -1.365447849004236e-09 -7.806449661089527e-07 3.6419680544534017e-07 5.046962895684277e-07
276 -9.89166153693373e-10 -1.2753570179829747e-09 -1.2259806681579633e-09 -3.5146037411159773e-07 4.1060341020323144e-07 -1.6659235808978545e-07
50 -2.0401569775187404e-10 -8.115028416274716e-10 -4.317577834731309e-10 3.8134349958404625e-07 4.4120112516052445e-07 2.4530516746739053e-08
20 -1.919233544628676e-10 -6.719520549154394e-11 -4.326576838713027e-12 -9.036342642432813e-08 2.5991662418182663e-07 -8.296959114935996e-08
195 -8.344787581954517e-11 -1.436022017182512e-10 -2.086552512476063e-10 -1.355213821182388e-07 8.479960387648724e-08 -1.837431324015324e-07
368 3.9919249972391816e-11 -1.2422866640149846e-09 -2.5189385306181305e-10 1.9917655788347942e-07 -1.897149191764382e-07 2.034758868528251e-07
338 -1.1210069945392167e-10 -1.3761780449257127e-09 -3.4424606174856955e-10 -3.0883661546109473e-07 -2.2998414921268623e-07 2.209147366479427e-07
212 -1.6905299696488258e-10 -3.29505667333899e-10 -2.950595284063357e-10 -2.733516622563194e-07 1.5738739158187709e-07 9.45919917107595e-08
284 -1.1430200709784511e-10 -8.151728237344121e-10 -5.330285523590465e-10 -6.969509797695253e-07 3.5329047493765084e-07 2.524061745859667e-07
137 -4.956940329203562e-10 -5.742356055483551e-10 -2.372074673968517e-10 3.1728132210372144e-09 -5.42140957670446e-07 2.8193944004554107e-07
265 -1.223631404222913e-10 -1.3705110364312903e-10 -1.0014690672728759e-10 -6.610452752331523e-08 1.1751196492735498e-07 -7.041239750188034e-08
286 -3.0665309064127077e-10 -5.633664535264966e-10 -3.3975828094737674e-10 -1.1013135080560844e-07 6.192701512626513e-08 -1.0870831159049597e-07
400 8.849451352662354e-11 -7.494398907234655e-10 -2.8400428515914693e-10 2.7361397430655704e-07 1.9226715651980262e-07 4.027356260966705e-07
204 -6.5191304082969674e-12 -1.209844303081458e-09 -2.375839822747751e-10 -1.0482701742503132e-07 -8.75013278158506e-08 -9.332585171075585e-08
207 1.4130179955766813e-165 8.819909520852144e-167 2.793441634439614e-165 5032.8010192556485 -1293.7249390963934 7412.0251285459835
135 -5.690589181133116e-10 -7.033326921362547e-10 -4.724926542345427e-10 7.362142824337382e-08 -1.2180534656105698e-07 -2.6228818754171787e-08
464 -3.919362878696636e-10 -1.0193719519818881e-09 -5.045076458908454e-10 -3.205449842666773e-07 1.5073742390733484e-07 1.3677138095866914e-07
154 -7.310374460039173e-10 -5.546856017725216e-10 -6.156568182333249e-10 4.633144182691377e-07 1.4451115384226957e-07 -6.317577531707245e-09
7 -1.5880815934969505e-10 -2.980168363264906e-10 4.3379493741951365e-12 -3.800125763533756e-07 2.3095651980118302e-07 -1.9006751103302955e-07
274 -9.319434532798264e-10 2.0627590542256353e-10 -8.551520367268241e-10 5.891693643218554e-07 6.860530537172748e-07 -1.0962312791393624e-06
101 -2.1010695622985535e-09 -1.2249995466857665e-09 -4.352244283848811e-10 4.9909564899432756e-08 2.160714098003108e-06 -2.4462236254912603e-07
403 -4.6074887521197474e-10 -2.997277101547366e-10 -7.392344006461559e-11 -3.1103172124686526e-07 5.116718110327183e-07 -4.348765822288585e-07
214 -1.4624589391373856e-09 -1.8326018748724097e-09 -2.2787860753376375e-09 -3.27022046904453e-08 -6.79911143321226e-09 2.6073276531366975e-07
426 -5.184209702936901e-09 -3.3664507876230056e-09 -3.6860944449867683e-09 -2.383580765683439e-07 -8.063805950867914e-08 9.88903266592497e-07
130 -2.358544102727772e-09 -1.4744191980248378e-09 -2.185819330272104e-09 8.79715742413282e-08 9.333985164887922e-07 1.9570673731526586e-06
357 -1.2277279464407614e-09 -2.5587759691139777e-09 -2.0138673478226834e-09 -9.72627172065862e-07 -1.5193594748630283e-06 1.1622890675722376e-06
496 -9.54592354285912e-10 -2.013237697040639e-10 -1.2300593905974243e-09 2.2995950062947745e-07 -1.5664521765000543e-06 9.2952295260267e-08
466 -4.898638518244111e-10 -1.373308207772352e-09 3.634112776948373e-10 2.3600799726828265e-07 -5.235239796605621e-07 -4.3204687997001373e-07
157 -2.9170297331429473e-10 -2.0870814823307317e-10 -6.370002172006174e-10 3.0918923456857685e-07 -6.505605885726215e-08 -6.191357469980444e-07
225 -8.345002762340777e-10 -1.3722888733486796e-09 -1.5983080294581585e-10 -6.41533296511052e-07 6.188292524209038e-07 -3.0209510457554635e-07
354 -2.3116394776166133e-09 -5.909681975535733e-10 -2.0914089712885092e-09 -9.152695579328121e-07 -2.1323949547749028e-07 1.541254578867808e-06
442 -6.082354210466472e-10 -1.4907678609162984e-09 -1.0730948499352404e-09 -9.751258627332652e-08 -2.6824997822082854e-07 2.6654978971039144e-07
305 -1.1476627112485905e-09 -9.916267346365561e-10 -7.426187891811763e-10 -7.752282733955674e-07 -4.4185079930093735e-07 -1.1314856059140744e-06
95 -3.8931813799082486e-10 -1.7688093665791677e-10 1.4518068317109769e-11 -2.3854575585540135e-07 -3.8581525106407096e-08 8.834363702463907e-08
304 2.544028487085055e-11 -9.245020981245115e-10 -5.538977961787166e-10 6.171569094803125e-07 6.32607650981862e-08 -2.1893393563899813e-07
280 9.798395232326542e-10 4.173213205562781e-10 -3.357088331436373e-10 -4.2180428132642103e-07 5.668893207956836e-07 -2.792425958687015e-07
11 -2.6227027359931117e-09 -3.6872436216095075e-09 -1.8624758128766977e-09 9.977885347501035e-06 1.2622450550397458e-06 -5.64765357137382e-06
231 -1.2304103014970827e-09 -8.775624083192613e-11 -6.672608478869101e-10 7.258096665532481e-07 -4.3732503102431777e-07 1.591150703678525e-06
451 2.4812255282493436e-11 -2.177017288141251e-10 2.598523722705476e-11 1.7310767019803105e-07 7.014967639744684e-08 -1.9000306176657453e-07
344 -1.588218305845438e-09 -1.0653938349202883e-09 4.951894624150305e-11 1.104854755581824e-07 -1.0950304204424728e-06 9.78125391796447e-07
253 -2.477357742149664e-09 -1.043875649305364e-09 1.9487313619915567e-10 -6.037515601357905e-07 1.3299063164972937e-06 -2.195800932870594e-06
125 6.701264123747913e-10 1.3442023726885862e-09 -8.600254350032066e-10 -9.216632297080127e-08 -1.2623783674598004e-06 -2.1342984622869504e-06
159 -9.905060532822836e-10 -1.207726974175766e-09 -2.67272386625341e-09 1.6790371095000783e-06 -8.749220416707573e-07 2.513929393981466e-07
77 -4.783558695838307e-10 -1.697793379930712e-09 -7.349720316283929e-10 -8.321572406354846e-08 -8.651906591737705e-08 -2.6112595369313616e-07
260 -2.693295677778473e-10 -1.0581247378644003e-09 3.1124464944496484e-10 3.925392491135043e-07 -8.422057863320624e-07 3.070390101684831e-07
183 -1.725867629611206e-10 -6.642929088619682e-10 5.487275178444331e-11 9.560767055994881e-07 -5.652462698233659e-07 5.068263946124889e-07
232 -5.055760903251925e-10 -6.956020122773497e-12 -1.3593540183067783e-10 -9.24371533516698e-08 6.438871679309651e-07 -2.4017554226535044e-06
394 -2.045824706488484e-10 -9.978869352359822e-11 -3.6111304793302805e-11 -8.040413994536337e-08 -2.027709908522182e-08 -3.0147059338866413e-07
14 -1.44893083170977e-09 -7.112136042456776e-10 -4.659749777600408e-10 -3.2064108958054534e-07 6.455652744350956e-07 -1.5040859965214982e-06
498 -3.452688899620317e-09 -2.759148229196847e-09 -3.240820133185241e-09 1.4109262558925662e-06 -2.1441310630696186e-06 -7.033070983190281e-07
65 -5.488733026104088e-09 -4.472483434777089e-09 -4.741716612285186e-09 6.527934501097228e-07 5.482754053208831e-07 -2.819641362746682e-06
177 -1.5328939579636135e-10 1.825366803303488e-11 -8.772200345963073e-11 -4.909771776303278e-08 -1.1688132940473544e-07 -7.249158512225546e-08
279 2.388658465435193e-09 -3.0787480999139134e-10 -2.482356808857897e-09 1.5284205405875457e-07 2.043046052263477e-06 2.6648727140753114e-06
152 -1.0009849529385839e-10 4.848369218250553e-09 -3.89126554613358e-09 6.673879133939913e-06 1.2465587590584752e-06 -1.1544108706669194e-06
43 -3.6540570935804684e-10 -1.222573347227034e-11 -9.988819911621167e-10 1.2730930935818866e-06 1.075279169095708e-06 1.851774749057608e-06
352 -1.112920376285961e-09 -6.714812223302207e-10 -2.0084947203182986e-09 4.720980254213371e-07 9.428168914588014e-08 5.5892920876010286e-08
172 -9.800428277423181e-10 -6.612255313401994e-10 -8.930346316541776e-10 -1.1797187853226923e-07 4.673396231143561e-07 -7.429109650387252e-07
26 -1.6422709415428283e-09 2.4698876858621737e-10 -5.2830307411532e-10 -7.472123418822407e-07 -1.6512144508738e-06 -1.1815230140445845e-06
308 -1.4794665220978362e-09 -1.4511625309653292e-09 -1.575832558829204e-09 1.7627672368003566e-06 1.7589895811443285e-06 -2.407182904085382e-06
235 -1.0020691711656804e-09 -1.141277878000018e-09 -5.663126585712436e-10 -1.3487728616217473e-07 -2.1760337996827837e-07 9.498580609709601e-07
387 -8.08870264872134e-10 -1.0096965673058448e-09 9.190661623903733e-11 -3.156101208338324e-07 2.479155662117855e-07 -4.49325662893795e-07
16 -5.065905372981963e-10 -1.1915592159278502e-09 1.1391787564305282e-10 -7.029331195183246e-07 4.6372008589731305e-07 -2.1127079470023113e-07
10 -1.0712642056012365e-09 -1.5030635686199717e-09 -7.890334309269082e-10 -3.933737666529844e-07 7.130900002007633e-07 3.719409155192026e-07
389 -2.864009942658278e-10 -1.5713462226036855e-09 -6.421698263909431e-10 -1.3560275708484692e-06 -4.705703105471783e-07 1.7440580594443486e-06
437 -2.1445005020774955e-10 -2.564351552758316e-10 3.568278991146048e-11 2.1718167755498622e-07 -2.1975832376748182e-07 1.8079516703020816e-07
452 -8.423115597880634e-10 -6.985446496782008e-10 -6.452568702308362e-10 -3.106055042699991e-07 -5.215246006889771e-07 8.276922522783648e-07
476 -4.21454419441436e-10 1.7751321872004243e-12 -4.563005601839941e-10 1.8543361844107495e-06 -1.1625477418260648e-06 1.0756500143096941e-07
230 8.096524738576437e-09 5.3096297166006045e-09 -8.626324998425432e-09 5.998686323017829e-07 5.710161084907419e-06 8.984472930147412e-06
115 -3.2970706308867606e-09 -1.5248444116925276e-09 -5.607482624690958e-10 9.991150812981313e-07 -1.5504820625511158e-06 1.7184394803912703e-06
263 -2.370606831619138e-09 -3.9771968669827175e-09 -1.5918732620316634e-09 -5.682056809355858e-06 4.012939051505791e-06 -2.1376582599191403e-07
150 -9.033810132070197e-10 1.0076117180696154e-09 -1.2749200221182138e-09 1.3937551064804694e-06 -2.4699447011112977e-06 1.365068994516662e-06
234 -1.177880003376382e-10 -1.1119196768472447e-10 -6.35211018197392e-10 -3.222337274197016e-07 -8.825522822955627e-07 6.174521353449845e-07
224 -8.693041823264783e-10 -5.152213809796432e-10 -2.2539242657687807e-09 5.197616755850255e-07 -4.1829485472620595e-06 3.1823333845085716e-07
402 -1.569374388333456e-09 -1.4368843964649904e-09 -3.5781348371765834e-10 9.321749468551754e-07 -7.329601260437373e-07 3.838701389708891e-07
414 -1.6541433619840917e-09 -1.0675000428364183e-09 -1.4975935187264425e-09 1.0246328848263285e-06 1.225068952391158e-06 -1.4463961820969012e-06
449 1.967167407789162e-10 2.3131373396915777e-09 -8.67392696170424e-11 -1.6428825337992313e-06 1.3980896896686298e-07 7.86010655021404e-07
363 -8.474719053327125e-10 -4.222938941380276e-10 -3.2759000791646966e-11 5.0535751301619e-07 -2.4454711191649384e-07 -1.330747662096172e-07
261 -2.264095093431342e-10 5.115966862432171e-11 9.189620986695033e-11 -1.699169424957213e-07 -1.0002477584037647e-07 1.2553157798910027e-07
257 -4.1723304528694713e-10 -9.02612013540301e-10 -2.1718367030732878e-10 2.6158583872396265e-07 6.568347227881055e-07 -9.345908716078901e-07
328 -2.4639110953431232e-09 -2.3546125582306853e-09 -2.328789291263712e-09 1.2868676654066583e-07 1.6165311694908537e-06 -2.0041319331191404e-06
493 -3.7777425091047743e-10 -3.957898363996095e-10 -1.907040384795817e-10 9.826822195308976e-08 6.747808701838689e-08 -2.040378395988537e-08
84 5.856464456763721e-12 -3.2182519320282657e-10 -1.6046193335312904e-10 -3.4631051970113535e-07 -2.8561483377171448e-08 -4.6456958302325344e-07
358 -1.072057867238927e-09 -1.4012629666065461e-09 -1.2339994056567022e-09 1.045841994976449e-06 -5.027372315498437e-07 -3.4882371881215293e-07
122 -1.7452324672491327e-09 -5.111103721230249e-10 -1.4180447700567925e-09 1.1636062591145838e-06 2.092368827800225e-07 -1.1611698755110396e-06
321 2.5350782822705523e-10 -2.161501252963663e-10 -1.144564336384479e-10 -4.2334762750962265e-09 5.8857909525924905e-08 -8.95840375351993e-08
497 -3.5936534101110153e-10 -1.4133082963422808e-09 -4.1700486815987897e-10 3.829123338417372e-07 -1.7070548912201792e-07 -3.213882457975136e-07
131 -2.693793644920812e-10 -1.1221677852073738e-09 -4.68988897277472e-10 -4.250995808426905e-07 -2.8909284966992144e-07 9.693752792929223e-08
6 -1.1723733558243433e-09 -1.1194254744102466e-09 -1.1162911558380795e-09 -7.100575552895927e-07 1.2192217964113476e-06 1.2784890641756442e-06
110 -6.582865374694838e-10 -1.639256512968678e-09 -1.4064605461422923e-09 4.2136662463687174e-07 7.982253551176183e-07 -7.948259896336564e-08
282 -2.61083307280887e-10 -1.321959291252319e-09 -5.03588675568396e-10 3.6110392246013584e-07 4.8413507427011964e-08 -2.2398020567370155e-07
83 -9.777079470809397e-10 -1.1530672712668712e-09 -2.985303115715902e-10 -1.170570371578143e-06 -1.7640173052722197e-07 -6.724837620335098e-08
78 1.107e-321 -1.107e-321 -1.107e-321 6362.379778726985 -574.7344316294221 -1125.6099388377243
271 -9.961603722768033e-10 -1.292091855274804e-09 -9.662100457143166e-10 -6.916018671577694e-07 1.283419445135204e-07 2.6596657358298705e-07
236 -2.2092549228905885e-10 -2.543511699750162e-10 -1.1035280147308264e-10 -2.437474778957527e-07 1.7119930839361743e-07 1.843777060329114e-07
23 -4.43179881904696e-10 -3.5629657377991805e-10 -4.748601884268485e-10 2.4178308847668284e-07 9.852768453627559e-08 -2.317125350754967e-08
490 -8.880485232681392e-10 -1.1966356209429398e-09 -7.833928929755625e-10 4.4811490115777095e-07 1.5555642437451958e-07 -7.967519898479565e-07
21 -1.1287697393436892e-09 -9.10731429135768e-10 -5.486466181143968e-10 1.0668875474315065e-06 4.935981209372829e-08 -1.497493627225872e-06
215 -3.1664267673896973e-10 -1.0554910305256876e-09 -3.856270705556987e-10 1.8085540678905903e-07 -2.2202699969977948e-07 -2.0481733178273897e-07
474 -9.795550082546816e-10 -1.093264414854879e-09 -7.414273448439043e-10 4.979467464419515e-08 2.8118885313283703e-08 1.1308663790967349e-07
99 -4.118565157112022e-10 -1.1784824565658886e-09 -3.273577631206075e-10 3.692140677581347e-07 6.042809844650818e-08 -9.754004339581244e-08
381 -6.090128790785911e-10 -3.613738375614856e-10 -8.494406191591821e-10 -2.1607074925909988e-07 -1.5565654461440092e-07 3.18122312954442e-07
307 -6.715779339650935e-10 -6.516423410000703e-10 -2.96088995788212e-10 -4.3312309652349856e-07 -3.290770559236941e-08 4.195568232885948e-08
147 2.6085556241130654e-10 -7.532742030258917e-10 2.0011181258255832e-10 1.0775458167795744e-06 2.129035387094123e-06 7.977053158439193e-07
429 -4.04445373225724e-10 -6.392143739446765e-11 -4.79075468470276e-10 -4.237009061132229e-07 2.3758101256883463e-08 -1.781920290526872e-07
219 -9.458146652900327e-11 -7.577919060927724e-10 1.025240713445444e-10 -7.747444863161451e-07 -4.2544926960395004e-07 -5.275543167391611e-07
121 -1.2160188321416751e-09 -8.655686779352852e-10 -1.7651892817248648e-09 7.308879176199302e-07 4.532635917335525e-07 2.1374965546053516e-07
314 -4.4644375943892016e-11 -3.625872618114118e-10 -5.201061016922642e-11 4.4611899739995973e-07 -9.118078774070326e-07 -2.395637061302919e-07
17 1.107e-321 1.107e-321 -1.107e-321 -1900.6683777229796 3361.6728746929043 -608.098055061663
351 -1.5356930748062779e-09 3.6932594357205784e-10 -3.6162132584371135e-10 1.6275910864414799e-06 9.057675687648309e-07 -1.871949642372174e-07
175 -1.1055778031386365e-09 -1.6770558105144238e-09 -1.5764973957007036e-09 -1.8861577856317634e-07 -1.468240068480821e-06 7.1630861323295e-07
221 -2.721591423378155e-10 -2.4329281051648966e-10 -2.2394832780235903e-10 -2.627112998614632e-07 8.89946248266438e-09 -1.6805200877763517e-07
430 -3.846647311211096e-10 -1.0558830127051807e-09 -3.781250429277097e-10 -4.001491066087327e-07 -2.0215288555156046e-08 3.7959651545656886e-07
44 -1.7915420673945433e-09 -1.1459580113383837e-09 -2.15023127037332e-09 1.5626661236965778e-06 1.8507358176412107e-07 -1.3854107145168263e-06
393 -1.3073473692347027e-09 -1.2080111008399916e-09 -1.6304546697599479e-09 7.780126027461164e-08 6.712156158417311e-07 -4.3890042015945367e-07
478 -1.132467894683512e-09 -1.2633000614356092e-09 -1.928919587420323e-09 -3.149686080515316e-07 4.163432945429561e-07 3.3973923420351176e-07
336 -7.646506503567667e-10 -1.6508815681675341e-09 -1.4953900911766517e-09 1.0428769881680884e-07 -3.9053957031548153e-07 -3.725785887434815e-07
158 -8.84078414489317e-10 -8.293505035715797e-10 -9.367911797978132e-10 6.146593356707822e-07 4.53168525920835e-07 -2.471962375664641e-07
118 -3.0416757518230107e-11 -1.0857498476382393e-09 -3.098353139258263e-10 -6.954108892815842e-08 -1.871786347963138e-08 2.348303749137005e-08
156 -7.6477774687178e-11 -8.653851425851765e-10 -3.238810552640988e-10 -8.091471758258758e-07 4.012979727494359e-07 1.7962400935726058e-07
222 -2.1622066718457443e-09 -1.4287206998309497e-09 -2.153571938585306e-09 -8.731935469219374e-07 -8.429298318249257e-07 6.39351506612575e-07
62 -8.620526272953193e-11 -4.2808585802854393e-10 -3.2054238846197166e-10 2.1246220788944563e-07 -6.686353217901197e-07 5.566223111573459e-08
239 -8.023271633523448e-10 -1.248592400511151e-09 -6.409928738386227e-10 -3.545227473770446e-07 -1.1873356980856544e-07 -3.1471625180849566e-07
169 -1.03092978644209e-09 -1.2228726590735912e-09 -1.2323039603422229e-09 7.432656085782077e-07 1.2655525231809125e-06 -2.27675888737623e-07
124 -7.179793748412204e-11 -5.149087074288863e-10 -2.7759940948930454e-10 2.1393391045545552e-07 2.708453977337095e-07 -9.838561449321275e-08
51 1.107e-321 -1.107e-321 -1.107e-321 2045.2933271746247 -259.2213672931557 2169.152276848976
420 -2.7346308204875905e-10 -5.49238799944794e-10 -4.270342373199148e-10 -6.477340443543784e-08 2.5762478470974187e-07 -7.463471108331883e-09
203 -7.138970124016658e-10 -5.837077078227763e-10 -4.3699840004316755e-10 -2.394440159471329e-07 7.693660784876901e-08 4.8510512686090136e-08
89 -3.0074810444596224e-10 -1.2600664885793538e-10 -7.507611592577202e-11 -1.1558253486050756e-07 3.041554363605758e-07 7.692691509641856e-07
460 -2.1995952828321573e-10 -1.4562496716629054e-09 7.430539460587488e-11 3.826941473373996e-07 3.7714181689071435e-07 1.0891382613194936e-08
345 -3.2988230989525935e-10 -5.940861283520038e-11 -1.403629122757997e-10 6.372043011768369e-09 2.398056272512901e-07 5.808241218254672e-08
5 -1.009202524087037e-09 -5.772849288190727e-10 -1.3115489883034045e-09 -9.886842093846493e-07 1.038391060060886e-06 5.159545962349981e-07
455 -4.0915906612877054e-10 -2.430718092306031e-10 -2.362410624784232e-10 1.7102943448987187e-07 -1.092894999339207e-07 1.2262029105411018e-07
252 -1.1090917027201045e-09 -1.3510701377040495e-09 -1.538496704280466e-09 1.004247772168822e-06 -8.179229485722997e-07 -5.821799934593271e-07
268 -5.951022126952824e-10 -4.301845848116405e-10 -3.088509188182378e-10 -3.6088492492464526e-07 1.3413704429603966e-07 -4.169592301850173e-08
487 -2.911837487320727e-11 -1.3122645819296348e-09 -2.152996141665172e-10 -3.47830937319492e-07 9.367097196835961e-08 1.7766982481845424e-07
114 -6.275759496190236e-10 -6.7655357357028e-10 -9.493405689144104e-10 1.240462371689022e-06 -7.360794176546948e-07 -9.851566090407136e-07
325 -5.038960146099309e-10 -4.722732400061327e-10 -2.1092332791215023e-10 1.80739969373314e-07 9.354641044061623e-08 7.68740745786254e-08
435 -7.572238338875712e-10 -1.3686378057517622e-09 -6.849888953773444e-10 3.5512693916464366e-07 5.793432339287872e-07 -9.672191794653126e-08
197 -1.341031853412095e-10 -4.124952359055044e-10 6.650320116529055e-11 -4.240396034747385e-07 1.5552619051141e-07 5.608376357128664e-08
418 -4.932444001972364e-10 -1.3062291572045238e-09 -8.455585618908551e-10 1.2765608692189502e-08 1.3209582274117422e-07 -1.0709426143024889e-07
71 -2.313403093637413e-10 -4.694234225820217e-10 -1.4952584182456646e-10 6.07003092422403e-07 -7.290640721770119e-07 -7.040006541234487e-07
341 -5.541965844095943e-10 -9.89623640848928e-10 -1.0483478928859762e-09 -2.595584638300832e-07 8.464219795086682e-08 -9.526648596363161e-08
31 -4.769911227923324e-11 -2.0569104742694377e-10 -5.232569590298827e-11 -5.043322078223218e-08 -4.2446912494334544e-08 -2.9748116582982683e-07
