ITEM: TIMESTEP
200000
ITEM: NUMBER OF ATOMS
500
ITEM: BOX BOUNDS pp pp ff
0.0000000000000000e+00 1.5370634520482899e-02
0.0000000000000000e+00 1.5370634520482899e-02
0.0000000000000000e+00 1.5370634520482899e-02
ITEM: ATOMS id type x y z radius mass fx fy fz
1 1 0.00610135 0.00588391 0.000726457 0.00075 4.41786e-06 -1.08789e-12 -9.28179e-12 -3.95768e-13
2 1 0.0117176 0.00471581 0.0147385 0.00075 4.41786e-06 1.06355e-12 2.15519e-14 2.38315e-13
3 1 0.0131593 0.00653798 0.0111459 0.00075 4.41786e-06 2.77623e-12 1.63589e-12 9.1902e-13
4 1 0.00564264 0.00496125 0.00781939 0.00075 4.41786e-06 1.2425e-12 3.65548e-12 2.09261e-14
5 1 0.0128613 0.0104839 0.0118079 0.00075 4.41786e-06 1.6228e-12 9.52646e-13 2.05649e-13
6 1 0.0107325 0.0109337 0.0120231 0.00075 4.41786e-06 8.8001e-13 1.48214e-12 -6.72003e-13
7 1 0.015305 0.00018287 0.0146392 0.00075 4.41786e-06 2.60991e-15 7.48489e-13 -2.43188e-14
8 1 0.000408094 0.0135494 0.0105787 0.00075 4.41786e-06 1.0553e-12 4.4e-13 -3.43073e-13
9 1 0.00321948 0.00530743 0.00063973 0.00075 4.41786e-06 -2.7417e-11 3.21062e-11 -1.0868e-11
10 1 0.0151601 0.0113209 0.00665277 0.00075 4.41786e-06 -2.29416e-13 5.24926e-13 2.21124e-14
11 1 0.0133263 0.0106422 0.00707602 0.00075 4.41786e-06 1.05279e-13 1.27576e-12 8.96255e-13
12 1 0.00350727 0.00257492 0.00679885 0.00075 4.41786e-06 -3.18308e-13 -7.60825e-13 -5.18759e-13
13 1 0.00929778 0.00416015 0.000599523 0.00075 4.41786e-06 4.26011e-12 -1.5135e-12 -6.25721e-13
14 1 0.0122971 0.0117598 0.00403535 0.00075 4.41786e-06 1.65759e-12 1.48455e-12 3.2837e-14
15 1 0.00324935 0.00513299 0.00402231 0.00075 4.41786e-06 1.06173e-12 -2.76205e-13 3.16363e-12
16 1 0.0141789 0.0152014 0.00722503 0.00075 4.41786e-06 2.42763e-13 4.97753e-14 6.97904e-13
17 1 0.013219 0.012258 0.0145919 0.00075 4.41786e-06 -1.08694e-322 -1.08694e-322 1.08694e-322
18 1 0.00420246 0.00130552 0.00695997 0.00075 4.41786e-06 -2.85397e-12 -9.05775e-13 5.40631e-13
19 1 0.00672953 0.00154997 0.00292604 0.00075 4.41786e-06 -1.17886e-12 9.81588e-13 -2.81098e-13
20 1 0.0134272 0.00509974 0.014677 0.00075 4.41786e-06 3.1488e-13 3.1201e-13 -4.04413e-14
21 1 0.0102559 0.0122012 0.0118239 0.00075 4.41786e-06 7.68406e-14 8.8541e-13 1.3935e-12
22 1 0.000906484 0.00876343 0.00203325 0.00075 4.41786e-06 1.29444e-13 -5.09543e-13 -1.10949e-13
23 1 0.0118628 0.0103961 0.0128577 0.00075 4.41786e-06 -3.66664e-13 -8.05329e-13 1.18373e-12
24 1 0.00902999 0.000306356 0.00366445 0.00075 4.41786e-06 9.67479e-14 -2.17479e-12 -6.06523e-13
25 1 0.00788632 0.00726696 0.00880959 0.00075 4.41786e-06 3.24752e-12 8.95162e-13 -6.72316e-13
26 1 0.0110799 0.00823283 0.000663952 0.00075 4.41786e-06 9.19319e-13 2.29516e-13 -1.27203e-12
27 1 0.0059405 0.00306427 0.000684223 0.00075 4.41786e-06 -6.64802e-12 1.55505e-12 8.20342e-14
28 1 0.00746832 0.000537919 0.00200279 0.00075 4.41786e-06 1.54081e-14 -2.0559e-13 -7.88776e-13
29 1 0.000128037 0.0123656 0.011289 0.00075 4.41786e-06 6.61139e-13 1.64229e-13 5.16562e-13
30 1 0.000594973 0.010543 0.01466 0.00075 4.41786e-06 3.89315e-13 5.18928e-13 4.1476e-14
31 1 0.0103333 0.0153605 0.0146544 0.00075 4.41786e-06 2.46843e-14 4.5434e-13 -5.99081e-13
32 1 0.00672603 0.0109501 0.00283634 0.00075 4.41786e-06 -1.08694e-322 1.08694e-322 1.08694e-322
33 1 0.0062957 0.00446283 0.00106237 0.00075 4.41786e-06 3.10575e-12 -3.5048e-12 3.91386e-12
34 1 0.00474988 0.0135997 0.000701458 0.00075 4.41786e-06 -3.91895e-13 1.32038e-13 4.61366e-14
35 1 0.00452433 0.000908892 0.00177293 0.00075 4.41786e-06 -4.93595e-12 -9.47894e-14 -2.08135e-12
36 1 0.00080875 0.00797313 0.0051201 0.00075 4.41786e-06 2.36925e-12 2.64288e-13 2.728e-12
37 1 0.00281459 0.0128358 0.00575629 0.00075 4.41786e-06 -2.89271e-11 7.27861e-11 1.18076e-10
38 1 0.00174726 0.00828256 0.00362045 0.00075 4.41786e-06 5.33145e-13 -1.2048e-12 1.98119e-12
39 1 0.0069253 0.0121949 0.0140525 0.00075 4.41786e-06 -2.27632e-12 8.6939e-13 -5.15961e-13
40 1 0.00496708 0.00232708 0.0121734 0.00075 4.41786e-06 9.0793e-13 5.17089e-13 1.11533e-13
41 1 0.0148507 0.00255031 0.0102542 0.00075 4.41786e-06 1.08694e-322 -1.08694e-322 -1.08694e-322
42 1 0.00608516 0.00257268 0.0147232 0.00075 4.41786e-06 -5.24137e-13 4.49287e-13 9.71754e-14
43 1 0.00987886 0.0124054 0.00710925 0.00075 4.41786e-06 8.6272e-13 -4.48453e-13 1.46664e-12
44 1 0.0093316 0.0115426 0.00824901 0.00075 4.41786e-06 -4.37905e-13 3.11775e-12 3.63559e-12
45 1 0.000498389 0.00925524 0.00931856 0.00075 4.41786e-06 -1.02336e-12 -1.58271e-13 1.16634e-13
46 1 0.0073139 0.00927887 0.000676633 0.00075 4.41786e-06 5.51437e-12 -4.7002e-13 1.77862e-12
47 1 0.00763379 0.0018985 0.00582374 0.00075 4.41786e-06 1.08694e-322 1.08694e-322 -1.08694e-322
48 1 0.00828365 0.00668188 0.0121186 0.00075 4.41786e-06 1.13093e-12 1.26192e-13 7.91362e-13
49 1 0.00600109 0.0135858 0.00150731 0.00075 4.41786e-06 -3.89769e-13 1.63021e-15 1.61947e-14
50 1 0.0113682 0.00191826 0.00963399 0.00075 4.41786e-06 -8.38325e-15 1.08016e-12 1.17982e-13
51 1 0.0141013 0.0103253 0.00832272 0.00075 4.41786e-06 -1.08694e-322 1.08694e-322 1.08694e-322
52 1 0.00522192 0.0137534 0.00359735 0.00075 4.41786e-06 -1.47018e-12 6.93831e-14 1.00362e-14
53 1 0.00340968 0.00929335 0.013039 0.00075 4.41786e-06 3.30116e-13 3.43236e-13 4.18392e-13
54 1 0.00444588 0.00989183 0.00761027 0.00075 4.41786e-06 -1.08694e-322 -1.08694e-322 1.08694e-322
55 1 0.00648051 0.00585378 0.0100765 0.00075 4.41786e-06 1.96535e-13 1.73232e-13 -4.99983e-14
56 1 0.00852074 0.00341972 0.00860685 0.00075 4.41786e-06 -7.83304e-13 -3.999e-13 -1.81411e-12
57 1 0.00476171 0.00195092 0.000726542 0.00075 4.41786e-06 -1.77551e-12 -1.79527e-12 -1.43062e-12
58 1 0.00314155 0.0052685 0.00818987 0.00075 4.41786e-06 -2.56972e-13 1.02987e-12 -7.54303e-13
59 1 0.00605247 0.00440487 0.00969835 0.00075 4.41786e-06 -4.64733e-13 2.39195e-13 -6.79662e-13
60 1 0.00284525 0.00665236 0.000679316 0.00075 4.41786e-06 -6.57015e-13 -3.33228e-12 -1.56975e-12
61 1 0.0013122 0.00824075 0.00068703 0.00075 4.41786e-06 1.35241e-12 6.30822e-13 -1.21724e-13
62 1 0.0151343 0.0153013 0.0129065 0.00075 4.41786e-06 7.58344e-13 2.73192e-13 -7.12057e-15
63 1 0.00602605 0.0100457 0.00836521 0.00075 4.41786e-06 -1.52737e-13 8.38256e-13 2.5035e-12
64 1 0.00344849 0.0126531 0.0037613 0.00075 4.41786e-06 -1.78348e-12 1.72912e-12 7.39428e-13
65 1 0.0103372 0.00931924 0.00575066 0.00075 4.41786e-06 1.34675e-11 -5.4255e-12 2.65998e-13
66 1 0.0053855 0.00627592 0.0110007 0.00075 4.41786e-06 7.82502e-13 -4.4067e-13 -5.45034e-13
67 1 0.0101746 0.00693124 0.00660717 0.00075 4.41786e-06 -2.53867e-12 -8.90708e-13 -9.66232e-13
68 1 0.0122815 0.00271734 0.0141222 0.00075 4.41786e-06 5.42333e-13 4.75642e-13 -6.98143e-13
69 1 0.0135943 0.00696544 0.0146199 0.00075 4.41786e-06 9.52999e-13 1.9181e-12 4.30669e-14
70 1 0.00643395 0.0101107 0.00150461 0.00075 4.41786e-06 -4.20711e-12 1.4385e-12 -6.50918e-13
71 1 0.00940344 0.0130956 0.0124166 0.00075 4.41786e-06 1.11472e-14 8.19437e-13 2.12375e-13
72 1 0.00988807 0.000111227 0.0113742 0.00075 4.41786e-06 -7.85914e-14 1.07336e-12 3.42457e-13
73 1 0.000140901 0.00620329 0.00511977 0.00075 4.41786e-06 6.62697e-13 -8.78971e-13 1.89824e-12
74 1 0.00302956 0.00824819 0.00418697 0.00075 4.41786e-06 -9.60593e-13 -2.02672e-13 -1.13298e-12
75 1 0.000465028 0.0150056 0.0106486 0.00075 4.41786e-06 3.18569e-13 1.00435e-12 1.54782e-13
76 1 0.00180533 0.00139059 0.00245823 0.00075 4.41786e-06 -1.08694e-322 1.08694e-322 1.08694e-322
77 1 0.0148524 0.012653 0.00609264 0.00075 4.41786e-06 -1.14372e-12 -4.38665e-13 1.41775e-13
78 1 0.00876513 0.00960276 0.0146131 0.00075 4.41786e-06 -1.08694e-322 1.08694e-322 1.08694e-322
79 1 0.00586817 0.00880348 0.0125141 0.00075 4.41786e-06 2.25152e-12 3.34438e-12 -3.01146e-13
80 1 0.00546388 0.00112024 0.0114318 0.00075 4.41786e-06 5.73607e-14 1.67196e-13 1.74995e-13
81 1 0.00842757 0.00333149 0.00503815 0.00075 4.41786e-06 -1.84648e-12 -1.55875e-12 -3.69931e-13
82 1 0.00187675 0.013273 0.0142171 0.00075 4.41786e-06 3.3527e-13 1.60715e-13 -1.36082e-13
83 1 0.0104623 0.0124337 0.0103773 0.00075 4.41786e-06 8.63547e-13 8.21895e-13 4.01995e-13
84 1 0.0147163 0.0117339 0.0147291 0.00075 4.41786e-06 5.14152e-14 5.48283e-14 5.81337e-15
85 1 0.0107916 0.00115696 0.0109376 0.00075 4.41786e-06 -6.24467e-13 9.40433e-13 -2.77267e-13
86 1 0.000293479 0.0107405 0.000715839 0.00075 4.41786e-06 -1.23105e-14 -8.28602e-13 -2.2243e-13
87 1 0.0045566 0.00528538 0.014688 0.00075 4.41786e-06 1.62633e-13 -4.05599e-13 -1.65471e-13
88 1 0.00471309 0.0109888 0.00386656 0.00075 4.41786e-06 7.9684e-13 1.35835e-12 1.59029e-13
89 1 0.00925327 0.0142087 0.0147229 0.00075 4.41786e-06 5.01162e-13 -2.93502e-13 -2.47418e-13
90 1 0.00374636 0.010294 0.00460437 0.00075 4.41786e-06 5.02638e-13 -2.70764e-13 2.96579e-13
91 1 0.00139747 0.00121062 0.00088894 0.00075 4.41786e-06 -2.0697e-11 -1.13938e-11 2.39968e-12
92 1 0.0131265 0.00325584 0.0119463 0.00075 4.41786e-06 5.79793e-13 1.3506e-12 -5.64508e-13
93 1 0.00810545 0.000111695 0.000721345 0.00075 4.41786e-06 -2.46843e-13 -4.57589e-13 1.21315e-13
94 1 0.000968955 0.0101625 0.00186428 0.00075 4.41786e-06 2.37352e-13 -7.34189e-13 9.4704e-14
95 1 0.0142173 0.0126167 0.00213554 0.00075 4.41786e-06 9.80642e-13 -1.03586e-12 -5.76632e-13
96 1 0.00216485 0.00366868 0.00660541 0.00075 4.41786e-06 1.08694e-322 -1.08694e-322 1.08694e-322
97 1 0.014288 0.00652945 0.00244207 0.00075 4.41786e-06 6.25679e-13 -3.09919e-13 6.6435e-14
98 1 0.00492239 0.0139001 0.0115477 0.00075 4.41786e-06 -2.1987e-11 -6.03385e-12 2.2841e-11
99 1 0.00803512 0.0144171 0.00998421 0.00075 4.41786e-06 1.2499e-13 4.21124e-13 1.20534e-13
100 1 0.001757 0.00536204 0.014732 0.00075 4.41786e-06 -2.87161e-13 5.85901e-13 2.24371e-15
101 2 0.0152049 0.00971958 0.00598617 0.001 1.0472e-05 1.15451e-12 1.89608e-12 -2.80171e-12
102 2 0.0068535 0.0144281 0.00269821 0.001 1.0472e-05 -1.7028e-12 -1.52328e-12 4.22297e-13
103 2 0.00519731 0.00999398 0.00601404 0.001 1.0472e-05 2.8973e-12 2.6904e-12 1.63887e-12
104 2 0.00177143 0.0121713 0.0127257 0.001 1.0472e-05 1.5541e-13 4.31644e-13 1.84841e-12
105 2 0.00554147 0.0129799 0.0145138 0.001 1.0472e-05 -1.73353e-12 1.68319e-12 6.44027e-13
106 2 0.0106244 0.00207117 0.000861108 0.001 1.0472e-05 -2.83792e-13 -3.67915e-12 1.63728e-12
107 2 0.00757862 0.0112868 0.00434556 0.001 1.0472e-05 1.84976e-11 2.88297e-12 -1.77592e-11
108 2 0.00589441 0.0040254 0.00279359 0.001 1.0472e-05 -1.15299e-11 4.69872e-12 1.76709e-11
109 2 0.0150142 0.00124446 0.00632415 0.001 1.0472e-05 9.5781e-13 2.1106e-12 3.8133e-13
110 2 0.0113087 0.0120931 0.00813124 0.001 1.0472e-05 -5.12824e-13 2.31408e-12 2.30716e-12
111 2 0.0106274 0.00304266 0.00410813 0.001 1.0472e-05 7.92968e-13 1.46963e-13 -4.14853e-13
112 2 0.00794335 0.00458866 0.00136535 0.001 1.0472e-05 -7.37193e-12 -2.41103e-11 -3.69188e-12
113 2 0.0103379 0.00625973 0.0114528 0.001 1.0472e-05 5.63141e-13 -1.0407e-12 -2.73479e-12
114 2 0.013877 0.0114885 0.011014 0.001 1.0472e-05 7.72409e-13 2.42451e-12 3.49746e-13
115 2 0.0136623 0.00963111 0.00480633 0.001 1.0472e-05 -8.71842e-12 -1.82404e-12 1.144e-11
116 2 0.0132265 0.00139494 0.014461 0.001 1.0472e-05 2.51017e-13 -2.80916e-13 -1.49632e-14
117 2 0.0126107 0.00626454 0.00526051 0.001 1.0472e-05 3.62753e-12 -3.60546e-12 2.74004e-12
118 2 0.0130859 0.0153409 0.00921098 0.001 1.0472e-05 7.1018e-14 3.20788e-13 1.23662e-12
119 2 0.00518822 0.00223584 0.00256459 0.001 1.0472e-05 -1.12564e-11 5.66414e-12 7.85887e-12
120 2 0.0072999 0.00295929 0.00221396 0.001 1.0472e-05 -5.43888e-12 7.72924e-12 -2.1877e-11
121 2 0.0128072 0.00774 0.00908349 0.001 1.0472e-05 5.90316e-12 4.42199e-12 7.30338e-13
122 2 0.0146217 0.00851366 0.00851481 0.001 1.0472e-05 2.70023e-12 1.97215e-12 6.10525e-12
123 2 0.0050132 0.00480384 0.0131207 0.001 1.0472e-05 3.60343e-13 8.31417e-13 -1.68504e-12
124 2 0.0152731 0.0122759 0.0132571 0.001 1.0472e-05 -7.47928e-13 1.02867e-12 2.30745e-12
125 2 0.0113347 0.0137982 0.00177578 0.001 1.0472e-05 4.62903e-12 -4.92586e-12 2.10384e-12
126 2 0.00609824 0.010032 0.00419152 0.001 1.0472e-05 8.78209e-12 3.67166e-12 1.0459e-11
127 2 0.00561965 0.0151263 0.000940867 0.001 1.0472e-05 -2.94911e-14 -5.12322e-13 1.77969e-13
128 2 0.00694184 0.00867743 0.00889435 0.001 1.0472e-05 3.17265e-12 7.628e-13 2.50536e-12
129 2 0.0147473 0.00668341 0.0113261 0.001 1.0472e-05 -6.42767e-13 -2.49964e-12 1.77233e-12
130 2 0.00841359 0.0084257 0.00547276 0.001 1.0472e-05 -4.478e-12 2.42676e-12 5.30438e-12
131 2 0.00892358 0.0152892 0.00883999 0.001 1.0472e-05 9.66998e-13 -3.76574e-13 1.229e-12
132 2 0.00147678 0.00643161 0.0107234 0.001 1.0472e-05 6.6491e-13 2.12115e-13 8.63538e-13
133 2 0.0041813 0.00662463 0.00807353 0.001 1.0472e-05 2.52843e-12 1.01852e-12 -8.86299e-13
134 2 0.00598505 0.0118139 0.00746799 0.001 1.0472e-05 -5.72689e-13 2.00249e-12 3.569e-12
135 2 0.0127017 0.000110922 0.012105 0.001 1.0472e-05 1.7452e-13 2.43703e-12 4.30033e-13
136 2 0.0126912 0.00292425 0.00917499 0.001 1.0472e-05 -6.75718e-13 1.10723e-11 6.1905e-12
137 2 0.0122507 0.00458231 0.00986678 0.001 1.0472e-05 4.40389e-12 -1.27999e-11 -2.09117e-12
138 2 0.000400974 2.4822e-05 0.0076785 0.001 1.0472e-05 1.23823e-12 9.47413e-13 2.87922e-13
139 2 0.00339026 0.000812728 0.014449 0.001 1.0472e-05 -1.11855e-13 6.97093e-13 5.12694e-13
140 2 0.0017011 0.00204408 0.00491553 0.001 1.0472e-05 7.53456e-12 5.08472e-13 -1.46225e-12
141 2 0.00694745 0.0141291 0.00472719 0.001 1.0472e-05 -1.17517e-12 1.54073e-12 2.14179e-12
142 2 0.00605994 0.00440103 0.0114215 0.001 1.0472e-05 1.44172e-12 -1.13476e-12 -4.04599e-13
143 2 0.00568092 0.011088 0.0144541 0.001 1.0472e-05 -8.216e-13 1.51806e-12 -8.34461e-13
144 2 0.0130463 0.00490796 0.0115728 0.001 1.0472e-05 -2.81126e-12 2.44714e-12 -1.94152e-12
145 2 0.00657905 0.000412945 0.00576939 0.001 1.0472e-05 3.34884e-13 9.24036e-13 2.2792e-12
146 2 0.00750013 0.000570754 0.00409625 0.001 1.0472e-05 4.69009e-12 -1.73824e-12 3.35011e-12
147 2 0.00842112 0.0128424 0.014358 0.001 1.0472e-05 -6.42383e-14 1.05561e-12 -6.18725e-12
148 2 0.00374168 0.011515 0.00260825 0.001 1.0472e-05 -2.81703e-12 1.51266e-12 -2.23855e-12
149 2 0.00186534 0.00927531 0.00504287 0.001 1.0472e-05 1.75068e-11 6.37876e-12 1.43424e-11
150 2 0.00861557 0.0116393 0.00278658 0.001 1.0472e-05 -1.76965e-11 -7.17029e-12 2.36109e-11
151 2 0.00268976 0.0113526 0.00839514 0.001 1.0472e-05 1.63175e-13 4.1331e-12 1.99001e-12
152 2 0.00952857 0.0104559 0.00103388 0.001 1.0472e-05 3.8948e-12 2.72612e-12 2.94507e-12
153 2 0.00609628 0.00765367 0.000908982 0.001 1.0472e-05 -5.21625e-12 -7.63756e-12 -1.48112e-12
154 2 0.015247 0.00490539 0.0109523 0.001 1.0472e-05 3.73236e-13 1.61425e-12 1.33038e-13
155 2 0.00641148 0.0152112 0.0121345 0.001 1.0472e-05 -8.25986e-13 2.56831e-12 1.51286e-12
156 2 0.00935541 0.0138906 0.0109285 0.001 1.0472e-05 5.56931e-13 1.92715e-12 -3.40503e-13
157 2 0.0121092 0.0095476 0.000869778 0.001 1.0472e-05 7.1038e-13 1.58566e-12 -2.3686e-12
158 2 0.00791563 0.0122754 0.00874058 0.001 1.0472e-05 1.16718e-12 1.62182e-12 1.53568e-12
159 2 0.0101884 0.00826467 0.00755535 0.001 1.0472e-05 2.64187e-12 -1.81146e-11 6.02781e-13
160 2 0.0025465 0.00796451 0.0125732 0.001 1.0472e-05 1.9861e-12 1.3362e-12 1.19118e-12
161 2 0.00453828 0.00655686 0.0135834 0.001 1.0472e-05 -3.29035e-13 8.23461e-14 2.3989e-13
162 2 0.0124617 0.001157 0.0105201 0.001 1.0472e-05 5.05825e-13 2.49485e-12 8.59363e-13
163 2 0.00086573 0.00705345 0.0124533 0.001 1.0472e-05 3.05851e-13 -4.69041e-12 1.91149e-12
164 2 0.0010305 0.00795787 0.00810562 0.001 1.0472e-05 4.06121e-12 1.44839e-12 2.22781e-12
165 2 0.00730451 0.00456579 0.00429267 0.001 1.0472e-05 -1.52859e-11 -1.43939e-11 -5.7424e-12
166 2 0.00171034 0.00539966 0.0073222 0.001 1.0472e-05 -5.72539e-12 6.80334e-12 1.48803e-12
167 2 0.00199694 0.00197999 0.00727846 0.001 1.0472e-05 7.03393e-14 8.66358e-13 -1.73022e-13
168 2 0.0017111 0.000746206 0.00885008 0.001 1.0472e-05 6.90347e-13 8.89273e-13 6.01196e-13
169 2 0.0119308 0.0116916 0.0108667 0.001 1.0472e-05 4.57048e-12 5.71117e-12 -7.18213e-13
170 2 0.00712809 0.0146305 0.00842869 0.001 1.0472e-05 1.91945e-13 4.32602e-13 1.36158e-12
171 2 0.00154253 0.00863755 0.0107422 0.001 1.0472e-05 2.14168e-12 2.82239e-13 2.12529e-12
172 2 0.0080434 0.0134299 0.00725817 0.001 1.0472e-05 8.9413e-13 -5.68514e-13 7.02323e-13
173 2 0.0111433 0.00694793 0.00854193 0.001 1.0472e-05 2.99924e-12 -5.24543e-12 8.82786e-12
174 2 0.0152498 0.00729416 0.000961836 0.001 1.0472e-05 -1.38937e-12 1.4191e-13 -1.27925e-12
175 2 0.0128353 0.0113142 0.00908673 0.001 1.0472e-05 1.24849e-12 2.95723e-14 9.80301e-13
176 2 0.0141283 0.00273951 0.00560883 0.001 1.0472e-05 4.01987e-13 -1.31861e-12 -2.25027e-12
177 2 0.0121822 0.0125047 0.000840786 0.001 1.0472e-05 1.61576e-12 -1.73751e-12 1.18162e-12
178 2 0.00594983 0.00600315 0.0024658 0.001 1.0472e-05 -7.56628e-12 2.24634e-10 -7.13498e-11
179 2 0.0046906 6.85557e-05 0.00597007 0.001 1.0472e-05 3.73748e-14 1.54553e-12 -1.41901e-12
180 2 0.00151079 0.00546937 0.000852264 0.001 1.0472e-05 -4.0877e-12 4.62423e-12 -1.40123e-12
181 2 0.0152712 0.00034132 0.00114595 0.001 1.0472e-05 -3.76469e-11 -9.48305e-14 2.19151e-11
182 2 0.00190065 0.0131454 0.00428428 0.001 1.0472e-05 -1.42721e-12 5.37219e-12 -7.65556e-14
183 2 0.0153437 0.0129269 0.00451838 0.001 1.0472e-05 1.04068e-12 2.76922e-12 -6.17337e-13
184 2 0.00511703 0.0101176 0.0025782 0.001 1.0472e-05 4.26407e-12 4.30309e-12 4.0327e-13
185 2 0.00195329 0.0115643 0.0144736 0.001 1.0472e-05 6.03544e-13 6.5592e-13 1.32934e-13
186 2 0.000190646 0.0134963 0.00737844 0.001 1.0472e-05 -4.97368e-13 4.10984e-13 6.55948e-13
187 2 0.0141025 0.00513138 0.00947694 0.001 1.0472e-05 2.1769e-12 -3.69628e-12 -1.36281e-12
188 2 0.00345844 0.0013449 0.00842434 0.001 1.0472e-05 -1.86216e-12 1.13094e-13 2.53872e-12
189 2 0.00116394 0.000317307 0.00572811 0.001 1.0472e-05 2.33454e-13 2.47048e-13 -4.12384e-12
190 2 0.00658093 0.0153419 0.0101982 0.001 1.0472e-05 8.69528e-13 1.16063e-12 -1.6723e-13
191 2 0.00713619 0.0100705 0.00575846 0.001 1.0472e-05 -2.36422e-13 4.50023e-12 -2.62438e-12
192 2 0.0151211 0.0054567 0.00154519 0.001 1.0472e-05 -1.72671e-12 1.56109e-12 3.69217e-13
193 2 0.000278818 0.00483135 0.00618947 0.001 1.0472e-05 -2.19526e-12 1.82342e-12 1.02743e-12
194 2 0.00229801 0.00965966 0.0144497 0.001 1.0472e-05 -4.02567e-13 1.97536e-14 5.1724e-14
195 2 0.00829289 0.00433326 0.0145069 0.001 1.0472e-05 2.54651e-12 1.87978e-13 3.46059e-12
196 2 0.0108581 0.00443733 0.0113705 0.001 1.0472e-05 -3.5891e-12 -2.49495e-13 -1.37375e-12
197 2 0.0117275 0.0145051 0.0145173 0.001 1.0472e-05 1.16174e-14 -1.088e-12 -2.34981e-12
198 2 0.0139952 0.00577683 0.00651482 0.001 1.0472e-05 6.11327e-13 1.34529e-12 9.16438e-13
199 2 0.00364667 0.00892887 0.00557959 0.001 1.0472e-05 2.12688e-12 -1.45999e-12 -1.25109e-12
200 2 0.00877499 0.000477601 0.0144539 0.001 1.0472e-05 8.93564e-13 -8.86452e-13 1.65807e-13
201 2 0.00218062 0.00496916 0.00954555 0.001 1.0472e-05 3.92184e-13 2.54502e-12 -4.15926e-13
202 2 0.00268003 0.00510171 0.00574284 0.001 1.0472e-05 -1.48577e-11 3.74951e-11 -3.81868e-11
203 2 0.0144521 0.00979825 0.0118808 0.001 1.0472e-05 2.24398e-13 1.6803e-12 -2.01506e-13
204 2 0.0152118 0.000698226 0.00943239 0.001 1.0472e-05 1.45925e-12 1.03213e-12 -6.94872e-13
205 2 0.00620654 0.00832739 0.00523734 0.001 1.0472e-05 -2.06213e-10 -1.43038e-10 2.93042e-10
206 2 0.000251373 0.0135367 0.00222076 0.001 1.0472e-05 2.22421e-12 2.14631e-12 1.95284e-12
207 2 0.0151872 0.00619755 0.00813797 0.001 1.0472e-05 -1.41707e-166 -8.84523e-168 -2.80146e-166
208 2 0.00432417 0.00184756 0.00495445 0.001 1.0472e-05 5.88603e-12 2.45312e-12 3.18891e-13
209 2 0.00754202 0.00647267 0.00484806 0.001 1.0472e-05 -1.38112e-11 -1.50521e-13 9.08086e-12
210 2 0.00472794 0.00312661 0.0139351 0.001 1.0472e-05 -5.4433e-13 1.41539e-12 -1.27748e-12
211 2 0.00750461 0.0106427 0.0139331 0.001 1.0472e-05 2.60182e-12 2.31269e-12 -2.32864e-12
212 2 0.00797952 0.00679151 0.0144665 0.001 1.0472e-05 -2.28577e-13 2.19116e-12 1.16997e-12
213 2 0.00425777 0.0021485 0.0106735 0.001 1.0472e-05 -8.51407e-14 1.57647e-13 9.94077e-13
214 2 0.00835291 0.00891797 0.0073962 0.001 1.0472e-05 -2.49614e-12 3.32268e-12 7.90904e-12
215 2 0.0141607 0.0152159 0.010789 0.001 1.0472e-05 1.01407e-14 2.75726e-12 -2.09552e-13
216 2 0.0145543 0.00355354 0.00270893 0.001 1.0472e-05 -4.44466e-12 -3.89107e-12 2.3741e-12
217 2 0.00516449 0.00727366 0.00964166 0.001 1.0472e-05 4.86076e-12 -8.80571e-14 -2.27868e-12
218 2 0.00176425 0.0123739 0.00710227 0.001 1.0472e-05 6.07406e-13 3.22429e-12 1.63652e-12
219 2 0.0102073 0.0141663 0.0133971 0.001 1.0472e-05 1.5751e-14 1.40023e-12 -2.20934e-12
220 2 0.000115054 0.00323268 0.00436539 0.001 1.0472e-05 -4.41458e-12 -3.14312e-12 2.73114e-13
221 2 0.0122921 0.010764 0.0144832 0.001 1.0472e-05 1.93619e-12 -1.13052e-12 1.15432e-13
222 2 0.00988712 0.0100631 0.00785927 0.001 1.0472e-05 -1.39593e-11 -8.05681e-13 2.45502e-11
223 2 0.00227013 0.00371971 0.000954007 0.001 1.0472e-05 -9.80823e-12 3.11712e-12 -7.56661e-12
224 2 0.0083976 0.009551 0.00390556 0.001 1.0472e-05 -1.15144e-12 1.22294e-12 1.79902e-12
225 2 0.0120699 0.0147357 0.00487253 0.001 1.0472e-05 1.84492e-12 -7.07867e-13 3.32739e-12
226 2 0.00561507 0.00410671 0.00629114 0.001 1.0472e-05 1.82605e-11 7.5497e-12 -4.36242e-12
227 2 0.00335431 0.0126207 0.00105695 0.001 1.0472e-05 -1.07372e-12 -1.62492e-13 -1.42378e-12
228 2 0.00995957 0.00142228 0.0087712 0.001 1.0472e-05 7.73028e-13 -4.11764e-14 2.0365e-12
229 2 0.00480507 0.00823777 0.00200027 0.001 1.0472e-05 4.73912e-12 4.26701e-13 5.09168e-13
230 2 0.00884382 0.0086451 0.000953 0.001 1.0472e-05 -1.98675e-11 4.36444e-12 3.64958e-12
231 2 0.0135897 0.0087249 0.00292243 0.001 1.0472e-05 3.24118e-12 6.23637e-14 -1.10188e-12
232 2 0.00926036 0.0133802 0.00330743 0.001 1.0472e-05 -3.26379e-13 -8.63903e-13 6.3077e-13
233 2 0.00508361 0.0143228 0.0132382 0.001 1.0472e-05 -7.17576e-13 2.03793e-12 4.78415e-15
234 2 0.0134331 0.00816312 0.00104772 0.001 1.0472e-05 7.95323e-13 1.97303e-12 -2.47622e-12
235 2 0.0110565 0.0129142 0.00375025 0.001 1.0472e-05 2.8725e-12 1.92025e-12 -2.19903e-12
236 2 0.0149699 0.00803392 0.0144509 0.001 1.0472e-05 1.06841e-12 6.59398e-13 1.20043e-14
237 2 0.0098843 0.00569706 0.000949108 0.001 1.0472e-05 3.19113e-12 -2.09507e-13 5.67388e-12
238 2 0.00352221 0.00144007 0.00328906 0.001 1.0472e-05 5.12305e-13 -1.24403e-11 1.03696e-11
239 2 0.0153184 0.0104658 0.010282 0.001 1.0472e-05 -4.89965e-13 1.41473e-12 6.22962e-13
240 2 0.00775995 0.000976374 0.0129544 0.001 1.0472e-05 -1.41576e-12 9.63411e-13 1.89035e-12
241 2 0.00668748 0.0134064 0.0101069 0.001 1.0472e-05 9.77853e-13 1.17117e-12 2.4906e-12
242 2 0.00283745 0.0051993 0.00229915 0.001 1.0472e-05 -1.07798e-11 6.6546e-12 8.82337e-12
243 2 0.00618783 0.0025258 0.0106964 0.001 1.0472e-05 -1.38953e-12 -1.30245e-12 -2.70007e-12
244 2 0.0112908 0.0013845 0.0144392 0.001 1.0472e-05 2.7172e-13 1.86605e-12 -8.27961e-13
245 2 0.00155904 0.0149562 0.0144565 0.001 1.0472e-05 -3.4494e-13 4.07682e-13 -1.7791e-14
246 2 0.00347126 0.00841221 0.00821453 0.001 1.0472e-05 8.37665e-13 3.10839e-12 1.07034e-12
247 2 0.00625966 0.00416675 0.0144921 0.001 1.0472e-05 -1.26573e-12 1.25126e-12 4.85414e-13
248 2 0.00231846 0.00373622 0.00434161 0.001 1.0472e-05 -1.51214e-13 -1.67862e-13 2.64891e-12
249 2 0.00333269 0.00227702 0.00161919 0.001 1.0472e-05 -3.4649e-12 2.12434e-12 -1.04101e-11
250 2 0.00645393 0.00899285 0.00710708 0.001 1.0472e-05 5.29147e-12 7.08121e-12 5.96489e-12
251 2 0.00845796 0.00383956 0.0126755 0.001 1.0472e-05 -2.78208e-12 -4.33934e-12 -1.02046e-11
252 2 0.0112198 0.00840147 0.00987613 0.001 1.0472e-05 2.44486e-12 6.49497e-12 -1.67801e-12
253 2 0.0138114 0.0114078 0.00558436 0.001 1.0472e-05 1.45539e-12 4.15252e-12 -1.3004e-12
254 2 0.00460004 0.00877497 0.00384889 0.001 1.0472e-05 5.5932e-13 1.86348e-12 -4.92181e-13
255 2 0.00657515 0.0102778 0.0122978 0.001 1.0472e-05 4.34287e-12 1.1087e-11 -4.01492e-12
256 2 0.00686308 0.00974815 0.0104563 0.001 1.0472e-05 -8.8972e-13 1.51315e-12 5.24763e-12
257 2 0.0129252 0.0117915 0.0129213 0.001 1.0472e-05 3.69987e-13 1.7787e-12 -6.71468e-13
258 2 9.55589e-06 0.00123007 0.0112874 0.001 1.0472e-05 -6.82738e-14 2.0187e-12 3.672e-13
259 2 0.012917 0.000126746 0.00325698 0.001 1.0472e-05 1.12874e-12 -7.40014e-14 7.68552e-13
260 2 0.0141559 0.0141547 0.00320179 0.001 1.0472e-05 -7.5997e-12 1.22896e-11 6.86917e-13
261 2 0.0153638 0.0123609 0.000860189 0.001 1.0472e-05 3.49963e-12 -2.37733e-12 3.80068e-13
262 2 0.0107394 0.00232397 0.00733828 0.001 1.0472e-05 2.43734e-12 2.54193e-12 2.73677e-12
263 2 0.0098926 0.00929801 0.00263399 0.001 1.0472e-05 1.5683e-12 5.78862e-12 -7.55759e-13
264 2 0.00925751 0.00240258 0.0142056 0.001 1.0472e-05 1.55601e-10 -6.07182e-11 1.08724e-10
265 2 0.0141596 0.00335176 0.0145042 0.001 1.0472e-05 -4.84431e-13 1.25569e-12 -5.75835e-13
266 2 0.0016423 0.00543989 0.0130417 0.001 1.0472e-05 -1.22418e-12 3.77188e-12 -2.73719e-12
267 2 0.000192264 0.00763644 0.00988613 0.001 1.0472e-05 1.19408e-12 1.18551e-12 3.23156e-12
268 2 0.0110781 0.00889696 0.012636 0.001 1.0472e-05 4.24099e-13 4.44153e-13 2.63173e-12
269 2 0.0141213 0.0019768 0.00109104 0.001 1.0472e-05 1.34682e-12 8.14075e-12 4.70494e-13
270 2 0.00245445 0.0104931 0.0123796 0.001 1.0472e-05 3.52759e-13 1.32947e-12 1.23637e-12
271 2 0.011493 0.00984042 0.0110711 0.001 1.0472e-05 -2.14204e-13 1.63942e-12 -1.46467e-12
272 2 0.00164417 0.00788354 0.0144702 0.001 1.0472e-05 2.66945e-13 1.14459e-12 2.63098e-14
273 2 0.00892212 0.00180469 0.00718658 0.001 1.0472e-05 8.59337e-13 1.75757e-14 2.8727e-12
274 2 0.0087802 0.0148512 0.00509543 0.001 1.0472e-05 1.11294e-12 -6.73318e-13 5.1311e-13
275 2 0.00606978 0.00716785 0.0122636 0.001 1.0472e-05 1.58783e-12 -5.27964e-12 -4.82398e-13
276 2 0.00935618 0.00664764 0.0090234 0.001 1.0472e-05 -1.52131e-12 1.25313e-13 4.46232e-12
277 2 0.0029514 0.000977679 0.00587933 0.001 1.0472e-05 2.54361e-12 6.42307e-13 -1.66029e-12
278 2 0.0130448 0.00694203 0.00348486 0.001 1.0472e-05 5.6547e-12 8.0188e-13 -3.65969e-13
279 2 0.00797139 0.00997282 0.00207478 0.001 1.0472e-05 -6.736e-12 7.22116e-14 3.42525e-12
280 2 0.00869291 0.0147868 0.0021781 0.001 1.0472e-05 -2.29676e-12 -2.42111e-12 -3.68449e-14
281 2 0.0094671 0.00364807 0.00708157 0.001 1.0472e-05 -6.90455e-12 1.69367e-12 5.63006e-12
282 2 0.0145856 0.0142989 0.0087989 0.001 1.0472e-05 4.26776e-13 -1.3309e-13 5.01418e-13
283 2 0.00250638 0.00251356 0.0144513 0.001 1.0472e-05 -1.38301e-13 1.17493e-12 3.14128e-14
284 2 0.0082053 0.000245139 0.0112101 0.001 1.0472e-05 -1.07868e-13 3.4259e-12 2.53669e-12
285 2 0.0135355 0.00197941 0.00298636 0.001 1.0472e-05 1.3756e-12 -3.92387e-12 -3.03338e-13
286 2 0.0136844 0.00174911 0.0118123 0.001 1.0472e-05 2.02938e-13 1.77326e-12 5.9674e-13
287 2 0.00206068 0.00955044 0.00880916 0.001 1.0472e-05 -2.4486e-13 1.85409e-12 1.22197e-12
288 2 0.0118933 0.0029406 0.0109044 0.001 1.0472e-05 7.80372e-14 1.79752e-12 1.62815e-13
289 2 0.00291447 0.00082531 0.0103307 0.001 1.0472e-05 1.36845e-12 4.14032e-13 4.76699e-13
290 2 0.0135644 0.0062868 0.000894736 0.001 1.0472e-05 -2.8033e-12 -6.7529e-13 3.8456e-13
291 2 0.00300635 0.00412115 0.0126468 0.001 1.0472e-05 5.5355e-13 1.90195e-12 -8.81171e-14
292 2 0.0116253 0.00662971 0.00100196 0.001 1.0472e-05 1.22192e-11 -6.50867e-13 -5.48549e-12
293 2 0.00406094 0.00343099 0.00356093 0.001 1.0472e-05 6.81443e-14 -8.34242e-12 -4.75896e-12
294 2 0.012031 0.00511796 0.00692809 0.001 1.0472e-05 -1.25863e-12 -1.4023e-12 -1.8469e-12
295 2 0.0111561 0.00668828 0.00310923 0.001 1.0472e-05 -9.28776e-12 8.54124e-12 -1.83736e-12
296 2 0.00165236 0.00040577 0.0115658 0.001 1.0472e-05 9.28648e-13 7.57757e-13 3.84416e-13
297 2 0.0104442 0.00531781 0.00971621 0.001 1.0472e-05 4.29706e-13 1.45275e-12 2.74516e-12
298 2 0.00652012 0.0126529 0.00346458 0.001 1.0472e-05 -2.70425e-12 2.76103e-13 -6.2517e-13
299 2 0.000596073 0.0109432 0.0120274 0.001 1.0472e-05 1.44789e-13 2.68852e-13 7.7774e-13
300 2 0.00175772 0.00109608 0.0134069 0.001 1.0472e-05 5.22796e-13 1.40099e-12 -6.0502e-15
301 2 0.0129104 0.00408412 0.0133379 0.001 1.0472e-05 9.47399e-13 3.06771e-12 -1.67451e-12
302 2 0.0029436 0.00645581 0.0144669 0.001 1.0472e-05 1.63119e-14 7.47714e-13 -4.77158e-13
303 2 0.00352002 0.0107148 0.00088111 0.001 1.0472e-05 6.91345e-13 -9.74781e-13 -5.94711e-14
304 2 0.0084519 0.0152841 0.00695295 0.001 1.0472e-05 1.59771e-12 -7.72593e-13 3.06499e-13
305 2 0.010453 0.0142266 0.00592079 0.001 1.0472e-05 1.41215e-12 7.44809e-12 1.14748e-12
306 2 0.0133673 0.00507231 0.00238011 0.001 1.0472e-05 -4.43471e-12 4.44446e-12 -3.03949e-12
307 2 0.0128742 0.00880729 0.0119687 0.001 1.0472e-05 -3.80167e-13 3.23243e-12 4.4854e-12
308 2 0.00899395 0.0102211 0.00605196 0.001 1.0472e-05 -6.39895e-12 6.6222e-12 4.57875e-12
309 2 0.00480573 0.0080748 0.00688147 0.001 1.0472e-05 3.20336e-12 2.36983e-12 1.32004e-12
310 2 0.003325 0.0143225 0.0144232 0.001 1.0472e-05 -4.90545e-13 1.13958e-12 -1.59502e-13
311 2 0.00902144 0.00737443 0.00347096 0.001 1.0472e-05 1.58106e-10 -1.42398e-09 1.25038e-09
312 2 0.00227587 0.00664207 0.00864786 0.001 1.0472e-05 8.35366e-13 4.89695e-13 1.54981e-12
313 2 0.00386816 0.00824252 0.0143913 0.001 1.0472e-05 5.71037e-13 1.02652e-12 3.82151e-13
314 2 0.0114805 0.0126982 0.0139477 0.001 1.0472e-05 -2.40658e-13 -1.25121e-12 1.09137e-12
315 2 0.00137091 0.0138096 0.00592945 0.001 1.0472e-05 -4.11969e-12 2.17435e-12 -2.11948e-14
316 2 0.000530747 0.00637393 0.0144232 0.001 1.0472e-05 8.38912e-13 3.45753e-13 -4.82866e-13
317 2 0.00446454 0.00735028 0.00513411 0.001 1.0472e-05 1.02318e-12 -1.35999e-12 -1.47526e-13
318 2 0.0117088 0.00747845 0.0116189 0.001 1.0472e-05 4.74837e-12 2.07193e-12 5.58052e-12
319 2 0.0122306 0.0048128 0.000885464 0.001 1.0472e-05 -2.97084e-12 -3.2217e-13 7.27675e-13
320 2 0.0117829 0.00696799 0.00680975 0.001 1.0472e-05 3.87525e-12 3.42311e-12 3.1648e-12
321 2 0.00835588 0.0143255 0.0125809 0.001 1.0472e-05 2.6071e-13 8.32461e-13 7.98694e-14
322 2 0.0149062 0.00337483 0.0120389 0.001 1.0472e-05 8.48149e-13 2.1557e-12 3.64462e-13
323 2 0.0123696 0.00325544 0.00735387 0.001 1.0472e-05 9.74696e-13 4.4803e-12 -2.98237e-13
324 2 0.00204442 0.0108927 0.00330101 0.001 1.0472e-05 4.94988e-13 -8.15568e-13 -5.10241e-13
325 2 0.014401 0.00800786 0.0126545 0.001 1.0472e-05 5.78439e-13 8.40834e-13 1.86453e-12
326 2 0.00612744 0.00723658 0.0143725 0.001 1.0472e-05 -4.06285e-13 -2.09769e-14 5.65498e-13
327 2 0.0103474 0.000471771 0.0069295 0.001 1.0472e-05 2.15297e-12 -4.7835e-12 1.3683e-12
328 2 0.011839 0.0102578 0.00790487 0.001 1.0472e-05 -1.27521e-12 6.49101e-12 5.48444e-13
329 2 0.0127943 0.00026438 0.00640004 0.001 1.0472e-05 3.88502e-12 9.63183e-13 3.77915e-12
330 2 0.000706841 0.0145357 0.00368238 0.001 1.0472e-05 4.63541e-12 5.93205e-12 9.81925e-13
331 2 0.00647114 0.00915142 0.0144973 0.001 1.0472e-05 -3.79842e-16 -5.46688e-13 -2.91042e-13
332 2 0.0135796 0.00112303 0.00471039 0.001 1.0472e-05 2.59026e-12 -3.37087e-13 -1.08857e-12
333 2 0.000468658 0.00222515 0.00842297 0.001 1.0472e-05 -4.76669e-13 1.12096e-12 5.72197e-15
334 2 0.00552384 0.0085144 0.0109798 0.001 1.0472e-05 -5.56882e-13 -2.12746e-12 1.37246e-12
335 2 0.00198555 0.0126486 0.00249904 0.001 1.0472e-05 1.02268e-12 8.58581e-13 -2.79363e-13
336 2 0.0107972 0.0107695 0.00949678 0.001 1.0472e-05 2.03247e-12 4.06473e-12 9.31916e-13
337 2 0.0082373 0.0022954 0.0037132 0.001 1.0472e-05 2.83482e-11 -1.38899e-11 2.27255e-11
338 2 0.0109188 0.00426286 0.00820171 0.001 1.0472e-05 -6.75056e-13 2.57308e-12 -1.2062e-12
339 2 0.00442288 0.00802972 0.0124874 0.001 1.0472e-05 -3.95556e-13 -2.40753e-12 1.26427e-12
340 2 0.00346998 0.00229533 0.0128675 0.001 1.0472e-05 6.33893e-13 2.56138e-13 -6.592e-13
341 2 0.00785592 0.011269 0.0111828 0.001 1.0472e-05 -3.21075e-13 3.31295e-12 1.75121e-12
342 2 0.0153282 0.00711132 0.00356177 0.001 1.0472e-05 2.73546e-12 -7.40518e-13 4.60812e-12
343 2 0.000929073 0.00409095 0.00841085 0.001 1.0472e-05 4.64655e-14 2.41345e-12 1.56696e-13
344 2 0.013318 0.010695 0.00323788 0.001 1.0472e-05 -6.59288e-13 8.14344e-13 5.4965e-13
345 2 0.0112531 0.00911038 0.014552 0.001 1.0472e-05 3.06161e-13 -2.54806e-12 3.08054e-12
346 2 0.00451755 0.00646184 0.00105769 0.001 1.0472e-05 2.38168e-12 -1.11277e-11 -5.07374e-12
347 2 0.00822373 0.00194359 0.000905024 0.001 1.0472e-05 -4.77207e-12 6.18391e-13 -4.91978e-14
348 2 0.0130113 0.00607976 0.00821247 0.001 1.0472e-05 1.31827e-12 -1.85428e-14 -9.09533e-13
349 2 0.00659911 0.0115298 0.0098275 0.001 1.0472e-05 3.47454e-13 -2.67207e-13 2.18575e-12
350 2 0.00500844 0.00961584 0.00081987 0.001 1.0472e-05 4.3899e-12 2.05824e-12 6.89218e-13
351 2 0.00964017 0.00810693 0.0115189 0.001 1.0472e-05 2.69559e-12 -3.33373e-12 1.43151e-12
352 2 0.0118825 0.0082028 0.00217858 0.001 1.0472e-05 3.29739e-12 -1.92132e-12 -5.46786e-12
353 2 0.00310882 0.00440618 0.0144736 0.001 1.0472e-05 -2.04788e-13 -4.18492e-13 -8.37495e-14
354 2 0.0134671 0.00774582 0.00731047 0.001 1.0472e-05 5.15869e-12 1.90435e-12 4.19773e-12
355 2 0.00763904 0.0136286 0.000988605 0.001 1.0472e-05 3.96386e-13 -5.86185e-13 4.78393e-13
356 2 0.00413718 0.00502779 0.00692196 0.001 1.0472e-05 3.30529e-12 3.20753e-12 -2.23128e-12
357 2 0.0107688 0.0108787 0.00640708 0.001 1.0472e-05 -8.66366e-12 -1.44449e-11 -4.30276e-12
358 2 0.00955435 0.0102671 0.0109883 0.001 1.0472e-05 1.30044e-12 4.52885e-12 1.00889e-13
359 2 0.00544794 0.0022627 0.00650547 0.001 1.0472e-05 1.07881e-11 5.66211e-12 -5.01983e-12
360 2 0.0145597 0.00387892 0.000842363 0.001 1.0472e-05 -2.9988e-12 9.04413e-13 3.59415e-13
361 2 0.00680914 0.0032933 0.008622 0.001 1.0472e-05 -1.67179e-12 5.52674e-13 6.56804e-13
362 2 0.0042629 0.00391804 0.011316 0.001 1.0472e-05 1.07315e-12 1.09938e-13 1.68375e-12
363 2 0.0126683 0.0127559 0.00269418 0.001 1.0472e-05 3.64183e-12 -3.60078e-12 -1.15801e-12
364 2 0.0101001 0.0075216 0.00177355 0.001 1.0472e-05 -1.10301e-13 2.74e-12 1.15111e-11
365 2 0.0119113 0.00638915 0.0101489 0.001 1.0472e-05 -2.86373e-12 1.20256e-12 2.83913e-12
366 2 0.00763803 0.011646 0.00104104 0.001 1.0472e-05 -4.77803e-13 6.44773e-13 2.4375e-14
367 2 0.00472568 0.000455694 0.0100011 0.001 1.0472e-05 -1.601e-13 7.94995e-13 1.0719e-12
368 2 0.0117384 0.000963079 0.00825171 0.001 1.0472e-05 -1.9017e-12 2.81827e-12 7.47145e-13
369 2 0.00584758 0.0138834 0.00653193 0.001 1.0472e-05 6.15284e-13 3.35004e-13 6.87208e-13
370 2 0.00177242 0.0114231 0.00105547 0.001 1.0472e-05 -4.65157e-13 -1.97076e-12 -3.25811e-13
371 2 0.0128822 0.00413753 0.00570748 0.001 1.0472e-05 2.08143e-12 -6.10009e-12 3.89721e-12
372 2 0.00153257 0.00935515 0.00691444 0.001 1.0472e-05 6.49222e-12 3.31731e-12 4.33159e-12
373 2 0.0101301 0.00519092 0.00277241 0.001 1.0472e-05 2.15892e-12 6.0282e-12 -1.11233e-13
374 2 0.00172261 0.00461265 0.0113195 0.001 1.0472e-05 1.66512e-12 2.79063e-12 -1.5101e-12
375 2 0.00484566 0.00912546 0.00926259 0.001 1.0472e-05 1.04558e-12 2.9478e-12 9.02107e-13
376 2 0.00377298 0.0108092 0.0144163 0.001 1.0472e-05 -9.12664e-14 8.64485e-13 1.66184e-13
377 2 0.00635389 0.00151574 0.00123427 0.001 1.0472e-05 -8.94446e-13 2.80256e-12 -3.73571e-12
378 2 5.35942e-05 0.0137889 0.0144911 0.001 1.0472e-05 6.30393e-13 1.46453e-14 4.20109e-14
379 2 0.0101128 0.00539865 0.00695459 0.001 1.0472e-05 -5.88888e-12 2.86949e-12 -2.83226e-12
380 2 0.00208631 0.000364545 0.00403015 0.001 1.0472e-05 -7.19041e-13 -5.16284e-12 7.09021e-12
381 2 0.00863114 0.0116843 0.0128227 0.001 1.0472e-05 -3.85428e-13 3.49323e-12 1.87944e-12
382 2 0.00494855 0.00964249 0.013519 0.001 1.0472e-05 -4.38337e-13 -9.12065e-13 1.29047e-12
383 2 0.000616427 0.00293212 0.00623972 0.001 1.0472e-05 1.71374e-12 7.19347e-13 -5.12083e-12
384 2 0.00310216 0.000601794 0.000908302 0.001 1.0472e-05 -1.46247e-12 -2.05194e-12 -3.74437e-12
385 2 0.00823655 0.0055953 0.00300341 0.001 1.0472e-05 -2.94794e-11 -1.93963e-11 -2.30638e-11
386 2 0.0119248 0.00199644 0.0126038 0.001 1.0472e-05 -2.83691e-13 1.3996e-12 -1.76541e-12
387 2 0.0134439 0.0129899 0.00445896 0.001 1.0472e-05 -1.08016e-13 6.45466e-12 -3.63888e-12
388 2 0.00685716 0.01238 0.00582047 0.001 1.0472e-05 1.16278e-12 8.00347e-13 1.08014e-12
389 2 0.00778111 0.0112587 0.00713781 0.001 1.0472e-05 2.26709e-13 3.35937e-12 1.29367e-12
390 2 0.0030558 0.00745159 0.0101217 0.001 1.0472e-05 9.91189e-13 6.89776e-13 1.02676e-12
391 2 0.000695039 0.00692591 0.00646992 0.001 1.0472e-05 1.92616e-12 8.22652e-13 -1.27203e-12
392 2 0.00585087 0.00644631 0.00591544 0.001 1.0472e-05 -1.86919e-13 3.77533e-12 5.83275e-12
393 2 0.00796172 0.0104475 0.00906554 0.001 1.0472e-05 4.9333e-13 -1.19619e-12 2.09836e-12
394 2 0.0150396 0.00923067 0.000972083 0.001 1.0472e-05 2.82918e-13 -1.28293e-13 -6.51925e-13
395 2 0.0117204 0.00154573 0.00361404 0.001 1.0472e-05 3.83607e-13 -1.26974e-12 2.73998e-13
396 2 0.00952712 0.00113039 0.00212589 0.001 1.0472e-05 -1.73822e-12 -4.78953e-12 -4.0126e-13
397 2 0.00868841 0.00584054 0.0106477 0.001 1.0472e-05 -4.2626e-12 -1.92807e-13 -7.98721e-13
398 2 0.00388026 0.00363276 0.00552311 0.001 1.0472e-05 3.49464e-12 5.71404e-12 -6.22441e-12
399 2 0.000840812 0.0108388 0.00792202 0.001 1.0472e-05 7.83987e-13 2.71349e-12 8.68053e-13
400 2 0.010712 0.000511695 0.0128052 0.001 1.0472e-05 -6.10023e-13 2.3871e-12 -1.99608e-12
401 3 0.00510821 0.0153282 0.00801478 0.00125 2.04531e-05 -2.67582e-12 2.19482e-13 8.30394e-14
402 3 0.0118278 0.0125662 0.00573439 0.00125 2.04531e-05 3.23483e-11 4.16593e-11 -2.33815e-11
403 3 0.0153655 0.011464 0.00295158 0.00125 2.04531e-05 2.65669e-12 -3.93583e-12 -1.03709e-13
404 3 0.00460212 0.0135841 0.00950264 0.00125 2.04531e-05 6.20066e-13 2.55705e-12 1.89717e-12
405 3 0.000838549 0.00378602 0.0141523 0.00125 2.04531e-05 -1.27043e-12 4.23483e-12 -1.62467e-12
406 3 0.00838557 0.00678246 0.00691085 0.00125 2.04531e-05 -2.88099e-11 5.70174e-12 5.70991e-12
407 3 0.00516709 0.00510728 0.00444245 0.00125 2.04531e-05 -8.2374e-12 3.09928e-11 7.19682e-12
408 3 0.0118508 0.00646728 0.013759 0.00125 2.04531e-05 -7.5042e-86 8.68924e-86 6.77512e-86
409 3 0.00429391 0.00529992 0.00971744 0.00125 2.04531e-05 2.63249e-12 2.37425e-12 3.1503e-12
410 3 0.00541924 0.000355925 0.00375051 0.00125 2.04531e-05 5.87083e-14 -1.29797e-12 2.06092e-13
411 3 0.00277645 0.0148528 0.00735932 0.00125 2.04531e-05 3.71644e-12 2.05704e-12 -8.40456e-13
412 3 0.00184993 0.0114558 0.0103433 0.00125 2.04531e-05 1.80374e-13 4.61745e-12 3.62207e-12
413 3 0.014303 0.00766937 0.00539193 0.00125 2.04531e-05 3.89854e-12 1.87406e-12 3.92674e-12
414 3 0.0100473 0.0110032 0.00428757 0.00125 2.04531e-05 1.75335e-12 7.41561e-13 1.72355e-12
415 3 0.00706197 0.00546606 0.013003 0.00125 2.04531e-05 4.97088e-12 -3.12001e-13 -6.6739e-13
416 3 0.00547107 0.00101032 0.0138642 0.00125 2.04531e-05 -7.82642e-13 2.02763e-12 4.62126e-13
417 3 0.00943291 0.00563095 0.0133002 0.00125 2.04531e-05 8.9925e-12 1.16266e-11 1.11665e-11
418 3 0.0151634 0.0122635 0.00919075 0.00125 2.04531e-05 -1.53155e-12 3.70958e-12 -1.35204e-13
419 3 0.00405248 0.0128019 0.00732678 0.00125 2.04531e-05 1.21242e-12 2.21359e-12 1.51286e-12
420 3 0.0136467 0.0147456 0.0138656 0.00125 2.04531e-05 -1.20095e-12 -3.66105e-12 -3.33395e-12
421 3 0.00740889 0.00753514 0.0106287 0.00125 2.04531e-05 8.11506e-13 -1.59361e-12 2.72618e-12
422 3 0.00626991 0.00685862 0.00790011 0.00125 2.04531e-05 8.68419e-12 2.06869e-12 -1.14711e-11
423 3 0.0150813 0.00173109 0.0134322 0.00125 2.04531e-05 1.35494e-12 2.50826e-12 -8.36241e-13
424 3 0.00172507 0.00708167 0.00216925 0.00125 2.04531e-05 3.17687e-12 -5.18297e-12 3.38979e-12
425 3 0.00626679 0.00262626 0.00449877 0.00125 2.04531e-05 -3.27963e-11 -1.32009e-11 1.94088e-11
426 3 0.0121512 0.00900841 0.0062369 0.00125 2.04531e-05 2.52455e-11 1.82637e-11 -4.56179e-12
427 3 0.00441068 0.0040851 0.00130074 0.00125 2.04531e-05 3.89757e-11 -3.35951e-11 3.28166e-11
428 3 0.00355596 0.00930857 0.0110189 0.00125 2.04531e-05 1.21469e-12 2.06688e-12 1.40184e-12
429 3 0.0102538 0.0109147 0.0139134 0.00125 2.04531e-05 3.50412e-12 -5.21123e-12 3.27237e-12
430 3 0.0140258 0.0134363 0.0119348 0.00125 2.04531e-05 -1.4779e-12 6.31476e-12 5.03655e-12
431 3 0.00380782 0.0126268 0.0133527 0.00125 2.04531e-05 -1.65755e-12 2.85166e-13 6.9985e-13
432 3 0.00230327 0.00280122 0.00955862 0.00125 2.04531e-05 8.52936e-13 2.48785e-12 -1.59875e-13
433 3 0.0145022 0.00547435 0.0131131 0.00125 2.04531e-05 -4.88485e-14 4.15807e-12 -4.15664e-12
434 3 0.00159002 0.00257608 0.0118737 0.00125 2.04531e-05 2.07847e-12 2.43237e-12 2.13302e-13
435 3 0.0117313 0.0142079 0.00769934 0.00125 2.04531e-05 3.39999e-12 5.52566e-12 2.48635e-12
436 3 0.00192528 0.0142345 0.00108664 0.00125 2.04531e-05 2.35247e-12 -1.96088e-12 -3.07241e-12
437 3 0.0137172 0.0109837 0.00115381 0.00125 2.04531e-05 2.33557e-12 -9.88134e-13 1.63105e-12
438 3 0.00340192 0.0060966 0.0118143 0.00125 2.04531e-05 5.16522e-12 5.24565e-12 -6.85074e-15
439 3 0.00793311 0.00672138 0.00117914 0.00125 2.04531e-05 -3.50778e-11 -2.58502e-11 -8.38044e-12
440 3 0.0054251 0.0117839 0.00120039 0.00125 2.04531e-05 3.67803e-12 1.48601e-12 -2.5879e-13
441 3 0.00805291 0.00172928 0.00971092 0.00125 2.04531e-05 -1.53035e-12 2.68319e-12 -2.34392e-12
442 3 0.0135048 0.012595 0.00745951 0.00125 2.04531e-05 -8.65592e-13 5.97116e-12 2.93618e-12
443 3 0.00280207 0.00716806 0.0065841 0.00125 2.04531e-05 4.89054e-12 -2.67717e-12 -6.10796e-13
444 3 0.00666004 0.00283875 0.0128572 0.00125 2.04531e-05 1.40202e-13 -1.30701e-13 9.13611e-13
445 3 0.0142541 0.00506974 0.00436986 0.00125 2.04531e-05 -8.51063e-12 -2.0045e-12 9.23768e-12
446 3 0.00483438 0.0123782 0.00510901 0.00125 2.04531e-05 -3.0881e-12 5.24401e-13 4.02676e-12
447 3 0.00396555 0.0144595 0.00225751 0.00125 2.04531e-05 -2.99999e-12 2.19463e-12 -2.19074e-12
448 3 0.00946042 0.00518139 0.00486491 0.00125 2.04531e-05 -1.58142e-11 -8.20128e-12 -2.10251e-13
449 3 0.00963367 0.0126271 0.00116232 0.00125 2.04531e-05 4.45326e-12 -1.29579e-11 3.39253e-12
450 3 0.00103157 0.0140464 0.0125384 0.00125 2.04531e-05 1.59289e-12 2.01998e-12 2.57998e-12
451 3 0.0137201 0.0140822 0.0011198 0.00125 2.04531e-05 3.443e-12 -1.47081e-12 -1.19584e-13
452 3 0.00893072 0.012727 0.00542107 0.00125 2.04531e-05 1.24874e-12 2.23372e-12 -1.21631e-12
453 3 0.0118802 0.00312691 0.00218472 0.00125 2.04531e-05 -1.9536e-12 -2.93956e-12 3.54453e-12
454 3 0.00296119 0.0137777 0.0111752 0.00125 2.04531e-05 5.39776e-13 1.5462e-13 1.81269e-12
455 3 0.00977266 0.00788281 0.013861 0.00125 2.04531e-05 -5.17163e-13 2.10989e-12 9.30501e-12
456 3 0.0069451 0.00132918 0.00768603 0.00125 2.04531e-05 -1.38045e-12 -1.10558e-12 3.55765e-12
457 3 0.00944267 0.00325923 0.00223748 0.00125 2.04531e-05 8.07242e-12 -1.11087e-11 -2.68469e-13
458 3 0.00192392 0.00655049 0.00445349 0.00125 2.04531e-05 2.20288e-11 -3.81238e-11 3.16326e-11
459 3 0.000820398 0.00911987 0.0129553 0.00125 2.04531e-05 1.30615e-12 -2.1711e-12 2.16235e-12
460 3 0.0115897 0.0136015 0.011833 0.00125 2.04531e-05 -1.91032e-12 6.5732e-12 1.16974e-14
461 3 0.00701097 0.0145405 0.0142098 0.00125 2.04531e-05 1.15924e-12 1.08476e-12 2.85655e-12
462 3 0.000153796 0.00926513 0.00374912 0.00125 2.04531e-05 -1.10024e-11 -1.55135e-12 -6.22959e-12
463 3 0.0143209 0.00391868 0.00769893 0.00125 2.04531e-05 4.05562e-13 1.53869e-12 -2.30108e-12
464 3 0.00795508 0.00387068 0.0106491 0.00125 2.04531e-05 -4.49327e-13 2.84994e-13 1.05376e-12
465 3 0.00396086 0.00677349 0.0031821 0.00125 2.04531e-05 1.12007e-11 -9.19396e-12 1.79274e-11
466 3 0.0145478 0.014689 0.0053889 0.00125 2.04531e-05 1.58139e-12 4.48981e-14 1.81806e-12
467 3 0.00166517 0.0137483 0.00914031 0.00125 2.04531e-05 -1.77579e-12 6.30782e-13 -2.88293e-12
468 3 0.00468502 0.0112376 0.00910221 0.00125 2.04531e-05 4.62791e-12 3.8294e-12 1.49031e-12
469 3 0.00768332 0.00836238 0.0129653 0.00125 2.04531e-05 -1.07731e-12 -3.22532e-12 6.11443e-13
470 3 0.00313805 0.010802 0.00638341 0.00125 2.04531e-05 8.13338e-13 8.81766e-12 4.9898e-12
471 3 0.0138083 0.00154906 0.00801792 0.00125 2.04531e-05 -7.47013e-13 1.42407e-12 -2.0948e-12
472 3 0.0036266 0.0143722 0.00459364 0.00125 2.04531e-05 -5.76166e-12 7.29045e-12 1.97637e-12
473 3 0.01069 0.00753715 0.0049716 0.00125 2.04531e-05 4.8717e-12 1.60585e-11 2.65302e-11
474 3 0.0134127 0.00952022 0.0100291 0.00125 2.04531e-05 6.25235e-12 7.57054e-13 -4.35417e-12
475 3 0.00403312 0.0115968 0.0113211 0.00125 2.04531e-05 -1.62308e-13 1.108e-12 4.06387e-12
476 3 0.0107233 0.0150992 0.00321297 0.00125 2.04531e-05 8.65988e-12 -8.34901e-12 -4.97509e-13
477 3 0.00464868 0.00312059 0.00870708 0.00125 2.04531e-05 -2.8273e-12 2.74383e-12 2.14348e-12
478 3 0.00914681 0.00874213 0.00944346 0.00125 2.04531e-05 2.47992e-12 2.98484e-12 8.63519e-12
479 3 0.00624945 0.0125239 0.0121352 0.00125 2.04531e-05 -1.07834e-11 3.55789e-11 -8.27115e-12
480 3 0.0122995 0.000709191 0.00121681 0.00125 2.04531e-05 1.13492e-12 -4.42397e-12 4.16594e-12
481 3 0.00379222 0.000323684 0.0122498 0.00125 2.04531e-05 1.04354e-13 5.87465e-13 9.67193e-14
482 3 0.00765752 0.00446909 0.00641417 0.00125 2.04531e-05 -4.25701e-11 -8.92629e-13 1.25416e-11
483 3 0.00962816 0.00221139 0.0119869 0.00125 2.04531e-05 -2.94645e-12 2.33687e-13 2.90245e-12
484 3 0.0118793 0.00476597 0.00391628 0.00125 2.04531e-05 -8.80606e-12 2.43557e-12 -2.08657e-12
485 3 0.0100375 0.0032072 0.00981489 0.00125 2.04531e-05 -3.62024e-12 -1.95722e-12 -5.53683e-12
486 3 0.00958156 0.00149809 0.00515553 0.00125 2.04531e-05 1.17271e-11 -2.91976e-12 9.21483e-13
487 3 0.0110583 0.0149783 0.00988326 0.00125 2.04531e-05 -3.84075e-13 2.31308e-12 1.88129e-12
488 3 9.61791e-05 0.00120907 0.0035721 0.00125 2.04531e-05 1.32346e-11 -1.5117e-12 3.72468e-12
489 3 0.0108501 0.00376661 0.0133897 0.00125 2.04531e-05 6.90429e-12 5.42172e-12 2.67199e-12
490 3 0.0129507 0.0132919 0.00979129 0.00125 2.04531e-05 1.83362e-12 3.85783e-12 5.42868e-12
491 3 0.011978 0.00217816 0.00560597 0.00125 2.04531e-05 7.27813e-12 9.59688e-12 -2.60414e-12
492 3 0.00778648 0.00523067 0.00870393 0.00125 2.04531e-05 -1.0424e-11 2.17143e-12 -6.67162e-12
493 3 0.0142124 0.0100765 0.0139645 0.00125 2.04531e-05 3.34755e-12 1.61793e-12 1.77696e-12
494 3 0.00294316 0.00920676 0.00239347 0.00125 2.04531e-05 1.8163e-12 -2.3522e-12 5.69248e-13
495 3 0.000918997 0.00482947 0.00315684 0.00125 2.04531e-05 -1.18604e-12 -2.2402e-12 6.15449e-12
496 3 0.0113171 0.011057 0.00220569 0.00125 2.04531e-05 1.78682e-12 1.73649e-12 -1.56209e-12
497 3 0.00968696 0.0133506 0.00881869 0.00125 2.04531e-05 2.86772e-12 3.99024e-12 3.31005e-12
498 3 0.0117118 0.00939076 0.00392036 0.00125 2.04531e-05 5.34794e-12 1.77466e-11 1.52436e-11
499 3 0.00687357 0.00794686 0.00312245 0.00125 2.04531e-05 1.27338e-09 -5.16128e-10 1.222e-09
500 3 0.00115116 0.0113184 0.00522118 0.00125 2.04531e-05 1.78094e-12 1.46295e-12 1.75761e-12
