ITEM: TIMESTEP
125000
ITEM: NUMBER OF ATOMS
500
ITEM: BOX BOUNDS pp pp ff
0.0000000000000000e+00 1.5370634520482899e-02
0.0000000000000000e+00 1.5370634520482899e-02
0.0000000000000000e+00 1.5370634520482899e-02
ITEM: ATOMS id type x y z vx vy vz omegax omegay omegaz radius mass fx fy fz
1 1 6.075388560428e-03 6.792255285569e-03 5.391220009463e-03 -2.167244263560e-12 3.577057085284e-11 -1.207662895278e-11 -1.750321461124e-08 1.760641063933e-08 -2.168943185464e-08 7.500000000000e-04 4.417864669111e-06 -5.554796661557e-15 -1.305541972851e-13 -4.802478472186e-14
2 1 1.490244263131e-03 5.814905139654e-03 1.048943152098e-02 1.313666516306e-11 4.192615333811e-11 -4.335764510448e-12 1.352704939153e-08 1.413004991243e-09 -5.492281966585e-09 7.500000000000e-04 4.417864669111e-06 3.280522193655e-15 -1.770757933777e-13 -2.048475595787e-15
3 1 1.402938712974e-02 4.247243412577e-03 6.884838574866e-03 3.940489942100e-12 3.458387830547e-11 -2.171470460195e-12 -4.060931500596e-09 -1.210185926763e-10 -5.537769967330e-10 7.500000000000e-04 4.417864669111e-06 -1.251587232867e-13 2.744151475176e-14 -8.469443482806e-15
4 1 7.993833774763e-03 8.717518063047e-03 7.052444687207e-04 -1.206535372074e-11 4.520714069473e-12 -2.098548337456e-12 2.011202326706e-10 -1.182350709584e-08 -6.874122581627e-09 7.500000000000e-04 4.417864669111e-06 1.485758669461e-13 -6.480577276676e-14 -5.811802323939e-14
5 1 1.060951788092e-02 2.494118512934e-03 6.421105952470e-03 9.220462346284e-12 5.454459703183e-11 -1.929267928682e-11 2.126116054428e-08 2.719208519112e-08 1.151693582270e-09 7.500000000000e-04 4.417864669111e-06 9.349209979110e-14 1.455015141752e-13 8.476873929109e-14
6 1 5.742378336829e-03 8.654937745162e-03 2.445074960292e-03 -1.950883011931e-11 2.824064233571e-11 1.331757653686e-11 -2.705542162546e-08 3.086728952394e-08 2.314633270394e-09 7.500000000000e-04 4.417864669111e-06 -3.176966610747e-14 -5.902085317141e-14 -1.557734469002e-13
7 1 5.980273751645e-03 3.644132221735e-03 1.076607647361e-02 1.952251978998e-11 5.855723043093e-11 -1.300501222368e-11 2.132900520490e-08 -1.212269290992e-08 1.383438636914e-08 7.500000000000e-04 4.417864669111e-06 3.170506486635e-14 -4.107600482293e-15 7.983770871979e-15
8 1 5.883241046652e-03 7.316656977536e-03 2.890542016962e-03 1.895367166420e-11 4.018132695511e-11 2.416733399303e-11 1.108818898172e-08 -8.313677705625e-08 6.748115089425e-08 7.500000000000e-04 4.417864669111e-06 -5.476390311556e-14 -3.495712395020e-14 -1.391187185918e-13
9 1 1.077194565391e-02 9.148088682438e-03 1.468695250557e-02 1.789181904123e-11 4.323582926638e-12 7.877133852274e-13 -2.417093382337e-09 -1.825555378267e-08 3.687323876290e-09 7.500000000000e-04 4.417864669111e-06 2.841464931196e-14 1.220262749453e-14 -1.201214898669e-13
10 1 2.850509367187e-03 3.181462767573e-03 1.316001751830e-02 1.400870502114e-11 2.989917459935e-11 4.577893808562e-12 -1.203883721181e-08 -2.941352920111e-09 -7.134479639262e-09 7.500000000000e-04 4.417864669111e-06 -2.803216169701e-14 -2.901833733941e-14 4.009763027858e-14
11 1 1.386020851337e-02 1.051466478717e-02 8.822409127776e-03 -3.900542411785e-11 1.552282678110e-10 4.318629849171e-11 1.496539566235e-07 2.208958963923e-08 -6.602075061679e-08 7.500000000000e-04 4.417864669111e-06 -2.257452081472e-15 2.323189122879e-13 2.108895791196e-13
12 1 5.852556589928e-03 1.976042702991e-03 1.295009534047e-02 1.423271368136e-11 6.281391962830e-11 3.900796202175e-11 -9.794157979991e-08 -1.494649986690e-07 3.466723117868e-08 7.500000000000e-04 4.417864669111e-06 9.214182672748e-14 -2.091675211518e-13 -1.415948809228e-14
13 1 6.684836859275e-03 5.740639923626e-03 6.688701487085e-04 -3.310083043365e-12 6.507013498328e-12 -6.544130632795e-12 -1.173941685855e-08 -2.676336178570e-09 5.134163621081e-09 7.500000000000e-04 4.417864669111e-06 1.149623862813e-13 -8.030500169493e-15 8.472736826970e-14
14 1 1.219656246678e-02 2.726972651966e-03 6.099301732951e-04 -4.128075536022e-12 3.550709469500e-12 -2.224790424718e-12 -1.310250251094e-09 -5.407234244326e-09 -9.563767634050e-10 7.500000000000e-04 4.417864669111e-06 3.674706312330e-16 -3.235899137784e-14 -3.027624934252e-14
15 1 2.346387623837e-03 6.700942650452e-03 6.755623028803e-03 -5.921412768533e-12 4.120286291815e-11 -6.505250047709e-12 -1.946475607315e-08 -1.134758291687e-08 -1.531484293499e-09 7.500000000000e-04 4.417864669111e-06 -1.851842115125e-13 1.057220205378e-14 -7.076109750584e-15
16 1 1.058424544184e-02 3.238444329374e-03 2.664622742241e-03 7.547946417280e-12 1.296624212076e-11 -5.476009754969e-12 1.871097031508e-08 1.560963408396e-08 1.841032545541e-08 7.500000000000e-04 4.417864669111e-06 -2.887127934591e-14 -1.413350463334e-14 1.614600511266e-14
17 1 3.848648101622e-03 9.949305966301e-03 6.196883820533e-04 -1.407270127280e-11 3.035879635447e-12 7.243723225628e-12 -3.459507792857e-10 -1.269317539233e-08 -9.993198255025e-09 7.500000000000e-04 4.417864669111e-06 -1.212193700475e-14 1.069509203554e-13 -1.153430098152e-13
18 1 5.280981533081e-03 7.884099959692e-03 6.308854617940e-03 -1.987747894494e-12 2.167135544666e-11 3.258254367153e-11 1.805563309671e-08 -4.911749323625e-08 -5.340581276858e-08 7.500000000000e-04 4.417864669111e-06 9.685350266774e-14 1.626587396873e-14 2.806932168527e-14
19 1 2.411248815138e-03 9.867864823909e-03 5.691150434878e-03 -4.254512405211e-11 4.770516129871e-11 2.569425849778e-11 -2.073381794532e-08 2.279833829071e-08 -5.517510966220e-09 7.500000000000e-04 4.417864669111e-06 1.546422803354e-13 -5.407806204864e-14 -4.630486321314e-13
20 1 1.455735649938e-02 4.248185563229e-03 1.440151556799e-02 2.137989433462e-11 2.378515776083e-11 1.146180327256e-11 -2.000970916292e-08 3.956453098357e-08 -3.136740489756e-09 7.500000000000e-04 4.417864669111e-06 9.331387641315e-15 7.314549437950e-15 -1.000145743392e-13
21 1 8.118141228216e-03 1.017998888584e-02 7.207158483593e-04 -4.355998569892e-12 6.162755383814e-12 -1.110582002562e-12 -6.006534139684e-09 -5.340944998715e-09 -3.153227185262e-09 7.500000000000e-04 4.417864669111e-06 1.312726011275e-14 -2.496307554180e-14 -2.862168376842e-13
22 1 4.019148882765e-03 9.485677057486e-03 1.867301271960e-03 -2.259319857036e-11 1.776882587463e-11 1.711024644548e-11 -1.512505023777e-08 2.099248080546e-08 -1.813265714353e-08 7.500000000000e-04 4.417864669111e-06 1.111233026365e-13 -2.631339954001e-13 -1.303621369984e-13
23 1 8.917968203188e-03 6.009583272800e-03 4.568969312264e-03 1.407406628295e-12 2.368051960284e-11 -1.500924558854e-11 -1.994743820316e-09 -2.080755393836e-08 -9.918755062382e-09 7.500000000000e-04 4.417864669111e-06 -2.488846334845e-13 -1.746465826213e-13 -1.226100578488e-13
24 1 1.126876448234e-02 6.942499075694e-03 1.256074363584e-02 2.167685402469e-11 2.819348388574e-11 -1.474409037730e-11 3.248711327649e-08 -4.302392836651e-08 -1.620358939790e-08 7.500000000000e-04 4.417864669111e-06 -3.931031115123e-14 2.344245949126e-15 -4.152796903550e-14
25 1 8.959250134827e-03 1.213200140193e-02 2.327930329677e-03 3.188232586807e-12 9.794663548853e-12 9.024855474361e-12 -6.208408287136e-11 3.038546260274e-09 -9.119403529837e-09 7.500000000000e-04 4.417864669111e-06 1.107683032594e-14 -5.065741511330e-14 2.034239758728e-13
26 1 9.501379482483e-03 4.685817378869e-03 5.446049204481e-03 7.376228086221e-12 9.271796778873e-12 5.017415045594e-12 6.071380190410e-08 5.956479191880e-09 -1.196877888170e-07 7.500000000000e-04 4.417864669111e-06 1.846688847229e-13 -5.839580873633e-14 -1.034055008930e-13
27 1 6.515762239050e-03 6.534299597092e-03 1.174629423966e-02 1.933691825797e-11 3.685621193770e-11 -9.246043131641e-12 7.135982008277e-09 -1.982054022285e-09 1.036806689675e-08 7.500000000000e-04 4.417864669111e-06 -8.423010805357e-14 -3.094807110937e-14 7.984982330013e-14
28 1 8.729994803188e-03 9.899827910728e-03 1.467710663037e-02 2.377739434300e-11 2.120658296643e-11 4.145376262475e-12 1.920168484852e-08 -2.889085329474e-08 4.239737721773e-09 7.500000000000e-04 4.417864669111e-06 1.170578890139e-13 -9.035511236120e-14 -3.380765367497e-14
29 1 3.492952713379e-03 4.777649233991e-03 8.643590305444e-03 5.419715772970e-12 3.985224816772e-11 -4.331955514449e-12 -4.111331795549e-09 4.646422131517e-09 1.986137488441e-08 7.500000000000e-04 4.417864669111e-06 -4.986707529785e-14 -1.296025902004e-13 6.552698614210e-14
30 1 3.433892351239e-03 9.475529394054e-03 1.322459021385e-02 2.077170270854e-11 3.036092597516e-11 -3.882646351566e-12 -1.515791587599e-10 4.374883642785e-09 -6.957782360154e-09 7.500000000000e-04 4.417864669111e-06 -3.180900450583e-14 -8.144266152389e-15 9.276671343294e-14
31 1 9.244984562997e-03 3.746428056618e-03 8.969945043056e-03 -1.218908919693e-11 5.883858584894e-11 -1.307494488610e-11 -1.021458571713e-08 2.660206948531e-08 4.310354314018e-08 7.500000000000e-04 4.417864669111e-06 4.376363826726e-13 2.230394420202e-13 1.707906577564e-13
32 1 7.385525065886e-03 1.195940707004e-03 1.322499486342e-02 3.438700885100e-09 9.450224371410e-09 -1.710108640471e-08 1.345892966603e-01 6.722564325240e-01 -6.478254204013e-01 7.500000000000e-04 4.417864669111e-06 -2.308975622817e-12 -6.380735387588e-12 1.148747278507e-11
33 1 9.379429298492e-03 9.164827252314e-03 9.777446873022e-03 5.594715668367e-11 1.351097174267e-10 3.002833372338e-12 1.426462977170e-07 -7.216247577664e-09 4.099011873387e-08 7.500000000000e-04 4.417864669111e-06 -1.578667648257e-13 -6.456846631068e-14 6.045220682106e-13
34 1 7.397417850000e-03 4.216039638557e-03 1.465672300853e-02 6.229264534542e-13 1.965818473629e-11 -4.336586666149e-12 2.315377862014e-08 9.696784688278e-10 -4.150967489724e-08 7.500000000000e-04 4.417864669111e-06 -2.642981647155e-14 9.762229131256e-15 1.730870011182e-14
35 1 1.170151182232e-02 1.438595580679e-02 1.402987662926e-02 -5.667202117469e-11 9.008023208156e-11 -1.034124791535e-11 -1.712197820887e-07 -1.113530330936e-07 2.685491347973e-08 7.500000000000e-04 4.417864669111e-06 -1.120190239809e-13 -1.644490360858e-13 5.502917494010e-14
36 1 4.936328152031e-03 3.649714105038e-03 9.793198557650e-03 1.532628954087e-11 5.144112998503e-11 -1.287305904186e-11 -3.203606638843e-09 1.656142623438e-08 1.586484698023e-08 7.500000000000e-04 4.417864669111e-06 2.278957731264e-14 -2.362359277769e-14 2.089403885007e-14
37 1 2.507622942368e-03 2.256786809863e-03 1.466923107229e-02 -1.262398747806e-11 9.555472409792e-12 4.336393371934e-12 1.108591076573e-08 1.973396713628e-08 9.758963074430e-08 7.500000000000e-04 4.417864669111e-06 -1.073390363023e-14 -4.634479249282e-14 3.528772116720e-14
38 1 1.047902968444e-02 1.405134135537e-02 1.476261616868e-02 -7.379593085609e-11 9.923375390376e-11 4.340361751399e-12 1.264009936305e-07 1.089627898214e-07 3.943408998487e-08 7.500000000000e-04 4.417864669111e-06 -3.057643641896e-14 -1.142028475160e-13 -1.952308897847e-14
39 1 9.263196012931e-03 1.474944557635e-02 4.304337882711e-03 3.128250293653e-11 4.449388318856e-11 -3.171227072980e-11 1.541512295426e-08 7.646663410785e-08 7.507073343846e-08 7.500000000000e-04 4.417864669111e-06 -7.719909808807e-14 4.138812753600e-13 -4.472249182921e-13
40 1 1.379673706327e-02 1.498968941153e-03 1.324489929103e-02 4.337958605251e-12 4.611094073625e-11 4.347128206369e-12 -2.860486391963e-08 -1.162441001227e-08 -1.117727507789e-08 7.500000000000e-04 4.417864669111e-06 1.320983012787e-14 2.035837784186e-14 -1.808706022455e-14
41 1 1.191417168215e-02 1.515957422718e-02 4.379851324322e-03 4.336576451910e-12 3.035839051444e-11 -2.240438626189e-12 6.595485173602e-09 -1.833366642264e-09 5.151299798107e-09 7.500000000000e-04 4.417864669111e-06 6.074659126968e-16 8.031501071752e-16 1.291345390603e-13
42 1 7.877338658814e-03 6.733204872333e-03 8.529200455237e-03 1.432486718683e-10 9.221849357564e-11 -3.904856138602e-11 -3.032828887183e-08 -7.056355172290e-08 -1.462660829829e-07 7.500000000000e-04 4.417864669111e-06 1.581558720340e-13 -9.286215644923e-14 -3.184474386924e-14
43 1 1.142340914076e-02 9.234756590705e-03 1.294955305988e-02 1.532018559459e-11 3.427399682422e-11 6.966236762366e-12 2.449879802467e-08 -1.512744824588e-08 1.496419014169e-08 7.500000000000e-04 4.417864669111e-06 5.105298938056e-14 -3.715955880566e-13 -1.606731023998e-14
44 1 1.422349633289e-02 1.211352323406e-02 1.477883037175e-02 -1.300422576259e-11 1.509868526158e-11 8.152486542457e-12 1.122489411092e-08 2.779974894545e-08 -2.574613385630e-08 7.500000000000e-04 4.417864669111e-06 -1.889822072477e-14 6.385060600175e-14 -1.372129728363e-13
45 1 4.855865081987e-03 4.436363331329e-03 6.828195942695e-04 -1.083907736998e-11 2.044872761721e-11 2.223909355127e-12 -3.188284943795e-09 1.671555938564e-08 -7.959626730577e-09 7.500000000000e-04 4.417864669111e-06 1.629865798259e-14 5.054471930685e-15 -3.050241790559e-14
46 1 1.255251137925e-02 1.275274253610e-02 1.048985067048e-02 2.694511063687e-11 8.958058006140e-11 1.584022476542e-11 -3.883522116685e-08 -8.689219916223e-09 -4.691163825073e-08 7.500000000000e-04 4.417864669111e-06 -6.581845733978e-14 3.802645881524e-14 -1.096725029996e-13
47 1 4.243796524150e-03 1.178980280080e-02 1.464307697092e-02 2.012996811190e-11 1.865833441040e-11 6.654758670339e-12 2.217222128745e-08 -2.607440081033e-08 -6.204390795993e-08 7.500000000000e-04 4.417864669111e-06 -2.040797176861e-13 -1.176789591716e-13 -3.859252505962e-14
48 1 1.181506109240e-02 1.099188671538e-02 6.963612548554e-03 -4.432943518997e-08 2.443241896644e-07 -3.663831284898e-08 -1.273271237738e-04 -6.398988318288e-05 -2.712243227783e-04 7.500000000000e-04 4.417864669111e-06 2.455742442284e-11 -1.360574830213e-10 2.056860134603e-11
49 1 2.846049429223e-03 1.654655370539e-03 1.142465375131e-02 3.149599532611e-11 3.736432660442e-11 8.906098204737e-12 -3.933386402572e-09 -1.211196012383e-09 1.697202415895e-08 7.500000000000e-04 4.417864669111e-06 8.170800087176e-15 -8.100033871457e-15 9.976841353055e-14
50 1 9.160770403314e-04 5.127793175930e-03 6.092017825230e-04 -5.072970202274e-13 1.265332216369e-11 4.341953974893e-12 -1.346433425719e-08 1.650451025928e-09 -5.542847063798e-09 7.500000000000e-04 4.417864669111e-06 1.084172493266e-14 -6.886195643664e-14 -1.113725933056e-13
51 1 4.592397007551e-03 9.721650266115e-03 5.550360930341e-03 -1.127928454175e-11 2.108964556678e-11 1.024306573778e-11 -1.144663170813e-08 -1.337012326181e-08 -3.228699095709e-08 7.500000000000e-04 4.417864669111e-06 1.119565736628e-13 -4.492919985938e-14 3.973437708010e-14
52 1 1.344920608285e-02 4.052034990037e-03 4.336892932204e-03 -1.314437414329e-12 1.622104425619e-11 -2.401163994273e-12 -3.509429078141e-09 -1.004654058479e-08 9.449983118993e-09 7.500000000000e-04 4.417864669111e-06 1.306803583881e-14 1.162127713355e-13 6.167663325576e-14
53 1 1.172427837375e-03 1.375571803197e-03 6.733128742259e-03 5.438524237815e-12 4.030151415583e-11 6.625287201260e-12 -6.678850207504e-09 5.036871329827e-09 -1.648806497218e-09 7.500000000000e-04 4.417864669111e-06 -5.976740677291e-14 -8.758167284029e-14 2.820444925431e-15
54 1 1.166544854965e-02 1.524823830648e-02 7.946055182177e-03 -4.213149033324e-12 1.061769560584e-10 4.337270769647e-12 -9.101639869611e-08 3.926248543006e-09 5.539924658482e-08 7.500000000000e-04 4.417864669111e-06 4.881295789007e-15 4.331904237947e-14 -1.709908022311e-14
55 1 1.064761982391e-02 1.047694175263e-02 1.314484750358e-02 2.167875073031e-11 2.355897539873e-11 -3.814692522499e-12 -1.737657837651e-08 -2.374728567459e-08 -1.678621589171e-08 7.500000000000e-04 4.417864669111e-06 -3.223977205089e-14 -4.807921858703e-13 -1.909985545835e-13
56 1 8.175255130322e-03 5.463828249953e-03 1.451174143421e-02 1.388908548239e-11 2.384889570586e-11 5.218025557074e-13 -1.210332848955e-08 2.207681537754e-10 2.884123781160e-08 7.500000000000e-04 4.417864669111e-06 -1.462660207981e-13 8.082615308100e-15 1.352696355619e-13
57 1 6.116969572120e-03 4.646750594348e-03 8.724076361658e-03 -6.506763754728e-12 8.003957536362e-11 -9.382397980361e-13 -2.934110372621e-08 -9.293631810474e-09 2.955941027225e-08 7.500000000000e-04 4.417864669111e-06 -2.166822391486e-14 2.169300785471e-13 -1.072025110467e-13
58 1 6.083361279407e-03 1.040884648887e-02 7.499999232722e-04 -3.046782658041e-09 1.005326693014e-09 6.416717642229e-09 -1.019546154182e+02 -3.089876716910e+02 -2.105120040878e+03 7.500000000000e-04 4.417864669111e-06 1.676330584307e-12 -5.531276995602e-13 -3.530458599051e-12
59 1 4.097561886886e-03 7.254332049439e-03 6.550283957957e-04 5.446538502721e-12 1.614842373091e-11 1.074574862397e-12 -2.212049734945e-08 6.690943119805e-09 -1.420802893988e-07 7.500000000000e-04 4.417864669111e-06 2.615693754654e-15 2.765641528229e-14 -1.345204525569e-14
60 1 2.364804105578e-03 1.237770284541e-02 6.507277814853e-03 -3.681396310572e-11 3.615979098672e-11 6.504694447066e-12 4.173974214665e-09 1.030129546117e-08 -1.259493769361e-07 7.500000000000e-04 4.417864669111e-06 -2.015514590846e-13 2.433073914767e-14 -4.440718407479e-15
61 1 1.567659646275e-03 8.772019219119e-03 1.157580666064e-02 6.965474210511e-12 3.498468352518e-11 4.197115258939e-12 6.618450170323e-09 3.027261352628e-08 1.102130464615e-08 7.500000000000e-04 4.417864669111e-06 4.692249367359e-14 -1.942459358516e-13 7.425600108737e-14
62 1 3.079235287834e-03 1.427515942204e-02 7.411781810852e-03 5.920505732128e-13 1.839575862777e-11 -1.239296185258e-11 7.550248584257e-09 4.329946317582e-08 -3.317835948678e-08 7.500000000000e-04 4.417864669111e-06 1.179568526363e-14 -8.696182496634e-15 1.829305916375e-13
63 1 9.796248553413e-04 8.505089222476e-03 1.465262659552e-02 5.358753583784e-12 2.014708194643e-11 -7.303998854906e-12 7.701582299664e-09 -6.975259078185e-09 -2.001269868778e-09 7.500000000000e-04 4.417864669111e-06 6.065118524500e-14 -8.947174231382e-14 5.269644992970e-15
64 1 5.699116623693e-03 4.627171533601e-04 1.105196267400e-03 -4.402937565205e-12 9.352458820549e-12 -4.743373762504e-13 1.586030993083e-09 5.120310967345e-09 3.616960833140e-09 7.500000000000e-04 4.417864669111e-06 5.646481142973e-14 -2.181105643965e-17 2.862473936217e-14
65 1 9.121265605103e-03 1.374844096284e-02 9.601354167417e-03 1.213165207339e-10 4.480293722797e-11 3.902894201623e-11 -1.156306339104e-07 -2.054355850537e-07 1.648606385468e-07 7.500000000000e-04 4.417864669111e-06 -9.818082318982e-14 -4.449835157127e-14 3.364422057629e-14
66 1 3.472765842020e-03 1.427053419912e-02 1.098441875771e-02 2.399687007662e-11 2.780359430391e-11 -2.168226885318e-11 3.140777091120e-08 -2.262920051953e-08 1.681235329511e-08 7.500000000000e-04 4.417864669111e-06 3.411009407802e-14 -1.589149781014e-14 -1.027599369334e-14
67 1 1.712722370972e-03 4.126782027719e-03 1.464319765660e-02 5.428236088959e-13 2.032336245676e-11 4.337541476961e-12 2.215304716444e-08 1.140729543553e-08 2.628324057180e-08 7.500000000000e-04 4.417864669111e-06 -2.197057473774e-15 4.344894724952e-14 3.111778331412e-15
68 1 1.352189898852e-02 1.936521826209e-03 7.975252883649e-03 4.707751851899e-12 3.925030169523e-11 4.337894124173e-12 -9.568835409362e-09 2.869207395888e-09 -1.804954259876e-09 7.500000000000e-04 4.417864669111e-06 -5.403650865378e-14 1.058741714797e-13 8.275024000826e-15
69 1 4.396553905554e-03 1.309044967695e-02 9.752344016364e-04 -6.491197061142e-12 4.214389859796e-12 1.135924879633e-13 -1.173069186851e-09 6.394036739403e-09 3.666969074177e-09 7.500000000000e-04 4.417864669111e-06 1.516169969283e-15 1.059207839347e-13 6.661817793842e-14
70 1 1.120364526732e-02 2.254119006434e-03 1.142774586758e-02 -1.656140594799e-214 -4.158988755488e-215 3.027134809988e-214 -1.582219765666e+01 -2.199607153257e+00 9.698340140058e+00 7.500000000000e-04 4.417864669111e-06 1.659897834912e-215 4.168424137624e-216 -3.034002386552e-215
71 1 1.202754813777e-02 3.954443815695e-03 8.986432742623e-03 -6.002256496600e-12 5.041237551418e-11 -2.733204015066e-12 -3.254414477331e-09 7.735433506711e-09 2.081086778138e-08 7.500000000000e-04 4.417864669111e-06 -1.084564128341e-12 5.256946894208e-13 -2.030362781204e-13
72 1 1.444628618740e-02 3.514607322598e-03 7.982042390058e-03 5.471125627034e-12 4.150811534282e-11 -3.006022462489e-12 -3.145699157795e-09 3.625266910663e-09 -5.091038066729e-11 7.500000000000e-04 4.417864669111e-06 -2.741603036305e-13 -1.038395650073e-13 -4.385946367350e-15
73 1 3.147508803308e-03 3.824187374002e-03 1.470634144619e-02 7.720090329846e-12 1.912783866156e-11 -4.339236186817e-12 2.491361539884e-08 -1.051024149614e-08 -2.564572263892e-08 7.500000000000e-04 4.417864669111e-06 3.061272898508e-14 -1.382109177855e-13 -7.518073346204e-15
74 1 5.213430813081e-04 7.889657679349e-03 3.152468351818e-03 -4.313058830361e-11 3.902615344408e-11 1.914476702145e-11 2.497250709128e-08 -1.922539665867e-08 2.129333463048e-08 7.500000000000e-04 4.417864669111e-06 4.772847367351e-13 7.774279144238e-15 -3.913037756529e-13
75 1 8.873043305956e-03 3.762379982400e-03 1.472052629490e-02 4.338764766025e-12 2.505363111414e-11 -4.284494346857e-12 2.433944715578e-08 -1.201802045968e-08 -5.872047498633e-08 7.500000000000e-04 4.417864669111e-06 -3.907811852326e-16 -5.260400417256e-14 2.796256474292e-15
76 1 5.087168193599e-03 3.648594998151e-03 8.303600044152e-03 2.358151914115e-11 4.652373564390e-11 -4.888311500918e-12 -5.741675143612e-09 -2.846789601260e-08 1.896158032128e-08 7.500000000000e-04 4.417864669111e-06 2.135437904125e-13 -4.617663552963e-14 8.015082791126e-14
77 1 7.202790824191e-03 6.558574529776e-03 1.306181638468e-02 1.083686457511e-11 3.804839667371e-11 -4.337793197042e-12 3.305941827059e-09 -6.366856492456e-09 3.699222730282e-09 7.500000000000e-04 4.417864669111e-06 1.035074023757e-14 -2.340595553642e-13 6.683536092217e-14
78 1 1.059859648417e-03 6.621962441256e-04 6.668003029551e-04 4.147999536457e-13 8.959285026894e-12 8.935490192532e-13 -1.006051113791e-08 1.870860465384e-09 -3.012410889140e-09 7.500000000000e-04 4.417864669111e-06 -6.634008715313e-15 6.781433082152e-15 1.070041337466e-14
79 1 1.261127419116e-02 1.387627034773e-02 4.400253059651e-03 -1.064960557038e-11 2.425901891251e-11 -2.135870838611e-12 -5.123632078465e-09 -1.408623681302e-08 -3.006134357152e-08 7.500000000000e-04 4.417864669111e-06 1.604364346185e-13 2.903346797677e-14 -1.529662255179e-13
80 1 7.923537700564e-04 1.190393424525e-02 3.498104956496e-03 -3.573552491957e-11 1.421105604416e-11 3.375923560542e-12 -8.709561507429e-09 -3.448223040762e-08 -1.752630872442e-08 7.500000000000e-04 4.417864669111e-06 7.421423828316e-14 2.843966144492e-13 -1.089108922073e-13
81 1 2.023922425947e-03 6.128181562871e-03 7.239433072986e-04 -1.517915759706e-11 1.084216454046e-11 1.889703471675e-12 1.379916637209e-08 1.785062955510e-08 2.421402895964e-09 7.500000000000e-04 4.417864669111e-06 3.411746338889e-14 -3.915864745180e-15 4.357099451043e-15
82 1 7.166740432884e-03 5.631951380619e-03 2.578925356100e-03 -2.166937733541e-12 1.227089788832e-11 -5.472586589644e-12 -1.531414290240e-09 6.107546918104e-09 -1.046643810438e-08 7.500000000000e-04 4.417864669111e-06 7.099736821636e-15 -5.609801122812e-14 -1.438020817501e-14
83 1 4.828087366322e-03 1.043508370432e-02 1.464640022785e-02 6.481312391476e-12 1.360585167877e-11 -4.871163249665e-12 8.037251252048e-09 6.630477475988e-09 4.370601958807e-08 7.500000000000e-04 4.417864669111e-06 -8.685292224460e-14 -3.359775852369e-14 9.581305171703e-14
84 1 1.508561057042e-03 1.146378063616e-02 2.298759065914e-03 -2.768585167674e-11 6.049758484789e-12 3.133352925661e-12 6.158218905739e-09 -8.804738561518e-09 -2.657073643097e-08 7.500000000000e-04 4.417864669111e-06 4.355213661420e-13 4.258865502655e-13 -3.470006902201e-13
85 1 1.623847217129e-03 6.628293766524e-03 5.556753814740e-03 -1.832636503957e-11 3.212620033672e-11 -1.767552881589e-12 1.375787610549e-08 3.023127313945e-08 1.135738895064e-08 7.500000000000e-04 4.417864669111e-06 -4.932544672916e-15 2.156817584919e-13 -1.318520978774e-13
86 1 2.854411025079e-03 1.294816402548e-02 1.110791602685e-02 4.052679010808e-11 3.035430584510e-11 -3.052839973565e-11 1.512812777745e-09 5.131326809059e-08 -5.589224105584e-09 7.500000000000e-04 4.417864669111e-06 1.541940310841e-13 8.000268435107e-15 -4.645274718654e-14
87 1 6.469630152894e-03 1.353775526070e-02 1.094218505816e-02 6.394408764582e-11 1.363723995146e-11 2.024875816628e-11 1.082754610374e-07 2.409747936867e-08 -2.702581871952e-08 7.500000000000e-04 4.417864669111e-06 -1.998341080787e-12 -6.297376981946e-13 -4.905199279869e-13
88 1 8.802338435813e-03 1.392303931105e-02 1.224692060971e-02 6.505264924151e-11 -5.382091472815e-11 -5.310215400322e-11 2.447474162543e-08 1.070840046289e-08 1.351872364123e-07 7.500000000000e-04 4.417864669111e-06 -1.877388701505e-14 -1.923017712103e-13 8.514346029322e-14
89 1 3.965555270479e-05 6.256226027167e-03 1.285196141439e-02 1.097383351983e-11 3.218068337661e-11 2.063332016863e-12 9.831250890413e-09 2.938294912849e-09 1.164751664508e-08 7.500000000000e-04 4.417864669111e-06 -8.157515495166e-14 1.295334074529e-13 -2.166889430764e-14
90 1 6.169296512092e-03 4.149615156535e-04 1.282386394621e-02 1.526329823203e-10 1.351791609463e-10 2.122754950366e-10 4.443809900503e-07 -4.849234757110e-07 3.097735825089e-07 7.500000000000e-04 4.417864669111e-06 7.892848591701e-15 -2.133001022752e-14 -2.338777253523e-13
91 1 1.092676848824e-02 2.194839578906e-03 1.066323726835e-03 -2.099231673715e-12 5.327477707338e-12 3.136123735984e-13 -2.147496900645e-09 8.010054183184e-09 -4.741742537543e-10 7.500000000000e-04 4.417864669111e-06 -6.724321057818e-15 -5.791156798634e-14 -6.895960147258e-14
92 1 5.152420209311e-03 1.519802050711e-02 4.226249863250e-03 -6.521055873808e-12 2.178801883859e-11 -3.195546221246e-12 8.152860226635e-09 -3.360139490522e-09 6.718086646850e-10 7.500000000000e-04 4.417864669111e-06 1.432877122485e-14 -7.124556674079e-16 9.399311862500e-14
93 1 1.481405404726e-02 1.513948900592e-02 1.470596675183e-02 4.210805558821e-12 1.301381768285e-11 -4.336322711643e-12 7.985580171126e-09 -1.851994887526e-10 7.184767425107e-09 7.500000000000e-04 4.417864669111e-06 -3.252059768713e-14 -6.412785195255e-14 -4.809133342919e-14
94 1 1.310001976118e-02 6.961607898367e-03 8.551215702703e-03 3.402263777986e-11 1.505230851350e-11 4.836097054877e-12 4.705124527781e-09 4.506398260091e-09 -5.008802714359e-08 7.500000000000e-04 4.417864669111e-06 2.104341804809e-13 -3.993604240789e-13 2.501756173088e-13
95 1 1.144340551619e-02 3.654757148958e-03 1.463131270434e-02 -1.300948238159e-11 3.111933279360e-11 6.222458219874e-13 2.923868770504e-08 3.127040228109e-08 -3.120734966429e-08 7.500000000000e-04 4.417864669111e-06 1.448755007462e-14 4.596597219434e-14 -1.036593615894e-14
96 1 9.257306632579e-03 7.929677794239e-04 1.075239285527e-02 3.099207835575e-11 7.284384987596e-11 -3.269002205819e-11 -4.833586564625e-09 -2.415200094347e-09 -2.391651846879e-08 7.500000000000e-04 4.417864669111e-06 1.744973727787e-14 -1.714404731783e-15 -3.721650263732e-15
97 1 1.360522916353e-02 2.677295216644e-03 6.266199522408e-04 4.325543626646e-12 9.773193606308e-12 -1.746532244730e-12 -1.134230647693e-08 5.900335718820e-09 7.730270266049e-09 7.500000000000e-04 4.417864669111e-06 -5.018836202764e-15 -3.008967395878e-14 -2.947247949998e-14
98 1 5.657937212413e-03 2.853505153814e-03 5.224501736043e-03 -2.162889207777e-12 2.664651481077e-11 -8.045831378331e-12 -4.739423970886e-09 -3.230792707444e-09 -4.413023794829e-09 7.500000000000e-04 4.417864669111e-06 2.900443798981e-14 -1.057713154476e-13 -3.741141944674e-14
99 1 5.470046661267e-03 1.197898750451e-03 3.398920714445e-03 -6.505272688664e-12 1.746856132939e-11 -4.760910269464e-12 7.162268191207e-09 -4.665854875377e-09 -1.008589791089e-09 7.500000000000e-04 4.417864669111e-06 1.589809001304e-16 -7.429289982497e-14 1.688303806307e-13
100 1 8.731778695941e-03 7.180616205500e-05 1.259654943933e-02 6.080301247835e-08 9.944374011312e-08 -1.389013363871e-07 -8.503395552801e+02 -4.261085337568e+02 -2.997465049212e+02 7.500000000000e-04 4.417864669111e-06 -3.799870128116e-11 -6.210731105616e-11 8.674632234080e-11
101 2 3.321165840807e-03 4.053055389262e-03 1.001904293348e-02 1.550806084810e-11 3.996981835283e-11 -1.753112848922e-12 -4.100239956541e-10 -2.164562150729e-10 1.599866420616e-10 1.000000000000e-03 1.047197551197e-05 2.163759938862e-13 -3.957407368145e-13 2.641593358417e-13
102 2 6.518798027796e-03 8.390510883732e-03 1.445684608850e-02 1.518172075175e-11 2.328702408399e-11 -4.303704883415e-12 1.969567766121e-08 -1.684360093610e-08 1.707968600576e-09 1.000000000000e-03 1.047197551197e-05 -5.053941071130e-15 -2.473398182939e-13 -1.873261344757e-14
103 2 1.741131557253e-04 2.833283111803e-03 3.208174233580e-03 -2.564648485655e-12 2.142975916688e-11 -2.483543996737e-12 -6.584178683540e-09 1.326664750817e-09 1.283876153879e-08 1.000000000000e-03 1.047197551197e-05 6.715268222794e-14 -6.014393341439e-14 1.324625860524e-13
104 2 9.759386915047e-03 9.236300656050e-03 1.242867340487e-02 3.012472903523e-11 2.496079224947e-11 -1.041646532155e-12 3.630876238761e-09 -5.860974637598e-10 5.759421361869e-09 1.000000000000e-03 1.047197551197e-05 -1.710759486430e-13 -6.286182499234e-13 -3.605859722245e-13
105 2 1.177099869001e-02 1.048906298828e-02 1.440326873835e-02 4.331347880718e-12 2.676287738223e-11 1.259435531660e-11 1.487292146284e-08 -4.473504821340e-09 2.282300272995e-08 1.000000000000e-03 1.047197551197e-05 5.720820720423e-14 -2.717764386913e-13 -2.958647355680e-14
106 2 1.057355816457e-02 1.092704403856e-02 1.000250115668e-02 9.333479290103e-12 -2.143095453464e-11 -7.716649336663e-11 -1.630850856815e-07 1.309182157755e-07 -6.941702896548e-08 1.000000000000e-03 1.047197551197e-05 -4.882678128563e-13 -1.001679618944e-12 1.290087803242e-13
107 2 1.070714319955e-02 6.073390161255e-04 3.500998553648e-03 4.335335277711e-12 2.689474281680e-11 -1.367735643861e-11 -6.319045145534e-09 -8.969736097479e-09 1.367499849240e-09 1.000000000000e-03 1.047197551197e-05 2.884639711420e-14 -2.653892019772e-13 1.862476209788e-13
108 2 1.486763565889e-02 7.749388875632e-03 1.436446145066e-02 4.337940585471e-12 1.670508808397e-11 -9.902541757724e-12 -6.854677883975e-09 2.815492329970e-09 6.824539293711e-09 1.000000000000e-03 1.047197551197e-05 2.164009091882e-14 -6.331242584438e-13 1.354007226744e-13
109 2 1.424645325764e-02 5.912107128186e-03 1.406318543848e-02 1.301110290859e-11 1.578544469876e-11 1.531931420521e-12 -1.890358125848e-09 4.866674183475e-09 1.463178140836e-09 1.000000000000e-03 1.047197551197e-05 -9.569228677448e-15 -9.693338577597e-14 -1.365661243166e-13
110 2 5.894987076417e-03 7.104435686130e-03 1.148788859034e-03 -7.088509116488e-12 6.460321990726e-12 -1.281319816532e-12 7.595185841271e-09 2.435346985191e-08 -1.016248062800e-10 1.000000000000e-03 1.047197551197e-05 -1.685006758473e-13 -5.621745090652e-14 -9.386347841318e-14
111 2 1.449375467736e-02 1.255851427051e-02 1.036933526878e-02 1.498359081966e-11 7.372752557682e-11 2.168222008967e-11 1.240521066862e-09 -1.773007638062e-09 -6.299068242301e-09 1.000000000000e-03 1.047197551197e-05 -5.509768076359e-13 -4.110099622306e-14 3.044067162059e-15
112 2 5.929491602472e-03 1.419115073225e-02 9.428274729191e-04 -2.348743199092e-12 4.339708987324e-12 1.763552640763e-14 -2.189479917871e-09 7.660653442349e-10 -1.368943561060e-09 1.000000000000e-03 1.047197551197e-05 3.998509531405e-14 -3.993537161250e-14 2.701702305363e-14
113 2 6.394795746834e-03 5.246417916068e-03 5.224262187148e-03 -6.367497953255e-12 3.271313325346e-11 -3.832756891750e-12 8.593106106712e-11 7.822284541443e-09 1.401564201611e-08 1.000000000000e-03 1.047197551197e-05 -3.252370176597e-14 2.062866389292e-14 -4.220390212567e-13
114 2 2.924144202581e-03 1.356629701873e-02 1.443763010053e-02 3.158655510399e-11 2.540423252078e-11 -4.337077308660e-12 2.242292983710e-08 -2.696418324632e-08 2.011102512062e-09 1.000000000000e-03 1.047197551197e-05 -1.411486053058e-13 -1.400042853866e-15 5.695242186494e-14
115 2 1.379652103771e-02 2.734601007474e-03 6.105400191411e-03 5.240038364479e-12 3.238329984143e-11 2.204532490838e-12 -6.801459994800e-09 3.850286467880e-09 5.702767791365e-09 1.000000000000e-03 1.047197551197e-05 6.280901025321e-14 -8.612824116082e-14 -3.374596136124e-14
116 2 6.208561785814e-03 1.385366605670e-02 1.359440849115e-02 1.567574727579e-11 8.187222544354e-11 2.166031835043e-11 1.295479959946e-07 -1.316517031233e-07 5.053535296305e-08 1.000000000000e-03 1.047197551197e-05 5.600919248418e-13 4.264614548331e-13 3.490676731090e-13
117 2 3.564497789225e-04 6.460386819045e-04 9.025291814647e-03 3.871726460716e-11 5.020426914112e-11 7.009678805111e-12 -1.285442751368e-08 -1.183206826836e-09 2.312806429635e-08 1.000000000000e-03 1.047197551197e-05 3.031681495857e-13 -8.645630776539e-14 -5.976012820641e-14
118 2 1.314662335996e-02 9.143769554106e-03 3.989267510326e-03 -8.141955342961e-11 1.301288519587e-11 -5.215185191915e-11 -1.440460549650e-08 -5.550418643650e-08 1.161002396162e-08 1.000000000000e-03 1.047197551197e-05 1.794601956201e-12 -1.106380501532e-14 -2.046645570097e-13
119 2 4.808909949134e-03 4.700897871636e-03 1.139877774149e-02 1.084199321780e-11 4.745635197484e-11 -9.451644623656e-12 -4.052263773055e-09 4.828770925810e-09 5.294453751686e-09 1.000000000000e-03 1.047197551197e-05 -9.068004039469e-15 -4.021328443399e-13 2.702194727167e-14
120 2 5.072054903802e-03 8.789562041719e-03 9.009685859596e-04 -1.978783705942e-11 3.966107819163e-12 1.221052015240e-11 8.684083934259e-10 -1.722725939095e-08 9.746134240222e-09 1.000000000000e-03 1.047197551197e-05 9.671496828639e-14 -1.722604273525e-13 -1.867245096664e-13
121 2 7.174183418354e-03 6.606229988620e-03 3.976605907709e-03 1.951576297070e-11 1.769233989547e-11 -9.320180079437e-12 -5.699161062612e-09 1.508150005507e-08 -4.089054655806e-09 1.000000000000e-03 1.047197551197e-05 2.286616550328e-14 -1.748014601641e-13 -2.145545995774e-13
122 2 1.151044395815e-02 1.205599965988e-02 1.174162115632e-02 3.901941830308e-11 7.079779770160e-11 2.176995832827e-11 2.134061396702e-09 -1.862038325602e-08 -2.818826465706e-09 1.000000000000e-03 1.047197551197e-05 9.271716981118e-15 -4.725930154186e-13 -1.860440082541e-13
123 2 7.926395850675e-04 3.692776082973e-04 5.364812474357e-03 1.343628480000e-12 3.193736469992e-11 6.517439377886e-12 -6.229838921821e-09 -5.990262074218e-09 6.569409410497e-10 1.000000000000e-03 1.047197551197e-05 -8.559477190277e-14 -1.076509387449e-14 1.051413666127e-14
124 2 5.282231039296e-03 6.182881100276e-03 3.960783681783e-03 -2.167719450472e-12 3.124595503338e-11 -2.169184500521e-12 -9.264236621605e-09 -6.790164722885e-09 -1.552989772296e-08 1.000000000000e-03 1.047197551197e-05 -4.703420438481e-14 -2.280748941182e-13 1.792809295569e-14
125 2 7.570726310903e-03 1.492287487055e-02 5.767115413487e-03 2.425903374737e-12 3.906484342108e-11 -5.351246067843e-12 3.970051046770e-10 2.687667137554e-09 1.042643824126e-08 1.000000000000e-03 1.047197551197e-05 -1.050824881422e-14 2.739506140305e-14 4.425799389698e-13
126 2 8.272260768145e-03 1.312483301242e-02 1.089579446852e-02 7.436434090368e-11 2.168361918626e-11 -3.034169482142e-11 3.155074841994e-08 1.074902982916e-08 -1.238520208036e-08 1.000000000000e-03 1.047197551197e-05 -6.658196741331e-13 1.212768282139e-14 9.375804784358e-15
127 2 6.170851434719e-04 6.449407908467e-03 4.228727936437e-03 -2.985247945392e-11 3.203356331079e-11 6.503463595763e-12 7.997710872194e-09 -4.902341802714e-09 1.922892567206e-08 1.000000000000e-03 1.047197551197e-05 3.896688199515e-13 2.622349463349e-13 -2.842656655280e-14
128 2 7.703798294783e-03 1.382677406899e-02 8.876202962145e-04 -6.503369850926e-12 2.708756129993e-12 1.890995931281e-12 -5.839122533708e-10 -4.618335924834e-09 -1.350086876084e-09 1.000000000000e-03 1.047197551197e-05 5.239491140156e-16 -2.499367808494e-13 1.897432082836e-14
129 2 1.316969088400e-02 9.568220463938e-03 2.085680297773e-03 -2.168204234771e-11 1.635190579677e-11 -2.317209404284e-11 5.378234440475e-09 -4.709006248972e-09 -1.086343308668e-08 1.000000000000e-03 1.047197551197e-05 1.660787239750e-14 4.095222709597e-14 -2.066080936122e-13
130 2 2.380598112862e-03 1.523004482532e-02 1.237411724224e-02 3.235895025276e-11 3.036032416874e-11 -4.334653544698e-12 1.821135162483e-09 9.816901220901e-09 -3.367951469729e-09 1.000000000000e-03 1.047197551197e-05 -2.960018056399e-13 -3.907818997255e-14 -3.154004455500e-14
131 2 1.526322411742e-02 2.089359887261e-03 5.004802675147e-03 4.334295522801e-12 2.928890802738e-11 1.588225267256e-12 -2.939666595468e-09 -4.527657154245e-10 -1.119797401289e-10 1.000000000000e-03 1.047197551197e-05 -1.065291950385e-14 -1.275868811985e-13 7.218219498944e-15
132 2 1.500337908602e-02 9.214155611310e-03 2.733986411030e-03 -4.006499027746e-11 2.148537474639e-11 8.801096614082e-12 -3.070620246722e-09 -3.639617439747e-08 5.066454632745e-09 1.000000000000e-03 1.047197551197e-05 1.306810243085e-12 1.446552960542e-13 -1.587560980681e-12
133 2 1.532189778493e-02 1.309792865052e-02 7.022460768673e-03 -2.653796041325e-11 5.449525993538e-11 1.084121879065e-11 -1.095547438902e-09 8.863954191350e-09 -1.033579574428e-08 1.000000000000e-03 1.047197551197e-05 -7.255274949375e-13 -5.925330212508e-13 1.456873822400e-14
134 2 1.512897540796e-02 1.388944868826e-03 1.069331479857e-02 2.168190025724e-11 4.476931435608e-11 -1.792875042065e-12 3.978155741333e-09 2.190811154094e-09 1.455165049526e-09 1.000000000000e-03 1.047197551197e-05 4.608278040242e-14 -7.874709919325e-14 1.405639270075e-13
135 2 3.385842938115e-03 1.388594537210e-02 9.346990926115e-03 2.319445502999e-11 4.851556020219e-11 -2.462533152158e-11 4.659768508891e-09 2.791805030586e-08 1.605499407730e-08 1.000000000000e-03 1.047197551197e-05 1.040903474757e-13 -2.777023449687e-13 -8.042622040217e-14
136 2 1.414614362064e-02 8.073654137708e-03 5.327443210115e-03 -7.902681556493e-11 3.146768519671e-11 -6.703101030806e-12 3.050865828285e-08 9.984665398479e-09 8.463603288245e-08 1.000000000000e-03 1.047197551197e-05 6.358934194728e-14 4.388382422527e-13 -1.233262484113e-12
137 2 3.975809765996e-03 1.219729082724e-02 3.530089868868e-03 -2.552162908349e-11 2.168858623378e-11 7.632147581657e-12 3.895017700852e-10 1.983697761905e-09 -6.467672862843e-09 1.000000000000e-03 1.047197551197e-05 1.331696164585e-13 5.402599640137e-14 -1.391524989942e-13
138 2 8.039388479033e-03 7.027776112902e-03 1.016297666350e-02 3.036070654083e-11 6.207855685516e-11 -2.139348723014e-11 3.081179578275e-08 -4.813296423404e-08 -5.605186261058e-09 1.000000000000e-03 1.047197551197e-05 -9.318044117398e-14 -3.953622107542e-13 -3.477580365191e-13
139 2 8.297120625125e-03 1.144577311207e-02 4.430953061831e-03 -2.314904550950e-11 1.463275799061e-11 8.092306328978e-12 -2.308719280412e-09 -6.016860489972e-10 -3.569801778659e-09 1.000000000000e-03 1.047197551197e-05 4.938332104263e-13 -2.417061728546e-13 1.376434912033e-13
140 2 1.268820774459e-03 1.384734846400e-02 5.948324943140e-03 -3.102849235438e-11 3.197939786496e-11 -7.517995234217e-12 1.185795856761e-09 1.866288415095e-08 -2.021979388287e-08 1.000000000000e-03 1.047197551197e-05 1.764698588277e-13 -2.824307584310e-13 -7.777788183315e-14
141 2 4.918337886473e-03 1.421101858536e-02 8.143375847706e-03 3.252563451767e-11 4.071866893552e-11 -1.388452649896e-11 2.976660348881e-08 -3.019816832536e-08 -4.129109214315e-08 1.000000000000e-03 1.047197551197e-05 -9.555610621516e-15 -2.242145327625e-13 2.546585223688e-13
142 2 5.886737930961e-03 8.523576548228e-03 1.144117952578e-02 3.128007518353e-11 4.131272092228e-11 -2.168391075652e-11 1.275602585328e-08 -4.578109595879e-09 -4.638954509562e-09 1.000000000000e-03 1.047197551197e-05 1.306773577575e-13 2.998032677808e-13 3.290851310103e-14
143 2 1.007142393833e-02 2.642910984935e-03 1.450003977150e-02 1.226829844328e-12 2.535184840231e-11 -4.353910616108e-12 2.190404620325e-08 -4.074366338501e-09 4.016686293711e-08 1.000000000000e-03 1.047197551197e-05 6.139510991012e-14 1.542001314466e-13 -2.261013805555e-15
144 2 2.187376265953e-03 2.338410796819e-03 3.208563596616e-03 -2.638441544974e-12 2.059986013521e-11 2.299930319483e-12 -2.557335968985e-09 -1.076339283219e-09 2.204307558205e-09 1.000000000000e-03 1.047197551197e-05 -5.695679279013e-15 1.755330576818e-15 -1.510575974228e-15
145 2 7.578948606017e-03 9.440184876536e-03 6.125539776524e-03 1.676565848292e-11 4.770269605519e-11 -3.485323485453e-11 1.276175150118e-08 4.997619867422e-08 8.175241711379e-09 1.000000000000e-03 1.047197551197e-05 -3.370566898160e-13 -4.627813764802e-15 1.648037948305e-13
146 2 1.053794260667e-02 1.053034039975e-02 5.854745500724e-03 7.147887284630e-11 4.048733897691e-11 -5.389743906717e-11 -1.301987999246e-08 2.023314985572e-07 -1.559652912568e-08 1.000000000000e-03 1.047197551197e-05 -1.068604799233e-12 -1.165320745603e-12 6.099280456663e-13
147 2 4.224193676968e-03 3.878972777838e-04 5.728743053243e-03 -6.181894441241e-12 2.909652593376e-11 9.148576064111e-12 -9.425859463434e-09 -3.742325358411e-09 -1.663807311090e-09 1.000000000000e-03 1.047197551197e-05 6.463845807550e-14 -3.343377119697e-13 2.721343357989e-14
148 2 2.927365304138e-03 5.360451892750e-03 3.963003704444e-03 -1.157542293044e-11 2.814852746699e-11 3.608403667730e-12 -2.084494275335e-09 -1.689049432795e-08 3.215302007051e-09 1.000000000000e-03 1.047197551197e-05 2.085007105022e-13 -9.011843412720e-14 1.053318434659e-13
149 2 1.591649958982e-03 1.093547016302e-02 6.676663167116e-03 -9.956656822749e-11 3.903261834375e-11 -3.717368863386e-12 -7.195841993517e-09 -3.508739619927e-08 6.646712716350e-08 1.000000000000e-03 1.047197551197e-05 -3.479884401864e-13 9.395120688210e-15 7.936605286233e-14
150 2 4.568126479416e-03 8.766216902590e-03 8.315497151029e-03 3.707658813360e-11 4.770468949300e-11 -1.301017149942e-11 1.230755569219e-09 1.391957303901e-08 -3.502108871478e-08 1.000000000000e-03 1.047197551197e-05 -2.752647353451e-13 -6.729541246616e-14 -8.276766728842e-15
151 2 1.455612589763e-02 1.056240725799e-02 1.443727580362e-02 -3.725327153174e-12 1.301815145961e-11 3.397612363626e-12 2.016606023487e-09 3.041704201719e-09 2.182885193705e-08 1.000000000000e-03 1.047197551197e-05 1.018187938217e-13 9.381082183063e-15 2.057768157177e-13
152 2 3.514997567611e-03 1.097233691646e-02 4.947704972142e-03 -4.096860606415e-11 2.558273142212e-11 7.646302388854e-12 3.232622324908e-09 1.852791864299e-09 -4.961446382668e-09 1.000000000000e-03 1.047197551197e-05 5.666704739440e-13 -1.610668615107e-13 4.165349775778e-14
153 2 1.535222583142e-02 9.307296821883e-03 1.279184860108e-02 4.335454976568e-12 2.450215834282e-11 -6.819436665078e-12 7.014260234106e-09 7.379280505180e-09 2.659517297882e-09 1.000000000000e-03 1.047197551197e-05 -1.367220573835e-14 -3.438254893132e-14 3.317977956588e-13
154 2 4.871688616284e-03 2.467820944335e-03 2.463153492982e-03 -6.505209414597e-12 1.843023316985e-11 -1.085633762057e-12 -5.537746375419e-09 1.919215738417e-09 2.449851912884e-09 1.000000000000e-03 1.047197551197e-05 1.445327804632e-14 -1.364931759454e-16 -1.751917782297e-14
155 2 8.735754394859e-03 6.093484396296e-03 2.894695044598e-03 4.339252846808e-12 2.473698062859e-12 -2.791722867690e-11 -2.366727243373e-08 1.124730921581e-08 -7.538231613761e-09 1.000000000000e-03 1.047197551197e-05 -3.080496543889e-14 -2.208381941216e-13 -5.849754216578e-14
156 2 6.375007771248e-03 6.237608783422e-03 1.447536543552e-02 6.502112874612e-12 2.019661587080e-11 -4.338533345686e-12 1.644150861960e-08 -1.754346662034e-09 4.976100507704e-09 1.000000000000e-03 1.047197551197e-05 1.435487632244e-15 -2.471212002975e-13 -5.647508283741e-14
157 2 1.475263779508e-02 2.336962923449e-03 9.083253831709e-03 1.300960975884e-11 4.430331818010e-11 -3.842134399048e-12 -1.563404106027e-09 2.930927922171e-09 3.065044294121e-09 1.000000000000e-03 1.047197551197e-05 8.005250001432e-14 -6.624714745209e-14 1.164412049744e-14
158 2 1.267432899473e-02 4.818738999070e-03 1.438192975122e-02 8.496000148123e-12 1.702553016527e-11 2.399156566903e-12 1.401795154469e-08 -3.472578424099e-10 -8.347490411542e-09 1.000000000000e-03 1.047197551197e-05 -3.016061214552e-13 -2.341293411563e-13 -3.449599170500e-13
159 2 1.181911495181e-02 1.143430533740e-03 1.016723983264e-02 2.104029657415e-11 5.368161079874e-11 -2.947430615791e-12 -7.636557185371e-09 -1.102321326782e-08 2.693679844334e-09 1.000000000000e-03 1.047197551197e-05 -1.406235016157e-13 -2.045981468789e-13 -3.910666456451e-15
160 2 4.846961315342e-03 1.947823027642e-03 8.610285302879e-03 2.220295371964e-11 4.282602565329e-11 -4.820316956069e-12 4.313199418742e-09 1.102969833481e-08 -1.433004905189e-08 1.000000000000e-03 1.047197551197e-05 -5.976823488257e-14 -4.050149956139e-13 1.292846427573e-13
161 2 7.410971385266e-03 7.635093382088e-03 5.606978378944e-03 6.497902278641e-12 4.115185804281e-11 -1.505938082210e-11 -1.347397218681e-08 -3.822193701638e-08 7.512200789517e-09 1.000000000000e-03 1.047197551197e-05 -1.464562101396e-14 1.215413211009e-13 2.559603583169e-13
162 2 1.257906179216e-02 9.010818772860e-03 8.955945133435e-03 1.769959592833e-10 1.088649986223e-10 -6.892279493638e-11 4.920275049078e-08 -1.033939783882e-07 -2.064358754739e-07 1.000000000000e-03 1.047197551197e-05 6.908758351023e-13 -9.726940475091e-13 -3.391320440441e-13
163 2 1.699258849967e-03 1.478582434749e-02 8.321676455084e-03 2.604783011653e-11 3.903079429081e-11 4.379235437390e-12 -3.419172940158e-09 -1.105343578394e-09 -1.102177653211e-08 1.000000000000e-03 1.047197551197e-05 -1.376658452267e-13 -1.531506625955e-14 -1.630770276296e-13
164 2 9.469800881029e-03 1.510267206832e-02 6.464985227201e-03 2.010965375539e-11 9.062393539168e-11 -6.136758877718e-11 2.031550055163e-08 5.437165092016e-08 5.923689682262e-08 1.000000000000e-03 1.047197551197e-05 -8.169781901539e-14 3.128504755693e-13 -1.900185004889e-14
165 2 4.659993918490e-03 1.115448193005e-02 6.391498254250e-03 5.460034799653e-12 3.030131634724e-11 -1.415504248469e-11 -9.640194567305e-09 4.114503143816e-08 1.554774216217e-08 1.000000000000e-03 1.047197551197e-05 -1.793570660110e-13 -5.345270467225e-14 2.043350318825e-13
166 2 5.906170749023e-03 1.226440329319e-02 9.409836863084e-04 -6.375846770293e-12 4.326028160905e-12 1.287774771063e-12 -1.459565351240e-09 -5.762494322387e-09 -2.364441982952e-09 1.000000000000e-03 1.047197551197e-05 1.257253881254e-13 8.663598173608e-15 9.898831357074e-15
167 2 1.238852525984e-02 1.568332799455e-03 6.840373568032e-03 1.301071492398e-11 3.884175521356e-11 1.180056628206e-12 -4.016929391104e-09 -1.085455547840e-08 -7.339786848198e-09 1.000000000000e-03 1.047197551197e-05 -3.001598322011e-15 -1.476944363242e-13 -2.799214404916e-13
168 2 1.211215822905e-02 3.811025230165e-03 1.066193765772e-02 1.370077468931e-11 4.595614999213e-11 3.624157588823e-12 2.086288622625e-09 3.482546701600e-09 8.763977111039e-10 1.000000000000e-03 1.047197551197e-05 -9.284152647992e-13 7.126810192790e-13 -8.721924817334e-14
169 2 1.020106212522e-02 2.154639006458e-03 9.970232401238e-03 9.969251312575e-12 5.022752547170e-11 -2.017106018347e-11 -1.173912137579e-08 8.845431774455e-09 2.905287693717e-09 1.000000000000e-03 1.047197551197e-05 6.056773169344e-13 -3.928315271441e-13 -4.574906189659e-13
170 2 6.499708541858e-03 1.095072242473e-02 6.024585571332e-03 2.352002472296e-11 4.465651781017e-11 4.098112980943e-12 3.843739710712e-08 -6.904861589242e-08 -5.230076335724e-09 1.000000000000e-03 1.047197551197e-05 -4.411297349205e-14 -6.924429099823e-13 1.854175482453e-13
171 2 8.137017789396e-05 3.297561328437e-03 1.101296704803e-02 1.430057203911e-11 3.969148817654e-11 -4.335225089229e-12 2.064041534596e-09 -6.299844521633e-10 4.427579478939e-09 1.000000000000e-03 1.047197551197e-05 -7.343479288084e-14 -1.175018342635e-13 -3.496948972053e-14
172 2 6.662010561596e-03 1.319222630416e-03 9.046817252415e-03 3.029761754342e-11 3.398517515421e-11 -1.075519733231e-11 -9.874695866578e-09 -2.338573790249e-10 1.079522981851e-08 1.000000000000e-03 1.047197551197e-05 -9.507223017813e-13 5.223453210231e-13 -9.396791135171e-14
173 2 2.883627942427e-03 1.390185805608e-02 1.082586555371e-03 -5.026619786109e-12 7.192549123977e-12 3.078595725714e-12 7.982415319425e-10 -1.581781043830e-09 -5.551547038393e-09 1.000000000000e-03 1.047197551197e-05 3.737889607091e-13 2.379845933757e-13 -1.390163790868e-13
174 2 3.179553565667e-03 1.027929879236e-02 7.793094054572e-03 1.775562786308e-11 3.903126624924e-11 1.567499926811e-12 9.197743536660e-09 1.300909307297e-08 -3.873451058516e-08 1.000000000000e-03 1.047197551197e-05 -5.399144176174e-13 -5.967476560259e-14 5.670289771842e-14
175 2 1.497019035861e-02 6.363195757111e-03 5.888924301310e-03 -1.542309660349e-11 3.461216521714e-11 -1.909011145958e-12 -1.078339747969e-08 7.265991864221e-09 4.588370504074e-09 1.000000000000e-03 1.047197551197e-05 -3.644300558794e-13 4.751443634810e-13 5.884076345555e-14
176 2 1.245012913705e-04 4.877249417664e-03 8.136456618359e-03 8.495821745549e-12 4.133235490370e-11 -1.300616472515e-11 -1.288926425737e-08 4.453958371809e-09 1.107544253045e-09 1.000000000000e-03 1.047197551197e-05 -6.738337778999e-14 -2.015731368270e-13 -9.202414385679e-14
177 2 1.525588141508e-02 6.844201776631e-03 8.168078490913e-03 1.736248950928e-11 3.255570827604e-11 -1.952831758535e-11 2.298067220326e-08 6.044750781657e-08 -4.344845037773e-09 1.000000000000e-03 1.047197551197e-05 -9.111477971317e-13 -3.501380233816e-14 6.519676455840e-13
178 2 1.059701959266e-03 1.017577296178e-02 1.444072089106e-02 6.321236271376e-12 2.195798243747e-11 -4.318479193676e-12 9.740138315694e-09 7.996460936378e-10 3.259540306657e-11 1.000000000000e-03 1.047197551197e-05 5.476261317673e-17 -1.279913051979e-13 -2.251433221224e-15
179 2 7.000693546013e-03 1.297803241203e-02 2.423839026671e-03 -1.792290109342e-11 9.040949297144e-12 1.087122714997e-12 -5.229251493000e-09 -7.664918624696e-09 3.689088747156e-09 1.000000000000e-03 1.047197551197e-05 4.087249626909e-13 -1.772346286421e-13 -4.722325524690e-14
180 2 1.365378401563e-02 2.775002173607e-03 1.440039059654e-02 7.260171032122e-12 3.770655570941e-11 4.398606170011e-12 3.624591554105e-08 -8.421260590040e-09 -1.997565352401e-08 1.000000000000e-03 1.047197551197e-05 7.025336481335e-14 2.846021290932e-15 -5.310963118363e-14
181 2 7.791326709814e-04 5.709028992899e-03 1.450451044710e-02 9.991913593923e-12 1.517611502852e-11 -4.332895862820e-12 9.018566465565e-09 -5.100505962313e-09 3.430798420515e-09 1.000000000000e-03 1.047197551197e-05 -9.411640195899e-14 2.148343578009e-14 8.431598317292e-14
182 2 1.158285656076e-02 2.365777628339e-03 3.757516837540e-03 9.368764255124e-12 2.348193968135e-11 -1.094543864691e-11 -3.673722972826e-09 -1.016504877505e-08 -3.113652292970e-09 1.000000000000e-03 1.047197551197e-05 -4.087034042785e-13 1.840188369154e-13 1.520125335464e-13
183 2 7.043370955686e-03 4.892681068497e-03 1.312492390432e-02 1.479458988793e-11 4.118542128017e-11 -7.388391156938e-12 -1.660761113584e-09 -6.648649921232e-09 1.271061859422e-09 1.000000000000e-03 1.047197551197e-05 -8.869097165099e-14 -2.112463361728e-14 -4.991098247740e-14
184 2 4.154183933404e-03 2.472357760599e-03 1.414879965820e-02 -1.520130094466e-11 3.587078262991e-11 1.894974281698e-11 -2.555253149449e-08 -5.334060171712e-08 -3.296475350748e-08 1.000000000000e-03 1.047197551197e-05 -2.703140207629e-14 -2.244235606688e-13 -1.236821140086e-13
185 2 1.478299902789e-02 1.463728026610e-04 1.273691267956e-02 1.339591682624e-11 3.444305649326e-11 4.418476289666e-12 3.642444167355e-08 -2.585018490706e-08 -2.068349793249e-09 1.000000000000e-03 1.047197551197e-05 1.964558254516e-14 4.935203485038e-14 -9.324492693566e-14
186 2 9.962482163446e-03 1.442188308295e-02 1.330811708340e-02 -7.762528054573e-11 1.162523959175e-10 -3.651524928848e-11 -1.254588989034e-07 -1.295918166235e-07 4.063782972036e-08 1.000000000000e-03 1.047197551197e-05 3.837624931190e-13 -4.783772295153e-13 -9.440219253981e-14
187 2 8.022560545868e-03 7.185776185520e-03 1.440810602459e-02 5.039990509057e-12 2.097120982190e-11 -4.331894493588e-12 8.738524354331e-09 3.887470352094e-09 -7.307544237547e-09 1.000000000000e-03 1.047197551197e-05 -1.331312804476e-13 -7.561732436572e-13 -8.076404176387e-15
188 2 1.327393650872e-02 4.862818624817e-03 2.596584829186e-03 -4.332696385719e-12 1.090121799297e-11 -9.600186901045e-12 2.227135980084e-09 -1.724714277425e-09 3.053807539152e-10 1.000000000000e-03 1.047197551197e-05 1.109016821312e-14 -1.761879190417e-13 -1.125642426172e-13
189 2 4.256104648615e-03 1.497099692200e-02 8.541711508646e-04 -2.170094169003e-12 4.337462503950e-12 1.890877426992e-12 -1.799245989655e-09 -9.607197846040e-11 2.427071211971e-09 1.000000000000e-03 1.047197551197e-05 -6.577168365193e-14 -6.021370245892e-14 4.365669233253e-14
190 2 1.006930931082e-02 1.092782631750e-02 3.930224421949e-03 -2.168663480545e-11 3.010317378422e-11 -3.661107077361e-11 3.146261477643e-08 3.184967903418e-08 1.524523805867e-08 1.000000000000e-03 1.047197551197e-05 3.407020574838e-14 -1.634730705080e-13 1.012736581201e-13
191 2 1.331434751621e-02 1.259769421394e-02 1.198686484160e-02 2.612388252414e-11 6.504843625384e-11 3.035947242571e-11 3.634239479848e-09 3.426618173242e-09 -1.638028893256e-09 1.000000000000e-03 1.047197551197e-05 -4.134312383827e-13 -1.893880074669e-14 -1.880923455782e-14
192 2 2.059430966917e-03 1.334236593154e-02 1.264820301942e-02 3.510020894294e-11 3.035198843183e-11 -2.146690423859e-12 1.408697984254e-10 -6.580887420000e-12 5.940983958803e-09 1.000000000000e-03 1.047197551197e-05 -1.937330492602e-14 5.593751837391e-14 -3.340437415420e-13
193 2 3.745125883086e-03 4.062721635393e-04 8.010386634548e-03 3.143411467058e-11 4.364635054852e-11 -5.220434457379e-12 8.957826293972e-09 3.181029735250e-09 3.431025221463e-08 1.000000000000e-03 1.047197551197e-05 1.659053736519e-14 -1.039759317976e-13 3.904246339602e-13
194 2 8.610768073785e-03 8.400029849061e-04 4.739379436165e-03 -2.826915356664e-13 2.589743906373e-11 -1.084535585466e-11 -1.232953348216e-08 -8.016683944131e-09 -6.733316343369e-09 1.000000000000e-03 1.047197551197e-05 -4.835613386397e-13 2.607746409067e-14 1.996178925761e-14
195 2 1.283246689065e-02 4.060277680633e-04 1.237599430186e-02 4.855251249653e-12 4.974185236999e-11 1.417455756762e-11 1.839409612411e-09 -7.596107365776e-09 -3.494278516736e-09 1.000000000000e-03 1.047197551197e-05 -3.115731516937e-13 3.696711905054e-13 8.325669876356e-14
196 2 3.530040927798e-03 3.773048778344e-03 3.079176875718e-03 -5.404593759580e-12 2.142779612530e-11 2.629819216056e-12 -9.024617916911e-10 1.555745657466e-09 -2.973375556830e-10 1.000000000000e-03 1.047197551197e-05 6.140165766337e-16 -2.689938949991e-13 -1.218501556252e-13
197 2 4.354104994955e-03 1.030557926190e-02 1.212937029926e-02 2.479385156824e-11 3.860473546200e-11 3.827100598540e-12 1.399945171494e-08 -9.533354952152e-09 2.468892810490e-09 1.000000000000e-03 1.047197551197e-05 2.783415660544e-13 1.982470546120e-13 3.922671319453e-13
198 2 1.264950489649e-02 6.053933233430e-03 1.239619254927e-02 6.955297427877e-12 2.820862792009e-11 -8.495098192259e-12 6.666329996060e-09 1.222903797444e-08 7.785480939627e-09 1.000000000000e-03 1.047197551197e-05 9.695976083728e-16 -3.962542135961e-14 2.028737374403e-13
199 2 7.409193782433e-03 1.275117919929e-02 9.215718400601e-03 7.164442028949e-11 2.185097525192e-11 -4.188951114504e-11 2.125556331468e-08 1.289525300844e-08 3.409624443223e-08 1.000000000000e-03 1.047197551197e-05 -4.051249870816e-13 -7.344255671679e-16 -4.753881023146e-14
200 2 9.155293796915e-03 1.672240983333e-03 3.090750159390e-03 -1.670203204210e-12 1.817348384098e-11 -1.220396430294e-11 5.447911064572e-09 1.187496576978e-08 4.504944292857e-09 1.000000000000e-03 1.047197551197e-05 -3.467889875576e-13 -9.453906148733e-14 -1.316756433445e-13
201 2 3.930275735343e-03 1.399686438018e-02 4.017479519722e-03 -9.945799951893e-12 2.324550070700e-11 1.750356098284e-12 -5.362287383563e-09 1.003193789595e-08 -4.361541552348e-09 1.000000000000e-03 1.047197551197e-05 8.561113523832e-14 -2.947887727151e-13 -2.234882157739e-13
202 2 7.135810927642e-03 1.531934636651e-02 1.442689434827e-02 9.798169004743e-12 1.293308408706e-10 -3.035829381843e-11 -2.208684783576e-07 1.335204943309e-07 -3.980122118883e-08 1.000000000000e-03 1.047197551197e-05 -2.686425210054e-13 -1.021088544811e-12 -2.419041877673e-14
203 2 1.144034703440e-02 9.144718925839e-03 2.811925354629e-03 -1.470953731048e-11 2.803433028250e-11 -8.842635756194e-12 -1.972306882694e-08 1.940932575347e-08 1.388779870298e-08 1.000000000000e-03 1.047197551197e-05 -2.153964980626e-14 -2.648522385645e-14 -2.679597174131e-13
204 2 3.417726077428e-03 9.131774092017e-03 4.528024258730e-03 -5.437363265893e-11 3.835951819276e-11 1.519777834380e-11 -5.510419457426e-09 1.267510966397e-08 -1.073894508787e-08 1.000000000000e-03 1.047197551197e-05 8.236743485566e-13 -2.264999908712e-13 -8.211743386355e-14
205 2 1.163405068259e-02 9.968737113189e-03 8.815186415029e-04 -8.008511475232e-12 1.615978771088e-11 -9.786751296702e-12 -2.048592813648e-08 -4.771411050340e-09 1.175131730111e-08 1.000000000000e-03 1.047197551197e-05 -1.985947297882e-13 -8.428454982865e-14 -3.159245581683e-13
206 2 1.521613699614e-02 9.719876694991e-03 7.665408858665e-03 -8.190428468931e-11 7.185773719393e-11 9.733526841037e-12 3.911994435300e-09 6.271383518869e-08 4.105489240742e-09 1.000000000000e-03 1.047197551197e-05 1.431119734731e-12 -2.109434922312e-13 9.830218458842e-13
207 2 4.863758459302e-04 1.234698592744e-02 5.074763028755e-03 -7.064806772154e-11 3.918782280325e-11 -3.156022424777e-12 -9.338189090093e-09 -3.054552197633e-08 -1.891920201835e-08 1.000000000000e-03 1.047197551197e-05 -9.416774765737e-14 -1.189435600894e-12 -2.340706534185e-13
208 2 1.462037362918e-02 4.486158391271e-03 5.466272391206e-03 -4.337466642283e-12 2.821137780844e-11 8.728480677584e-15 -2.049662884883e-09 4.936229182530e-09 5.665369235527e-09 1.000000000000e-03 1.047197551197e-05 -3.555080121963e-14 -8.179608824349e-14 3.818942771482e-13
209 2 1.999407662399e-03 1.358382506838e-03 8.301705820940e-03 2.495291825833e-11 4.698055816749e-11 3.986671270988e-12 -1.184512788180e-09 7.543672123354e-09 -2.858529817564e-09 1.000000000000e-03 1.047197551197e-05 3.109893625516e-14 -1.848982306961e-13 1.366046964344e-13
210 2 3.100048034392e-03 5.291550315528e-03 7.193830250632e-03 -5.267524599073e-12 3.930435142685e-11 -2.169836390113e-12 7.892461332667e-09 1.722127337638e-09 4.761067151194e-09 1.000000000000e-03 1.047197551197e-05 -2.963635394134e-14 -4.001970621180e-13 -2.795825839114e-14
211 2 1.417085428944e-02 7.971781211824e-03 9.352349791042e-03 3.509830387207e-11 1.292148116333e-11 4.541263767874e-12 -3.355800549578e-08 -1.378826173012e-08 4.379724018908e-08 1.000000000000e-03 1.047197551197e-05 -2.554555325825e-13 -9.096567641526e-13 -7.298498686866e-17
212 2 9.767420605281e-03 3.374059678256e-03 1.158504648394e-03 -4.336169358750e-12 4.460840499355e-12 -3.714090001603e-12 -9.306040522763e-09 -7.121421336514e-10 4.712331452269e-09 1.000000000000e-03 1.047197551197e-05 8.453251723821e-14 -3.958775485883e-13 -1.784605922196e-13
213 2 1.341896889125e-02 2.402237949481e-04 7.870822311917e-03 4.316019301476e-12 3.223828954726e-11 1.300403279116e-11 2.559218477291e-10 1.366226075277e-09 -2.532084568752e-09 1.000000000000e-03 1.047197551197e-05 1.545473849833e-13 -2.787428391390e-13 1.801590961716e-14
214 2 1.507374327791e-02 9.053704975589e-03 8.666518560054e-04 -1.267212921078e-12 1.310085067314e-11 2.348956617289e-12 -6.719393962641e-09 4.856388898227e-10 3.120077884595e-09 1.000000000000e-03 1.047197551197e-05 -6.648225716387e-13 -1.178483273350e-12 -1.157486089964e-12
215 2 1.951925601096e-03 2.994454201076e-03 1.171815813906e-02 2.000923941827e-11 2.710449238317e-11 2.871237233383e-12 -4.475802229341e-09 -1.837596255477e-09 5.063287647036e-09 1.000000000000e-03 1.047197551197e-05 6.954187324265e-14 -2.284315391004e-14 7.750589726518e-14
216 2 1.511642490645e-02 1.127550722868e-02 6.526114438609e-03 -1.383674837865e-10 5.519237041007e-11 1.354242533011e-11 8.328689055678e-09 5.344270273458e-08 -8.729066375040e-08 1.000000000000e-03 1.047197551197e-05 -9.477754538512e-13 -5.691850836185e-13 7.419008668079e-13
217 2 6.381358486765e-03 6.162019725819e-03 9.596311096832e-03 2.672586404851e-11 4.677261852132e-11 -4.065960768176e-11 -7.972217201268e-08 3.033154724549e-09 -2.123599088958e-09 1.000000000000e-03 1.047197551197e-05 -8.390398958896e-14 -5.033316814682e-13 1.049378802738e-13
218 2 8.724654442459e-03 9.552812806366e-03 3.505796757276e-03 -1.160244342549e-11 7.675672240162e-12 -4.805015965158e-11 -1.462838511435e-09 -1.615549291560e-08 6.940819673743e-09 1.000000000000e-03 1.047197551197e-05 -6.762975983502e-14 2.337718685546e-13 -1.037260224597e-13
219 2 4.350313177840e-03 1.577225306747e-04 2.723200290587e-03 -6.522330320546e-12 1.722765539855e-11 -1.050612948719e-12 -1.076596095509e-08 6.186251893588e-09 -1.404716692173e-09 1.000000000000e-03 1.047197551197e-05 1.532126591545e-13 -3.822595321839e-14 6.596811147837e-14
220 2 4.320763079773e-03 1.131495227971e-02 1.499169697552e-03 -1.081821217937e-11 7.456285026267e-12 2.657785620409e-12 -9.850138867540e-09 9.786964204344e-10 -3.777629252246e-10 1.000000000000e-03 1.047197551197e-05 -1.091498620803e-13 1.088753498499e-13 -4.438696620990e-14
221 2 8.076566045084e-03 5.858390611225e-03 1.176251192883e-02 2.344070401360e-11 5.000941388325e-11 -3.037968935356e-12 7.039050238229e-09 -1.081690253944e-08 4.129367045267e-09 1.000000000000e-03 1.047197551197e-05 -4.844653762591e-13 -1.924022545973e-13 3.929344491137e-13
222 2 4.867976495609e-03 6.604905452437e-03 1.141237603340e-02 1.931697959611e-11 4.542175686414e-11 -1.301178516608e-11 7.157941594103e-10 -5.641630824864e-09 -1.356376407813e-08 1.000000000000e-03 1.047197551197e-05 -4.938371747110e-15 -6.573595761390e-14 -4.801034942354e-14
223 2 6.306371515627e-03 1.011970803042e-02 1.228726668744e-02 2.897628493423e-11 4.218500300359e-11 -1.298618684475e-11 -4.106717307066e-09 7.792629260795e-09 1.023759847459e-08 1.000000000000e-03 1.047197551197e-05 -1.367454357554e-13 1.245613190922e-13 -3.629262608855e-14
224 2 1.104388767251e-02 4.021588471404e-03 6.975637234519e-03 -4.577048836755e-12 3.584550643950e-11 -1.083864509286e-11 -4.474741378986e-09 9.999966353986e-10 1.900433869327e-08 1.000000000000e-03 1.047197551197e-05 5.065388053263e-13 3.626940670654e-13 -1.816301158641e-13
225 2 5.064211789462e-03 1.064654000703e-02 8.143765248028e-03 5.813828696810e-11 6.424214522428e-11 -1.300854178501e-11 -7.443822724342e-09 3.633487333776e-09 4.892528295919e-08 1.000000000000e-03 1.047197551197e-05 -3.563125611855e-13 -7.314253373243e-14 -1.655226877189e-14
226 2 1.485188273500e-02 1.107874769119e-02 2.851671758272e-03 -2.511065017767e-11 2.798262908891e-11 -2.025649700680e-11 -7.260465630551e-09 -5.793435821169e-09 -1.935580628867e-08 1.000000000000e-03 1.047197551197e-05 1.058516331415e-12 -6.781624847223e-13 1.375817705869e-12
227 2 1.305385870655e-02 6.909713028046e-04 1.446868647801e-02 7.254153995823e-12 2.653300504465e-11 -4.337637354904e-12 1.470468686257e-08 -1.460324744249e-08 4.995798534960e-08 1.000000000000e-03 1.047197551197e-05 -1.393881539257e-14 -1.967869132343e-13 6.656552433782e-14
228 2 1.477549196377e-02 9.659210316003e-03 9.934369890779e-03 -1.555050094980e-11 5.637129440319e-11 -1.299871643435e-11 8.029246797197e-09 1.188549781210e-08 9.114778721223e-09 1.000000000000e-03 1.047197551197e-05 3.409026664096e-13 -1.346040896550e-13 -4.215068852362e-14
229 2 6.487875443809e-03 4.825318937676e-03 7.032049693839e-03 -5.076181162409e-12 5.165360176311e-11 -2.332115214785e-12 -1.595083878845e-08 -1.137743356217e-08 1.219456747058e-08 1.000000000000e-03 1.047197551197e-05 -7.643171160375e-13 4.389096683445e-13 5.762927088277e-14
230 2 5.612654386060e-03 1.244232821269e-02 8.776622600086e-03 5.651895810246e-11 4.749039133568e-11 -3.039805809708e-11 3.030398426374e-09 1.071005576926e-08 -4.214651365440e-08 1.000000000000e-03 1.047197551197e-05 3.482485011040e-13 4.152267108700e-13 -1.487602580346e-14
231 2 8.744957470525e-03 3.363084939409e-03 1.044074902721e-02 1.530666327903e-11 5.896741731847e-11 -1.303108374988e-11 5.004077328925e-09 4.812916973181e-10 -9.921849568461e-09 1.000000000000e-03 1.047197551197e-05 1.989014197469e-14 2.990323896688e-13 -2.496424616792e-14
232 2 4.147158131111e-04 3.019737332753e-03 1.443502082471e-02 1.099304746932e-11 1.535228679512e-11 -2.249933147968e-12 1.025859244411e-08 -6.045362593410e-09 -2.951473953898e-09 1.000000000000e-03 1.047197551197e-05 6.429119312399e-14 6.897067533693e-14 -1.771835817202e-14
233 2 1.223895701749e-02 1.130177077535e-03 9.415563255079e-04 1.510843306320e-12 8.069383987626e-12 -4.737315015135e-13 -5.920438284980e-09 2.442389543009e-09 7.976374515117e-09 1.000000000000e-03 1.047197551197e-05 -1.959857155212e-13 -4.284055620644e-14 -6.726610038424e-14
234 2 4.485444364436e-03 6.804443481096e-03 1.437581234705e-02 7.833787447560e-12 2.060030523085e-11 -9.229013821227e-12 1.618556606952e-08 -1.061344750057e-08 1.587372265420e-09 1.000000000000e-03 1.047197551197e-05 -4.515911899360e-14 1.368052501574e-14 -2.183946971078e-14
235 2 6.584722513523e-03 1.497763092467e-03 2.128271620572e-03 -4.959498954423e-12 1.453466023985e-11 -2.887526210798e-12 -1.539639978105e-09 -4.220307361987e-11 1.187119846805e-09 1.000000000000e-03 1.047197551197e-05 8.197049446468e-14 -1.941033576004e-13 7.410625437748e-14
236 2 6.748102781276e-03 4.846189066067e-04 4.213668442859e-03 -6.467013573059e-12 2.261146115115e-11 -5.245254371980e-12 -6.160968494714e-09 4.817888607729e-09 2.241804136144e-09 1.000000000000e-03 1.047197551197e-05 -1.305481992565e-13 2.030178999154e-14 4.315018152160e-13
237 2 7.957544533016e-03 1.191876562783e-02 9.471919411382e-04 -4.667666860264e-13 4.328407046077e-12 3.661512071549e-12 -3.466991372825e-09 -1.350310955755e-09 6.837837272911e-09 1.000000000000e-03 1.047197551197e-05 -1.805269499907e-14 -6.592662496068e-16 -7.873414049410e-14
238 2 4.486975512750e-03 5.696772751401e-03 9.731615667280e-03 1.095966415696e-11 5.180716282407e-11 -1.300748861925e-11 8.859418431351e-10 4.299276582385e-09 -7.175547579223e-09 1.000000000000e-03 1.047197551197e-05 -2.058696549121e-15 -4.218150241204e-13 1.556955644999e-14
239 2 9.864333163817e-03 1.228003437095e-02 5.610228697589e-03 1.283410365232e-11 5.178991736573e-11 -1.999917971212e-11 -2.320809754418e-08 -2.296135598612e-08 3.607000401603e-08 1.000000000000e-03 1.047197551197e-05 2.303870960515e-13 1.294759459572e-13 -1.586875353352e-13
240 2 1.225944443502e-02 5.554260512829e-03 8.899903964354e-03 -5.926856682426e-12 5.572080366988e-11 -1.297968292647e-11 -9.741507693023e-09 -3.135221075844e-08 -2.452297462162e-08 1.000000000000e-03 1.047197551197e-05 -4.224060331625e-13 -4.632256361339e-14 1.570345047090e-14
241 2 1.822779892053e-03 1.973738650454e-03 5.042275290445e-03 9.427654779526e-14 2.914087587950e-11 2.166969118753e-12 -4.447671682751e-09 1.833206010138e-09 -1.255289841280e-09 1.000000000000e-03 1.047197551197e-05 -3.138452953394e-14 -2.267214849925e-14 2.024401318830e-14
242 2 7.252054566575e-03 1.462035625520e-02 1.215259969079e-02 2.345489145529e-10 1.203017799325e-10 6.501695909272e-11 3.476304353241e-08 1.453201546738e-07 -3.660261487016e-07 1.000000000000e-03 1.047197551197e-05 -2.639915803680e-13 -4.010638448322e-13 7.633550108955e-14
243 2 9.278697793022e-04 1.382210945184e-03 1.206711583464e-02 2.391019986204e-11 2.740089790393e-11 -4.337599435188e-12 1.339863702787e-08 2.884084044289e-10 -4.533000779160e-09 1.000000000000e-03 1.047197551197e-05 -1.294527698782e-13 -3.416195695185e-14 -2.220209856149e-14
244 2 1.054052960286e-02 1.281754275404e-02 9.505700085330e-03 1.123901720685e-10 5.631203075406e-11 -1.969956053546e-11 2.255423405491e-07 1.638394118656e-07 -9.275723106078e-08 1.000000000000e-03 1.047197551197e-05 -1.460858022188e-13 -6.041142668022e-14 -4.787163285205e-13
245 2 1.333737019661e-02 1.439464733116e-02 1.353310279247e-02 5.134268093149e-12 3.902795940749e-11 4.336781851053e-12 -8.354113614006e-09 4.939432552203e-08 -2.533904845953e-08 1.000000000000e-03 1.047197551197e-05 -3.778824845049e-13 2.275235662044e-14 4.659327749893e-14
246 2 1.186399962160e-02 5.329116266742e-03 5.896067058839e-03 -1.284075597631e-11 1.860963617984e-11 -1.561373548548e-11 4.465776561359e-10 1.471390511068e-08 -3.128855950433e-08 1.000000000000e-03 1.047197551197e-05 -1.376409116390e-13 -1.823285280321e-14 -1.467336728711e-13
247 2 1.320438234113e-02 5.844531776849e-03 9.639475444033e-04 -1.589589290787e-12 1.164126077267e-11 -6.683109338274e-12 -2.736683408858e-09 -1.284555259555e-09 3.410585642813e-09 1.000000000000e-03 1.047197551197e-05 1.493563189923e-14 -2.459289249700e-13 9.819415689264e-14
248 2 1.493615202327e-02 2.582433103198e-03 1.276663471426e-02 1.478482102434e-11 3.228470555700e-11 -3.596421036678e-12 2.324901459575e-09 1.434079411171e-09 -1.938049264358e-09 1.000000000000e-03 1.047197551197e-05 -2.222378318312e-14 1.100420494411e-14 6.264096701289e-15
249 2 3.777149439302e-03 5.141911677665e-04 1.448783631842e-02 2.649163389356e-11 -5.435558820472e-12 -1.300388586562e-11 -4.659183975011e-09 -2.764922640335e-08 -7.369419695856e-09 1.000000000000e-03 1.047197551197e-05 -2.107875586334e-13 7.069613897237e-14 9.547128932410e-17
250 2 9.392285958912e-03 1.067887916996e-02 1.730922356225e-03 -4.463088896110e-12 4.338498218055e-12 4.080448973561e-12 3.880437108182e-09 -1.529312759732e-09 -2.640297117828e-09 1.000000000000e-03 1.047197551197e-05 1.516061830868e-13 5.158894837752e-14 3.664357825361e-13
251 2 4.865769577799e-03 5.365568473410e-03 7.863754042751e-03 -6.528090734678e-12 4.863416855644e-11 -1.235565618443e-11 -3.741905436198e-09 6.322735302431e-09 1.667500712653e-11 1.000000000000e-03 1.047197551197e-05 4.633848510880e-14 -1.262713009304e-13 -2.524853626181e-13
252 2 4.339588634193e-04 1.507688538255e-02 1.107978122841e-02 2.875396332537e-11 4.769989040179e-11 5.312186803518e-12 -1.629753802861e-08 1.179158011161e-08 1.431565812997e-09 1.000000000000e-03 1.047197551197e-05 -9.637148852148e-15 -6.321053347722e-14 -1.172226357085e-13
253 2 7.943177964120e-03 7.917062102388e-03 2.733098178143e-03 -7.822380682643e-12 4.336725441580e-12 -3.077528550398e-11 -1.879941378880e-09 4.242958173418e-08 7.941119641814e-10 1.000000000000e-03 1.047197551197e-05 4.149612611421e-14 2.681806467057e-14 -1.351140625076e-13
254 2 7.059661339343e-03 2.437532413537e-03 3.692106586860e-03 -1.085416218127e-11 3.069899009025e-11 -4.382597410491e-12 -1.441360354746e-08 -8.522230751662e-09 -2.889669248499e-09 1.000000000000e-03 1.047197551197e-05 2.345478158853e-14 9.810505286490e-14 -7.295660791705e-14
255 2 1.168729631964e-02 4.227439704706e-03 1.277854006980e-02 1.300804535940e-11 4.631588903676e-11 -1.483784696889e-11 1.275109359259e-08 -6.850312977541e-09 -1.328972327105e-09 1.000000000000e-03 1.047197551197e-05 -2.504341746974e-14 -4.941259969755e-14 -2.996306291354e-13
256 2 1.637239441024e-03 1.087830249546e-02 4.521825946477e-03 -6.793631081818e-11 2.170033566760e-11 3.050724920704e-11 -2.141233636362e-08 2.285413942597e-08 -6.263548821599e-09 1.000000000000e-03 1.047197551197e-05 4.123518810109e-13 6.779670275683e-14 3.304417825433e-13
257 2 2.853636359984e-04 1.259840100912e-02 2.080856526408e-03 -9.072149469093e-12 9.333039768436e-12 -9.263408592633e-12 -8.609178829570e-10 -6.650923198352e-09 6.370251854870e-09 1.000000000000e-03 1.047197551197e-05 4.957956547486e-13 1.654873914110e-12 -7.003605776900e-13
258 2 1.134998533317e-03 1.415670862652e-02 1.440890404770e-02 1.138270919997e-11 1.290496848072e-11 -4.013355512023e-12 4.082663500499e-09 1.096862752264e-08 1.069649619916e-08 1.000000000000e-03 1.047197551197e-05 -1.477811193772e-17 9.506205861823e-14 9.639382450849e-14
259 2 5.068740844946e-03 9.180435920001e-03 1.351157585190e-02 2.598167340549e-11 3.035817565388e-11 -9.103063194585e-12 6.437919279801e-09 -9.646102229241e-10 3.922217761914e-09 1.000000000000e-03 1.047197551197e-05 1.740765966257e-13 -2.641674982574e-14 3.288634960609e-13
260 2 1.840474091093e-03 8.912142199622e-03 1.325594683962e-02 1.662339276989e-11 3.035864557834e-11 -4.334253114970e-12 1.101466958226e-10 -8.231320594293e-09 5.938436533554e-09 1.000000000000e-03 1.047197551197e-05 6.300747098148e-14 9.293689052849e-16 4.494938282901e-15
261 2 1.840538222201e-03 5.489235487960e-03 8.807994800504e-03 1.724314759860e-11 4.984276634181e-11 -7.163797267320e-12 4.820399546170e-10 -7.395618052979e-09 -5.999791620293e-10 1.000000000000e-03 1.047197551197e-05 7.031688482274e-14 -1.737746086559e-14 2.342024913346e-15
262 2 7.856950510780e-03 7.027916948585e-03 9.833001431968e-04 -1.300709047946e-11 5.646041538941e-12 -1.105036942024e-11 -5.982079552599e-10 -1.828502634456e-08 1.086869904833e-08 1.000000000000e-03 1.047197551197e-05 7.578813076669e-15 -1.771132724762e-14 4.966472777327e-14
263 2 1.520757251087e-02 5.731534961425e-03 1.104779099049e-02 1.303422932013e-11 3.605387473857e-11 1.329732302039e-12 1.033777852901e-08 2.763673598722e-09 4.434512589057e-09 1.000000000000e-03 1.047197551197e-05 5.345769557268e-14 6.389428390325e-14 -4.002485179870e-14
264 2 1.189980075839e-03 9.981911128213e-03 1.051812729600e-02 3.718788666907e-12 4.318249408817e-11 4.071775851348e-12 -1.610720435095e-10 -2.646701515107e-08 -1.062727112832e-08 1.000000000000e-03 1.047197551197e-05 1.432472342189e-13 -2.507805853673e-13 3.147513390047e-14
265 2 1.456497224159e-02 4.883171210267e-04 4.197752678467e-03 4.334589197824e-12 2.846414377521e-11 -2.726749603724e-14 2.450644724346e-09 -2.232049715132e-09 1.381567848340e-09 1.000000000000e-03 1.047197551197e-05 6.498224944916e-14 -2.344500173066e-13 -1.169281727529e-13
266 2 1.243122634576e-03 5.371732476941e-03 6.646805624990e-03 1.576798248013e-12 3.202422752624e-11 -6.864474346880e-12 -2.365358069228e-09 -8.067392545791e-09 5.814291982800e-09 1.000000000000e-03 1.047197551197e-05 1.727209502315e-13 -3.774043274163e-13 -4.893115327029e-15
267 2 4.517276357659e-03 7.670292937778e-03 9.861009135234e-03 3.243677390811e-11 4.884371121797e-11 -1.596521168115e-11 1.986298114352e-10 9.759043018882e-09 -1.448894435325e-08 1.000000000000e-03 1.047197551197e-05 -7.167211783447e-14 -1.923081712977e-13 1.963844004433e-13
268 2 1.081800479583e-02 4.591056804393e-04 1.439940654887e-02 -3.922135863530e-11 1.031353659009e-10 -1.957947168376e-11 1.042484564082e-07 5.502305838861e-08 -1.052978984492e-07 1.000000000000e-03 1.047197551197e-05 1.019557964087e-13 -1.074106663502e-12 8.791594809293e-14
269 2 1.363735161692e-02 8.262289642791e-04 9.668000936555e-03 1.300994487018e-11 4.618205497730e-11 1.216256398470e-11 -1.863732425904e-08 4.732929267674e-09 -3.932968460843e-09 1.000000000000e-03 1.047197551197e-05 -9.502219930806e-14 -1.332537708269e-13 -7.313775520919e-15
270 2 8.239071635259e-03 1.157224577766e-02 6.289044177925e-03 4.760158130012e-11 3.832007665757e-11 1.970101728950e-11 -1.829739324540e-08 7.750913522392e-08 8.492282947165e-09 1.000000000000e-03 1.047197551197e-05 -7.319948731376e-14 -3.241133682665e-14 2.092438369303e-13
271 2 1.306834910128e-02 6.763739076291e-03 6.301536533124e-03 -1.332685687416e-11 4.914613653351e-12 -2.233204587086e-11 -2.823247153194e-08 -4.149992232705e-08 1.600475219748e-08 1.000000000000e-03 1.047197551197e-05 -3.271047851280e-13 1.374581855808e-12 -2.148257704738e-15
272 2 1.280319967079e-02 3.452801443238e-03 7.619195627194e-03 4.212901766083e-12 4.313502291413e-11 -2.345007226315e-12 -4.231682841975e-09 -2.061853530256e-09 -3.668673107619e-09 1.000000000000e-03 1.047197551197e-05 3.817100653068e-13 8.641818830220e-13 -1.444453084797e-13
273 2 1.638776175514e-03 9.131263245596e-03 7.462354903744e-03 -4.086805829622e-11 6.417809800444e-11 -1.977273154689e-12 -1.227257855457e-08 -2.950455643477e-08 -1.804210091056e-09 1.000000000000e-03 1.047197551197e-05 -2.559371553019e-13 5.647153007977e-14 -3.334442395495e-13
274 2 8.892856841126e-03 8.020931222374e-04 1.426099043133e-02 -1.543114316961e-11 1.585418497838e-10 -3.673707461685e-11 2.175710146696e-07 -1.291388685772e-07 7.430042299230e-08 1.000000000000e-03 1.047197551197e-05 -7.808014907091e-14 -5.252752278693e-13 6.004566742734e-13
275 2 2.475619804913e-03 1.501787378107e-03 1.010501370128e-03 -3.251956616624e-12 1.422883303158e-11 -5.559826824015e-12 -4.373120745082e-09 -1.082885605181e-09 4.715207367026e-09 1.000000000000e-03 1.047197551197e-05 7.151349718841e-15 -1.671030782363e-13 -9.546286799366e-15
276 2 2.449196186849e-03 1.262188434509e-02 4.896859460635e-03 -3.097729824915e-11 2.786197778305e-11 6.501640334983e-12 -6.385528330602e-09 8.795208420353e-09 -1.239453753814e-08 1.000000000000e-03 1.047197551197e-05 -1.399459924546e-13 -2.038124216297e-13 1.857845187735e-15
277 2 8.208594680935e-03 3.115570726376e-03 2.314860881833e-03 -7.041985224580e-12 1.223847991236e-11 -4.503414415930e-12 -7.857852991420e-09 8.873666962523e-10 -8.046288615986e-10 1.000000000000e-03 1.047197551197e-05 -3.324335556419e-14 -4.247820281603e-13 -1.340969894596e-13
278 2 6.936010442883e-03 1.015783000481e-02 4.194421564557e-03 -2.772717841089e-11 2.167742475221e-11 4.784241761721e-13 1.458676822291e-08 6.253670584706e-09 -6.554934977381e-09 1.000000000000e-03 1.047197551197e-05 1.949661568747e-13 -3.125913690945e-14 -2.652370824445e-14
279 2 1.171253161070e-02 1.511276463022e-02 6.222705458593e-03 4.337832418618e-12 4.780477177657e-11 -6.490099477443e-12 -1.067594566219e-08 -2.514241622224e-08 -3.097214519267e-09 1.000000000000e-03 1.047197551197e-05 -9.659515036802e-15 -2.161126065507e-13 -2.710131154682e-13
280 2 9.117801631758e-03 5.386166664690e-03 1.027632210392e-02 1.992155505665e-11 6.683184249439e-11 -2.152998113150e-11 -6.685193299171e-09 3.010723429866e-08 2.266031969978e-08 1.000000000000e-03 1.047197551197e-05 1.380085444694e-13 -6.589384459951e-13 -6.067596020927e-13
281 2 8.088204255064e-03 1.336165581842e-02 4.576423430860e-03 -2.168568706613e-11 2.149111549986e-11 -1.518012111580e-11 -2.029992128943e-08 1.791874765843e-08 5.176608772043e-09 1.000000000000e-03 1.047197551197e-05 -2.138050412516e-14 3.485014047818e-13 2.967546274745e-14
282 2 2.093802123276e-04 1.503124581320e-02 7.052388178293e-03 1.391182227846e-11 4.770494873187e-11 1.480246648124e-11 -2.746437661241e-09 2.597127047773e-08 -1.326070887468e-08 1.000000000000e-03 1.047197551197e-05 -2.388878270534e-13 6.690168112346e-15 -1.891268510215e-13
283 2 1.112428746632e-02 1.475600679188e-02 1.005159640719e-02 1.504588822100e-11 6.504974989088e-11 -1.040705973976e-11 2.313576153511e-09 -2.398639322495e-08 -1.728135503451e-08 1.000000000000e-03 1.047197551197e-05 -6.804539227383e-13 4.549532333669e-14 4.707228911734e-13
284 2 1.904626475246e-03 1.527007410709e-02 1.950207642115e-03 -8.159146538674e-13 1.516152198888e-11 3.791675222921e-12 -5.229939953852e-09 2.272853629852e-09 -2.873238866293e-10 1.000000000000e-03 1.047197551197e-05 -9.574707221365e-14 -2.870279965018e-14 -5.971755170450e-15
285 2 8.587780522031e-03 1.833190982368e-03 9.486013791980e-04 -2.617533497289e-12 2.926114672312e-12 3.537263972713e-13 -8.566219946287e-10 -2.840637093768e-09 1.507823891445e-09 1.000000000000e-03 1.047197551197e-05 -6.511338461253e-14 -1.226424147379e-13 -1.125295754652e-13
286 2 1.351084396751e-02 1.435486547806e-02 6.452739822798e-03 -2.001170901854e-11 3.817906866354e-11 -4.584175342015e-14 1.587590065464e-08 1.339461306152e-08 -1.675591220882e-08 1.000000000000e-03 1.047197551197e-05 1.917876599542e-13 -4.158034258084e-13 1.908397928474e-13
287 2 1.173447097557e-02 1.290200167570e-02 9.952122770975e-04 1.423445000963e-12 2.190071772257e-11 -1.165940946609e-11 1.558886871640e-09 2.494132189361e-09 -2.459657263152e-09 1.000000000000e-03 1.047197551197e-05 2.734789316453e-13 -4.592715685307e-14 1.912176261096e-13
288 2 8.312122643393e-03 4.036793652650e-03 6.516995212449e-03 -1.961869469497e-11 4.502894184406e-11 -6.868746147416e-12 -2.130031812669e-09 3.753098712215e-09 -1.081346269693e-09 1.000000000000e-03 1.047197551197e-05 -6.434114256535e-13 1.709888424638e-13 -5.519565173144e-14
289 2 1.193193179005e-02 1.396589211533e-02 1.230148080806e-02 3.686311742824e-12 5.612686430670e-11 2.307862853918e-12 7.297128573005e-09 -4.857467963227e-08 7.219623008852e-09 1.000000000000e-03 1.047197551197e-05 -3.702059402416e-13 -1.988181973275e-13 -2.600669631421e-13
290 2 1.066869625554e-02 5.583363573139e-03 1.180223682012e-02 2.134916926782e-11 4.124696114239e-11 -2.893750092139e-11 -2.701068097214e-08 -1.239040513474e-09 -8.580970662839e-09 1.000000000000e-03 1.047197551197e-05 1.357297932842e-13 4.545599583439e-14 -1.040069047784e-13
291 2 6.747415395458e-04 8.994145221590e-04 3.068376849591e-03 1.798191388202e-12 2.441606103883e-11 1.126244452734e-12 -7.849738890001e-09 5.931621216115e-10 -5.161811628139e-09 1.000000000000e-03 1.047197551197e-05 -5.958337203116e-14 -1.670504868748e-13 3.620777147682e-14
292 2 5.510938691056e-03 4.290160625661e-03 1.449440282340e-02 1.013853039174e-11 2.112836003207e-11 -4.337305261626e-12 2.051305424363e-08 -9.813338083094e-09 -6.173634883147e-09 1.000000000000e-03 1.047197551197e-05 5.803944796488e-14 -1.572172544467e-13 4.300366785326e-15
293 2 1.206909448806e-02 1.087194608367e-02 8.739888721743e-03 1.434018738740e-10 6.502980433878e-11 -2.058167081037e-11 1.128566973664e-07 -2.569605590742e-07 3.226433613263e-07 1.000000000000e-03 1.047197551197e-05 -2.108578631801e-13 6.653989115982e-14 2.603540012628e-13
294 2 2.966462338523e-03 1.056230172972e-02 1.443669672455e-02 1.972621915835e-11 2.234628969360e-11 4.293055056872e-12 2.038785352606e-08 -1.885477992038e-08 -1.097693287422e-08 1.000000000000e-03 1.047197551197e-05 -1.138564750547e-13 2.696602414111e-13 -3.876606448881e-14
295 2 7.068869017161e-03 9.487631134578e-03 1.912382118347e-03 -1.863479823050e-11 1.303110793969e-11 -6.654878133587e-12 7.656952795662e-09 -7.311041510637e-09 -1.165843499489e-08 1.000000000000e-03 1.047197551197e-05 3.305219400949e-13 -5.265105988415e-15 -1.569765269468e-13
296 2 1.070042097856e-02 6.217954918994e-03 9.733154273992e-03 -1.282794475944e-11 9.170300379592e-11 -5.542702217348e-11 -5.387684953270e-09 -2.179555069887e-09 8.174470526228e-09 1.000000000000e-03 1.047197551197e-05 -3.331201758265e-13 -3.611365615074e-13 2.528975378226e-13
297 2 3.297539935215e-03 7.203644176281e-03 4.368789242966e-03 -3.845454609600e-11 4.067474565437e-11 1.511716046777e-11 4.616449013052e-09 1.577680783232e-08 1.321766823244e-08 1.000000000000e-03 1.047197551197e-05 7.482027626949e-13 -6.146572906660e-13 -1.049416418584e-13
298 2 1.276760692678e-02 1.469025799791e-02 9.550293946791e-04 7.610670280575e-12 9.302294246202e-12 -8.689727168956e-13 -1.122450020672e-09 1.117652048158e-08 -2.206351523398e-09 1.000000000000e-03 1.047197551197e-05 -4.247280923531e-13 -1.716252662849e-13 -1.092168977629e-13
299 2 7.352380993787e-04 1.217345455598e-02 1.445018222365e-02 1.654023884938e-12 1.343399135180e-11 4.337483884474e-12 1.595997088091e-08 2.918376385772e-10 1.136794404996e-09 1.000000000000e-03 1.047197551197e-05 1.034953143009e-13 1.094877567998e-13 -3.121132433762e-14
300 2 5.638933100242e-03 1.170935746722e-03 1.441758866722e-02 -1.146537430698e-11 7.087073134189e-11 1.133378915753e-11 7.120553906075e-08 2.055433872963e-08 8.865461381538e-08 1.000000000000e-03 1.047197551197e-05 -1.109932799794e-13 -7.221046926589e-13 -1.603104976151e-13
301 2 3.950752077609e-03 4.289276757648e-03 1.335659324047e-02 1.518045911324e-11 3.415041599024e-11 -5.710125398650e-12 2.968832408347e-09 9.280487265006e-09 7.359573078547e-09 1.000000000000e-03 1.047197551197e-05 -1.704065465730e-14 -3.697337230557e-13 -6.342946708519e-14
302 2 8.194133581016e-03 1.184299294614e-03 6.576943071148e-03 -3.338790165477e-12 5.122913320220e-11 -1.676854232348e-11 -1.518256043037e-08 8.232679938829e-09 -4.580489736818e-10 1.000000000000e-03 1.047197551197e-05 2.039556413526e-13 5.201253521090e-13 -3.827529358568e-13
303 2 1.211167309609e-02 1.311134614542e-02 5.834704548445e-03 -1.301926980893e-11 2.224612693852e-11 -1.035549532428e-11 1.558085038011e-08 9.936098264804e-09 2.228507903693e-08 1.000000000000e-03 1.047197551197e-05 6.614538522154e-14 -3.695747707959e-13 -2.010978844309e-13
304 2 2.815810453765e-03 6.764732560909e-03 9.898416164996e-03 1.830113323860e-11 5.259620034520e-11 -4.339124236636e-12 6.649078806001e-09 7.426524287433e-09 5.572171344667e-09 1.000000000000e-03 1.047197551197e-05 -6.080895779254e-14 -2.574785151861e-13 8.427497142992e-15
305 2 9.786094700556e-03 2.998369037951e-03 4.704152170834e-03 2.219771034626e-09 -1.210702701014e-08 8.040851790914e-09 -2.225792661188e+01 -6.071988781924e+01 3.444120585893e+01 1.000000000000e-03 1.047197551197e-05 -3.308576875593e-12 1.804557241180e-11 -1.198492427124e-11
306 2 2.466223913779e-03 1.025004748062e-02 1.203230070885e-02 2.008582220035e-11 3.750506443464e-11 -1.683451757248e-12 2.535009692635e-09 5.590841449763e-09 -2.031083030586e-09 1.000000000000e-03 1.047197551197e-05 2.033427565010e-13 -1.635042303633e-13 1.136086465744e-13
307 2 5.669750172516e-03 5.301096572961e-03 1.937301999877e-03 -9.692368859053e-12 2.385237287745e-11 -6.639201768595e-12 -7.521631262407e-09 -7.827305577800e-09 -8.168100629636e-09 1.000000000000e-03 1.047197551197e-05 2.251583806121e-13 -1.034133544166e-14 1.023560915692e-13
308 2 1.026423843415e-02 1.367173762343e-02 1.135887844588e-02 1.956089747024e-11 5.638265406140e-11 -2.580355577281e-11 -4.631542636871e-09 1.889941486576e-08 9.299851293538e-09 1.000000000000e-03 1.047197551197e-05 -6.544508492402e-13 3.224950791015e-15 -1.602719851759e-13
309 2 7.914585868872e-03 5.918398830632e-03 6.274482351903e-03 4.334323371330e-12 4.561576980510e-11 -8.802855542952e-12 -7.849323756432e-09 5.857851510874e-09 -1.664073604074e-08 1.000000000000e-03 1.047197551197e-05 -5.043721692987e-15 -6.459509493749e-15 2.581618697982e-13
310 2 1.049675982083e-02 1.404791872863e-02 5.155205060939e-03 2.935898939470e-11 5.830254232508e-11 -3.997956614313e-11 -2.556900867906e-08 -5.348955607616e-08 -4.772150041926e-08 1.000000000000e-03 1.047197551197e-05 1.064473959892e-12 2.225055968831e-13 5.969172488340e-14
311 2 1.966844689457e-03 7.172440595053e-03 1.440620474786e-02 7.799782236509e-12 1.926264702488e-11 -4.218099005843e-12 3.658593719505e-09 -2.402446907510e-09 1.052354168159e-09 1.000000000000e-03 1.047197551197e-05 1.780089212672e-13 -2.226457932429e-13 1.114424514500e-13
312 2 5.264251021573e-03 5.580928598143e-03 1.307438070009e-02 1.124742433551e-11 3.686255543386e-11 -1.263797203366e-11 7.457332695414e-09 1.327015646216e-09 -1.130534796041e-09 1.000000000000e-03 1.047197551197e-05 5.892259994042e-14 3.374545861340e-14 2.653449214584e-14
313 2 3.555305161738e-03 3.096625732816e-03 1.253367672008e-03 -3.273057806732e-12 1.842996723111e-11 1.200342922197e-12 8.866638632300e-09 -3.022745927609e-09 -3.189366898475e-09 1.000000000000e-03 1.047197551197e-05 8.610878968368e-14 8.460085671391e-17 1.318902356630e-13
314 2 8.119734025255e-03 8.909382398445e-03 1.345642044044e-02 2.321095397739e-11 3.003789176278e-11 9.584432687192e-13 4.288416262244e-09 8.601624337657e-09 -1.614113570774e-08 1.000000000000e-03 1.047197551197e-05 1.417366640291e-13 8.307098160744e-14 -9.117130783971e-14
315 2 9.626444093823e-03 5.385429671257e-03 7.055097960953e-03 -1.301072357794e-11 1.816147340466e-11 2.940082137002e-12 2.985291996192e-08 -1.350001067262e-08 -1.588890648120e-08 1.000000000000e-03 1.047197551197e-05 -1.927878412438e-14 -4.583034452228e-13 5.328534989259e-13
316 2 1.505390819082e-02 1.083429604738e-02 1.148929608809e-02 1.301048633430e-11 5.048108763829e-11 -1.282632278375e-11 2.420962116064e-09 1.158294791617e-08 -1.413391367068e-08 1.000000000000e-03 1.047197551197e-05 2.219187014441e-14 -1.637278933091e-13 7.511442348100e-14
317 2 7.357521528205e-03 1.266291120272e-02 1.246350997402e-02 1.408853764231e-11 5.579501842410e-11 -2.619665054556e-11 -5.275578278950e-08 -8.743371669883e-08 5.627938153281e-08 1.000000000000e-03 1.047197551197e-05 4.036377021757e-13 2.027888300568e-13 -4.476424957644e-13
318 2 3.280955713085e-03 1.202958373482e-02 1.323611930447e-02 4.885923421760e-11 4.401950987700e-11 4.205060041406e-12 -8.397900362244e-09 -4.178799597642e-09 1.029534604463e-08 1.000000000000e-03 1.047197551197e-05 2.297179175926e-13 -6.576020564116e-14 1.388201058764e-14
319 2 3.393108135815e-03 8.393021143272e-03 1.446976642780e-02 9.237354839500e-12 1.701346836851e-11 1.859980938294e-12 1.021327467339e-08 -6.370203765019e-09 -4.469353794421e-09 1.000000000000e-03 1.047197551197e-05 -7.781985166997e-14 -1.462861169076e-13 1.036470466317e-13
320 2 5.711402013886e-03 7.420130863120e-03 1.296959063367e-02 2.046903147649e-11 3.686281302816e-11 -1.301005182267e-11 -6.465224522509e-09 1.573723947078e-09 -7.813437347972e-09 1.000000000000e-03 1.047197551197e-05 -1.250599820552e-13 4.091523990521e-14 6.383360022298e-14
321 2 6.206479972198e-03 1.194000453966e-02 3.795398132621e-03 -1.940085432058e-11 2.136392365069e-11 1.221159638908e-11 -7.591006564140e-09 1.324692756006e-08 -7.811132690587e-09 1.000000000000e-03 1.047197551197e-05 5.691687110981e-13 -1.520694353169e-13 9.343364480689e-14
322 2 7.721826316172e-03 7.711922620702e-03 1.198605953571e-02 1.073801473784e-11 4.095942568813e-11 -4.336297019467e-12 -4.532448080712e-09 -2.339205872078e-09 2.117951085052e-09 1.000000000000e-03 1.047197551197e-05 -4.977935260494e-13 -2.684830292203e-13 -1.085845502274e-14
323 2 6.171764201603e-03 1.271143631106e-02 5.535465393574e-03 6.528130492798e-12 3.902846989149e-11 2.269734631803e-12 -1.944289477854e-08 2.396504426946e-08 2.706536482381e-08 1.000000000000e-03 1.047197551197e-05 1.158322539695e-14 -1.269314307245e-14 7.863500409420e-14
324 2 1.398999135919e-02 1.261447967278e-02 5.779718811673e-03 -4.770448091240e-11 3.902590131694e-11 4.835038227823e-12 -1.871281630874e-08 -3.235919684289e-08 -3.309976912601e-09 1.000000000000e-03 1.047197551197e-05 -2.774026658792e-14 4.546186791026e-14 2.295896232701e-13
325 2 1.299791732331e-02 8.059229405731e-04 5.214461781716e-03 9.038961309243e-12 2.984778737736e-11 1.283428691929e-12 -1.217702742673e-09 7.801189119924e-09 -4.092894942666e-09 1.000000000000e-03 1.047197551197e-05 1.539603659558e-13 1.586778491306e-13 4.164428766702e-14
326 2 1.463273087291e-02 5.210432844194e-03 3.760944993536e-03 -1.003724260468e-11 1.926372804534e-11 -3.444074331337e-12 -4.467151076814e-09 -4.435531323606e-09 8.044334890732e-09 1.000000000000e-03 1.047197551197e-05 -2.358762874436e-14 -8.714954131909e-14 -9.599869042932e-14
327 2 1.270068713505e-02 1.086520000527e-02 1.267965866039e-02 1.974729571717e-11 5.637085516702e-11 3.035814465575e-11 1.209827402273e-08 -1.921405801927e-08 -6.514806114261e-10 1.000000000000e-03 1.047197551197e-05 -8.159968093089e-14 -4.484305765708e-15 6.810107610655e-14
328 2 1.035148673187e-02 3.824556545500e-03 1.129043602096e-02 1.586031962399e-11 4.369061340881e-11 -4.176355610013e-12 4.333909119103e-10 -7.299198854271e-09 -1.441542814854e-09 1.000000000000e-03 1.047197551197e-05 1.493892813457e-13 5.756385002994e-14 -4.295417220102e-13
329 2 1.468310004527e-02 1.411562492160e-02 4.924135362858e-03 -1.301003454027e-11 3.034873294404e-11 3.058403462228e-12 -4.309778865784e-09 -2.203700449071e-08 -6.134299566620e-09 1.000000000000e-03 1.047197551197e-05 5.488603233663e-14 -3.019453421430e-14 1.588286374569e-13
330 2 5.586395329390e-03 3.591895856067e-03 1.278166997584e-02 1.426134381138e-11 4.793940146253e-11 -2.168423092127e-11 1.683465824398e-08 -1.764382700112e-09 -5.107076116102e-09 1.000000000000e-03 1.047197551197e-05 8.668277701947e-14 -4.310642732333e-13 -7.176800268205e-15
331 2 1.192232310623e-02 1.054472222655e-02 4.524249708748e-03 -6.190948439940e-11 1.402637670522e-11 -9.663524722975e-11 4.862974001338e-08 -3.997269002157e-08 -4.070162362122e-08 1.000000000000e-03 1.047197551197e-05 1.268764996262e-12 -1.817046364587e-13 8.172396880381e-13
332 2 9.540353505606e-03 1.327758484873e-02 3.371406555844e-03 6.633020743483e-12 1.307994530576e-11 7.660123844237e-12 2.587773227948e-09 1.021800535789e-08 1.603119712374e-08 1.000000000000e-03 1.047197551197e-05 -5.777221618133e-14 -8.081035067399e-14 4.570025445893e-15
333 2 1.121570020502e-02 2.587458237293e-03 8.273099640707e-03 4.971389964651e-12 4.717102965282e-11 -6.551026817505e-12 2.009412224005e-10 -5.283116184590e-09 -2.293671718618e-09 1.000000000000e-03 1.047197551197e-05 7.433255164511e-14 -5.295212439233e-13 4.319865376487e-13
334 2 1.121099986815e-02 1.251725726062e-02 4.248959773025e-03 -4.469336670167e-12 3.536874055143e-11 -1.394433030401e-11 9.676603409280e-09 5.245255549553e-09 -2.104187071474e-08 1.000000000000e-03 1.047197551197e-05 2.596188785550e-14 -1.965116511527e-13 1.800209488043e-13
335 2 1.920453297014e-03 7.377308402659e-03 8.245912485953e-03 -7.828834114347e-12 5.478068383381e-11 2.008310982154e-12 2.398863841611e-09 2.110252020068e-08 2.419862175203e-08 1.000000000000e-03 1.047197551197e-05 -5.853593095666e-13 -7.284006576043e-13 1.591163734341e-13
336 2 1.055339470277e-02 8.042619359126e-03 9.276855202983e-03 4.395421330070e-11 1.344397766092e-10 -5.983216098554e-11 2.986889133616e-08 -1.308741203615e-08 -8.319568031943e-08 1.000000000000e-03 1.047197551197e-05 -6.702535183528e-13 -1.822291447189e-15 7.009585909617e-13
337 2 1.043002130661e-02 1.205822824843e-03 5.334433083566e-03 2.464487133497e-12 5.368474612871e-11 -2.370930607786e-11 -2.227406102761e-08 1.529463461951e-08 2.277001177648e-08 1.000000000000e-03 1.047197551197e-05 -2.917746368282e-13 1.448230564324e-13 6.322589393018e-14
338 2 1.351492949725e-02 2.378886050541e-03 4.176856618492e-03 4.347583752790e-12 2.493682445347e-11 -2.161868489587e-12 1.514312821296e-09 -5.418671982061e-10 1.364012611396e-09 1.000000000000e-03 1.047197551197e-05 -6.246007847398e-15 -9.817603048662e-15 4.652675052486e-14
339 2 1.986408334409e-03 7.137382461269e-03 3.060542650893e-03 -3.130286852454e-11 4.014907113878e-11 2.033632046148e-11 -1.262610771244e-08 -1.622057608332e-08 -5.511778414469e-09 1.000000000000e-03 1.047197551197e-05 7.467960447634e-13 -5.579556233878e-13 -1.243892714019e-13
340 2 4.423570724185e-03 1.488387792204e-03 8.885017567092e-04 -4.363812886832e-12 9.404722833509e-12 2.696154900503e-13 -4.724580868487e-09 -3.388873430265e-09 -2.444987842073e-09 1.000000000000e-03 1.047197551197e-05 1.271946159338e-13 7.110593776616e-14 -7.610123371230e-16
341 2 1.611310688723e-03 1.289727030113e-02 7.943031707664e-03 2.878229414514e-12 3.748387452132e-11 5.287030346995e-12 7.781691410984e-09 5.978150801644e-09 -9.016233309330e-09 1.000000000000e-03 1.047197551197e-05 -8.328837255010e-14 -6.025634932689e-14 -2.173264743343e-13
342 2 1.189877302034e-02 6.163443891147e-03 2.594808329087e-03 -4.338389950943e-12 7.280059967178e-12 -8.038363681857e-12 6.715594871001e-09 -2.687281511165e-09 3.252597111909e-09 1.000000000000e-03 1.047197551197e-05 -2.842190158087e-15 -2.302942867136e-14 -1.825212840006e-13
343 2 7.345622933226e-03 3.480863447993e-04 8.840983249920e-04 -3.378060890080e-12 5.170744194468e-12 -1.281706886832e-12 -2.980842468868e-09 -2.690582642618e-09 -4.917205871097e-09 1.000000000000e-03 1.047197551197e-05 1.146775032805e-13 -1.099496081560e-13 -7.151570361085e-14
344 2 4.249521576166e-03 1.285531355515e-02 5.608094417523e-03 -1.515186075260e-11 2.166979442886e-11 1.732346847404e-12 1.159267441843e-08 -1.207951147740e-08 -5.839699910750e-10 1.000000000000e-03 1.047197551197e-05 -2.765616497724e-13 8.985670610327e-14 -1.975429195431e-13
345 2 1.477054806909e-02 1.354714833339e-02 1.436845433181e-02 1.068557788358e-11 1.307871697302e-11 -1.888342484328e-12 -9.176802682149e-09 -2.262132703149e-08 -6.102357747437e-09 1.000000000000e-03 1.047197551197e-05 5.281790389649e-14 1.952960033407e-14 -2.191599508491e-13
346 2 7.267955367093e-03 4.643909006127e-03 1.051546478083e-02 1.628269897847e-11 6.942359045001e-11 7.635711755852e-13 1.236573502357e-08 1.769890441131e-08 -6.871774422367e-09 1.000000000000e-03 1.047197551197e-05 -6.136679738790e-13 -7.469076424746e-15 7.003020046574e-13
347 2 1.670660584751e-03 1.256749361892e-02 8.436178365921e-04 -4.343111575092e-12 7.887996158851e-12 -5.680131669216e-13 -4.201906273925e-09 -3.963686411375e-09 2.057208948505e-09 1.000000000000e-03 1.047197551197e-05 2.282496819246e-13 4.830891080326e-13 -2.943102046326e-13
348 2 4.165547142744e-03 8.305683358515e-03 3.014981844834e-03 -3.479488414458e-11 3.035572597199e-11 2.171867534176e-11 -3.468040707062e-09 -3.178512347905e-08 -5.830376138472e-10 1.000000000000e-03 1.047197551197e-05 6.219797178934e-13 3.083009681898e-15 -2.961509816716e-13
349 2 5.697069835598e-03 9.392104461718e-03 6.787702737724e-03 3.535855361923e-11 4.758273760689e-11 7.242018069916e-12 -4.988344735887e-08 5.840576514108e-08 1.519397393280e-08 1.000000000000e-03 1.047197551197e-05 -4.175821361660e-13 -1.402685028606e-13 -1.826428932415e-13
350 2 7.667049432403e-03 1.113520745360e-02 2.668647970009e-03 -1.318741998698e-11 1.301529715221e-11 6.189703381529e-12 -5.549342724575e-09 -1.215694444177e-08 -4.608757894868e-09 1.000000000000e-03 1.047197551197e-05 8.703266294750e-14 2.707227489045e-14 3.809602684616e-14
351 2 8.171387127623e-03 1.406338551240e-02 8.086682055675e-03 4.672379422900e-11 4.598532964156e-11 -1.660013441005e-11 9.662312658103e-09 -1.602191548448e-08 7.318967823121e-10 1.000000000000e-03 1.047197551197e-05 4.293666122868e-13 3.672624677278e-13 1.298059794412e-13
352 2 6.232185103689e-03 1.505706913831e-02 2.564015478211e-03 -6.532198068409e-12 1.301267076627e-11 -1.949126970607e-12 -4.241114004294e-09 -3.142773645360e-09 -1.873922700109e-10 1.000000000000e-03 1.047197551197e-05 -5.147362130621e-15 7.670396612783e-14 2.731111553317e-13
353 2 4.546893344516e-03 2.517441377141e-03 6.736263765308e-03 6.043338227970e-12 4.185250708802e-11 -8.368443449773e-12 -1.038906160283e-08 5.727408878638e-09 -1.372424820118e-09 1.000000000000e-03 1.047197551197e-05 -2.612607158256e-13 -5.090857648781e-14 -1.972543270956e-14
354 2 7.914930352850e-04 1.449388240087e-02 3.871646913154e-03 -8.030772267601e-12 2.591855534900e-11 7.669993983448e-12 4.717417396130e-09 1.572563186869e-08 -5.774639720277e-09 1.000000000000e-03 1.047197551197e-05 -1.192920163866e-13 -2.366878972997e-13 3.694837688717e-14
355 2 2.905129992696e-03 1.485353111893e-03 6.606655449951e-03 5.422336214972e-12 3.839082017095e-11 1.388738970170e-12 -3.315046276927e-09 6.431169805898e-09 -1.933835171191e-09 1.000000000000e-03 1.047197551197e-05 -1.430848130549e-14 -2.811412043968e-13 -3.631008533123e-14
356 2 8.535083577205e-03 1.342270250823e-02 6.386115588837e-03 3.228942891597e-11 4.791584704484e-11 -2.467412359884e-11 -6.815745388645e-09 4.053033238456e-08 -4.669458812976e-09 1.000000000000e-03 1.047197551197e-05 -1.060422974128e-13 -6.170496542420e-14 3.234364692001e-13
357 2 7.866556996406e-03 1.605603127425e-03 1.047933987740e-02 3.035907704949e-11 6.430650539818e-11 -2.168553145170e-11 2.379471686578e-09 8.462647508928e-09 2.582795142786e-08 1.000000000000e-03 1.047197551197e-05 -2.919967915063e-15 5.173971815955e-13 -1.871510725517e-14
358 2 6.487195092715e-03 1.334653726401e-02 7.315199238485e-03 3.826714529006e-11 4.192253205418e-11 -2.131616636431e-11 1.442549240471e-08 2.352931652996e-08 1.384122267756e-08 1.000000000000e-03 1.047197551197e-05 -3.741394213736e-13 -2.554242276623e-13 2.345805175425e-13
359 2 1.075998772434e-02 5.284442527222e-03 1.442716732117e-02 1.301194606770e-11 2.588633090766e-11 4.089465606466e-12 2.593031007254e-08 -1.183227825052e-08 -8.925297276202e-10 1.000000000000e-03 1.047197551197e-05 3.681194638889e-14 1.152023391869e-14 1.995351766036e-13
360 2 2.331165152692e-03 9.003780712454e-03 9.285034983535e-03 1.822145469051e-12 5.628197028245e-11 -8.571504874738e-12 1.625978286517e-08 5.120699115889e-08 9.068462856250e-09 1.000000000000e-03 1.047197551197e-05 -4.561171195938e-13 2.523888074972e-13 2.286564783753e-13
361 2 2.497625865072e-03 1.084974577914e-02 9.116206181069e-04 -9.537429285198e-12 9.928241656183e-12 4.333787481518e-12 -4.727013983513e-09 -4.354087394009e-09 -5.804149238375e-09 1.000000000000e-03 1.047197551197e-05 3.000039662921e-13 -1.723674157241e-13 -2.929932789036e-13
362 2 9.652566389443e-03 1.190645282548e-02 1.143170519201e-02 5.709902764340e-11 4.177228928992e-11 -3.038087296871e-11 1.850281334592e-08 -3.062740797142e-08 3.593422516173e-08 1.000000000000e-03 1.047197551197e-05 -6.876884504275e-13 -5.422659495437e-13 -5.704692698144e-14
363 2 3.022604710683e-03 1.434583943041e-02 5.685639126437e-03 -1.613832268312e-11 2.168342516974e-11 -2.167388211549e-12 5.723107672448e-09 -1.722549095042e-08 9.427559881363e-10 1.000000000000e-03 1.047197551197e-05 -2.222401148412e-14 -6.823173754687e-14 1.552572391585e-14
364 2 1.383689303481e-02 1.412077097182e-02 3.113998501690e-03 -9.556642166053e-12 2.216202067367e-11 9.417688479502e-13 -6.438627557090e-09 4.801296549502e-09 -2.040280114453e-08 1.000000000000e-03 1.047197551197e-05 7.176970997648e-14 -2.126091298599e-14 -3.348610225505e-13
365 2 7.701054929382e-03 2.526350469625e-03 1.431721761096e-02 -8.763862760758e-10 2.548938974607e-09 3.644763100122e-09 5.835227240043e+00 -4.684658891576e+01 -1.313917371817e+01 1.000000000000e-03 1.047197551197e-05 1.390919417778e-12 -4.045387194947e-12 -5.784484555790e-12
366 2 1.376466251645e-02 5.638929946044e-03 7.721321685230e-03 -8.953505630687e-13 3.063301016176e-11 2.322657724459e-12 5.383318574355e-09 1.535664947228e-08 1.282736101282e-08 1.000000000000e-03 1.047197551197e-05 -4.727447432810e-13 -1.928092162174e-13 -6.379483688960e-14
367 2 2.298262973613e-04 8.046828371519e-03 6.666807145726e-03 -4.035872698109e-11 4.965418420935e-11 -1.149527250024e-11 -2.967365588086e-09 -3.793630245853e-09 1.376533150871e-08 1.000000000000e-03 1.047197551197e-05 -4.909945204757e-13 8.121667274048e-13 -2.521166463342e-14
368 2 7.708914947742e-03 2.564262467884e-03 5.426681505746e-03 -1.700869578724e-11 4.353616685233e-11 -1.082805323802e-11 8.387300678986e-09 5.565010452853e-09 1.052682501131e-08 1.000000000000e-03 1.047197551197e-05 -1.364300079113e-13 1.033057634083e-13 1.522940633430e-14
369 2 2.842849277449e-03 5.485433676474e-03 1.435500376888e-02 1.780562728066e-11 2.380468446534e-11 -2.465069381513e-13 -1.182742245873e-08 1.162944187067e-08 1.027037932136e-08 1.000000000000e-03 1.047197551197e-05 -3.381508178109e-13 2.580008995934e-13 1.384697604178e-13
370 2 5.322025583439e-03 8.415965099626e-06 9.603835328571e-03 3.417214644815e-11 2.950980515095e-11 9.114808615422e-12 -2.640897828909e-08 -1.687979540558e-08 -1.084918098394e-09 1.000000000000e-03 1.047197551197e-05 1.577153236404e-13 1.377220134725e-14 2.449392961008e-13
371 2 3.355213435204e-03 2.173008520074e-03 9.895576173247e-03 2.674463021125e-11 4.007168166608e-11 4.335946752317e-12 -6.203886671748e-10 2.079982122234e-11 1.054737434811e-08 1.000000000000e-03 1.047197551197e-05 3.705247933582e-13 2.364410403739e-13 -3.053101779479e-15
372 2 1.028033723751e-02 6.312119823911e-03 5.463775120602e-03 -4.339346930638e-12 3.245714688696e-11 -5.740279866299e-12 -1.913636025451e-08 6.185033643927e-09 9.110562618300e-09 1.000000000000e-03 1.047197551197e-05 4.212169978276e-14 -1.434444480411e-13 2.854760763458e-13
373 2 1.436403656851e-02 7.352562042659e-03 1.053824335115e-03 -3.154055262627e-12 1.795209370017e-11 -3.658429358899e-12 6.940460604942e-09 -4.101763202431e-09 -1.544828027529e-09 1.000000000000e-03 1.047197551197e-05 5.883365612373e-14 -6.563031809145e-13 -7.874037455878e-13
374 2 9.967640200208e-04 1.124999851595e-02 1.282140273648e-02 1.612925674322e-11 3.520715996226e-11 -4.160834638953e-12 7.487955752059e-09 -1.540311948070e-08 2.255260050128e-09 1.000000000000e-03 1.047197551197e-05 2.001486304516e-13 -5.968046317666e-14 1.502174743166e-13
375 2 3.177243546545e-03 2.900112930910e-03 8.077266373004e-03 1.464204763573e-11 4.704745455705e-11 -4.290271733719e-12 -1.802604483051e-09 3.434476822881e-09 8.325371179875e-09 1.000000000000e-03 1.047197551197e-05 2.135878213439e-13 -1.977618913297e-13 6.904778226108e-14
376 2 1.275824466899e-02 5.578574313384e-03 4.260208825050e-03 -1.253740427036e-11 6.528204241438e-12 -1.423481401394e-11 -2.134375809606e-10 -8.363548487836e-09 3.530065549741e-09 1.000000000000e-03 1.047197551197e-05 -3.178941425677e-14 -3.268105069275e-14 -8.936607469948e-14
377 2 1.202906900582e-02 3.362245783685e-03 5.399711394335e-03 9.223850886474e-12 2.239022133851e-12 6.551572608401e-12 6.768590299819e-09 -4.556970126987e-08 -8.665364089772e-08 1.000000000000e-03 1.047197551197e-05 1.434480365810e-13 -1.356580044768e-13 -1.222490341473e-14
378 2 1.209734939508e-02 7.379691062555e-03 4.253980570050e-03 1.395313930403e-11 5.783887890700e-12 -2.047059330184e-11 -2.853767564992e-08 7.186897443921e-08 -2.351740572371e-08 1.000000000000e-03 1.047197551197e-05 2.519980782189e-13 2.018129591281e-12 1.900326167308e-12
379 2 1.379364161260e-02 8.101259952815e-03 7.467353417348e-03 5.397735806361e-12 4.312257634928e-12 1.161308314989e-11 4.204386555296e-08 4.611619858167e-08 -8.800103998790e-09 1.000000000000e-03 1.047197551197e-05 -8.416698003695e-13 1.937233580073e-13 1.842271939106e-12
380 2 3.938003056783e-03 2.975791823375e-03 1.157760937911e-02 2.062117129884e-11 4.595183200619e-11 4.352612045210e-12 -6.836359903485e-09 2.782982844514e-10 5.781443447142e-09 1.000000000000e-03 1.047197551197e-05 -3.318848947882e-14 -1.164882238869e-13 -7.587119637867e-14
381 2 3.818062993178e-03 6.937359284358e-03 8.196846970636e-03 2.356437503053e-12 6.182701510913e-11 -1.301094470240e-11 1.265200999144e-09 2.483718985110e-09 -1.244102213463e-08 1.000000000000e-03 1.047197551197e-05 1.115907586053e-14 -2.242376466267e-13 -8.810578847391e-15
382 2 4.874007186249e-03 4.264764351586e-03 6.091491699456e-03 8.429094452768e-13 4.354398383998e-11 -1.084002117526e-11 1.126536733727e-08 3.054708324192e-09 2.440451687653e-09 1.000000000000e-03 1.047197551197e-05 -2.526508378326e-14 -1.787982835617e-13 1.409364713664e-14
383 2 6.596814073694e-03 1.522463403024e-02 7.793648917411e-03 3.276079595228e-11 3.767396473800e-11 -3.577184522853e-12 6.151742207877e-09 2.816780400855e-08 1.312244025690e-08 1.000000000000e-03 1.047197551197e-05 -5.768139524204e-14 1.472795303175e-13 2.146491457929e-13
384 2 1.719927461993e-03 1.169134482407e-02 1.109569984132e-02 2.288457027787e-11 3.902427182246e-11 4.335973949955e-12 -2.534496993957e-09 1.059455188354e-08 -1.125128600466e-08 1.000000000000e-03 1.047197551197e-05 -4.621657187788e-15 2.407995024111e-14 5.373079964660e-14
385 2 1.280917302763e-02 2.547799323927e-03 9.313636368924e-03 1.169887502279e-11 4.729304264244e-11 -2.312418579102e-12 -1.683628127662e-09 4.830611576919e-09 7.968750636918e-11 1.000000000000e-03 1.047197551197e-05 -1.012835374285e-13 6.610156545550e-13 -2.679956471188e-14
386 2 8.516589452522e-03 1.144157866640e-02 1.007046244377e-02 9.625713613279e-11 1.146447661224e-11 -3.036766644534e-11 -4.878675933257e-08 -3.075930887705e-08 -1.954394719225e-08 1.000000000000e-03 1.047197551197e-05 -8.258198080543e-13 -2.572381293648e-13 -2.348840810813e-14
387 2 6.320033934502e-03 1.391848690469e-02 4.061775736882e-03 -1.961315538970e-11 2.168809715727e-11 -6.249191046468e-12 1.052267807684e-09 -3.411737990758e-09 -1.209017638539e-08 1.000000000000e-03 1.047197551197e-05 4.905372319696e-13 4.084372302170e-14 1.878195567882e-13
388 2 1.410786611853e-02 1.074548921561e-02 9.557191734661e-04 -8.481103823404e-12 1.005939140225e-11 -8.724073788992e-12 -2.183990554634e-09 -6.643716827624e-09 2.939059710035e-09 1.000000000000e-03 1.047197551197e-05 1.779554105468e-13 2.070940076607e-13 3.316595458746e-14
389 2 2.421450883031e-03 1.670323590952e-03 1.308426722747e-02 2.310350532562e-11 2.219338159807e-11 6.015823492643e-12 6.233892870565e-09 -1.375691736497e-08 1.242903313177e-08 1.000000000000e-03 1.047197551197e-05 -1.070903038102e-13 1.852832860497e-14 -2.937369661096e-14
390 2 1.416938669923e-02 1.243245135478e-03 1.206589969850e-03 4.334871466207e-12 1.356600474023e-11 -1.504042666942e-12 2.598117224082e-09 -2.314746573045e-10 -5.091075389310e-09 1.000000000000e-03 1.047197551197e-05 5.643183474610e-14 1.738239821144e-15 1.316492521571e-13
391 2 1.065272049057e-02 1.002758705016e-03 7.273472477810e-03 -5.386737194668e-13 6.358064575351e-11 -3.520886287262e-11 2.159589601873e-08 -1.957493364403e-08 -2.092385356252e-08 1.000000000000e-03 1.047197551197e-05 8.697126086885e-13 -7.805154799396e-14 2.919287358823e-13
392 2 2.371468855912e-03 1.118047982662e-02 9.314653753967e-03 2.058090123086e-11 4.310940422223e-11 -4.329001874931e-12 -5.061557176505e-09 3.915394250672e-09 3.717812365567e-08 1.000000000000e-03 1.047197551197e-05 2.407288077915e-14 1.807782322721e-13 -5.759583360476e-14
393 2 3.270496874416e-03 4.967053847246e-03 8.874584129342e-04 -8.450582352083e-12 1.951557043901e-11 2.908740288862e-12 -1.407736793628e-08 -8.703091092204e-09 1.100472138835e-08 1.000000000000e-03 1.047197551197e-05 -7.381253845517e-16 1.156422905413e-14 -8.578673423226e-14
394 2 1.298423006286e-02 2.908094411314e-03 2.380157927420e-03 -1.134268624341e-12 1.448926350455e-11 -1.064150636390e-12 -1.020906575315e-08 6.517490573049e-09 2.893295396529e-09 1.000000000000e-03 1.047197551197e-05 -4.857330537300e-14 1.252769107455e-14 -1.222567592620e-14
395 2 5.692282042537e-04 2.038788550130e-03 1.491691576346e-03 1.765312247191e-12 1.620335476417e-11 -2.112626140987e-12 -4.091405258268e-10 1.337017469464e-09 4.135647277331e-09 1.000000000000e-03 1.047197551197e-05 2.369236674007e-14 9.821702259701e-14 1.384809565290e-13
396 2 6.224828848380e-04 1.075522893922e-02 9.701547294946e-04 -8.423195318469e-12 1.455514898481e-11 -2.131448373495e-12 -8.062624203481e-09 -5.005935251488e-09 2.069387722994e-09 1.000000000000e-03 1.047197551197e-05 9.720290407891e-14 -3.788632077932e-13 3.209811347365e-14
397 2 1.486502811510e-02 1.427430289630e-03 7.193059426829e-03 1.293098079214e-11 3.887815774183e-11 9.448079643970e-12 -1.172540278411e-08 -3.739476091076e-09 1.317974605148e-08 1.000000000000e-03 1.047197551197e-05 -6.280890140695e-14 -3.044314614144e-13 -5.512787570593e-14
398 2 5.051842752998e-03 1.351538427385e-02 2.533662524780e-03 -1.068954797540e-11 1.291584297499e-11 1.182277133144e-12 -7.061115593286e-09 -8.156294769837e-09 -2.950350767145e-09 1.000000000000e-03 1.047197551197e-05 5.281810067121e-14 -9.188177099062e-14 1.506895057970e-14
399 2 5.704099692836e-03 1.450385249358e-02 5.941823779382e-03 -2.052336191702e-12 3.774968180517e-11 5.020711521315e-12 5.729694462010e-09 1.424026439182e-08 -2.167725187973e-09 1.000000000000e-03 1.047197551197e-05 1.121930438692e-13 -3.287057137061e-13 2.643600802313e-13
400 2 1.052797624851e-02 4.666157725563e-03 8.703985409393e-03 -1.887304355087e-11 7.118604336730e-11 -3.207776753257e-11 -2.985944558982e-08 -1.678627032268e-08 -2.033428196594e-08 1.000000000000e-03 1.047197551197e-05 2.588217225270e-12 4.204613116318e-13 6.741421688724e-13
401 3 1.262044215445e-02 1.246854009071e-02 1.402977485424e-02 -4.440273066660e-12 5.637428099229e-11 2.202461776587e-11 -1.901607986601e-09 -1.859423863900e-08 -9.800414314126e-09 1.250000000000e-03 2.045307717181e-05 -7.292818994075e-14 -6.669463717503e-14 -5.752671066749e-13
402 3 7.391069490714e-03 3.036246048921e-03 1.200222940408e-02 1.529460000600e-11 5.278826627633e-11 -1.575939730714e-11 7.096456961809e-09 -4.457228681867e-09 5.874447406236e-10 1.250000000000e-03 2.045307717181e-05 2.788965988431e-13 -1.617212430767e-13 -5.457967890319e-13
403 3 4.011409766755e-03 2.168053271115e-03 4.482146137900e-03 -2.167681410749e-12 2.539020208848e-11 -7.532629781222e-13 -3.132435147495e-09 3.006354219374e-09 -8.093205459372e-10 1.250000000000e-03 2.045307717181e-05 -9.580648244425e-14 2.482996188329e-14 7.391914872498e-14
404 3 3.708207373779e-04 6.033008800632e-03 2.092479614698e-03 -7.156214326347e-12 2.383645157568e-11 3.149088720574e-12 -2.822938057416e-09 -7.348235551461e-09 6.608017608486e-09 1.250000000000e-03 2.045307717181e-05 3.035579181262e-13 -3.011196791625e-14 -2.167045752914e-13
405 3 1.044753739380e-02 4.912753667358e-03 3.724292775470e-03 4.795161104105e-12 -1.045468636042e-12 5.123494192892e-12 -1.153869978615e-08 5.589243933400e-09 1.064147644927e-08 1.250000000000e-03 2.045307717181e-05 7.957039334290e-14 -3.498711271327e-14 -1.346479900046e-13
406 3 8.268201958062e-03 1.343021813432e-02 1.422941626699e-02 -3.903087997294e-11 7.108123290437e-11 4.336314519031e-12 5.199995050070e-08 5.203268828120e-08 6.708466428505e-09 1.250000000000e-03 2.045307717181e-05 -3.527889780971e-14 -8.841734632159e-13 9.354817813698e-14
407 3 4.866339003497e-03 1.029911336745e-02 3.342896551492e-03 -3.252263778304e-11 2.168407971677e-11 1.958565187458e-11 -6.774871048853e-09 -1.858488822160e-08 -3.990003116708e-09 1.250000000000e-03 2.045307717181e-05 3.581252990373e-14 3.313885517247e-14 -2.357253273086e-13
408 3 9.738326857769e-03 1.339537534892e-02 1.148015137068e-03 -2.167369693113e-12 9.460677217617e-12 1.334387740816e-12 -5.182090415365e-09 3.672797535095e-09 8.487223973524e-09 1.250000000000e-03 2.045307717181e-05 3.845131325716e-13 -2.792377657593e-13 -6.996822621708e-14
409 3 1.061125096439e-02 9.658046781534e-03 7.842079953755e-03 2.752212470894e-10 1.278352315929e-10 -1.561068639742e-10 -7.340906146042e-08 1.022984507452e-07 -2.949508956653e-07 1.250000000000e-03 2.045307717181e-05 -4.758217772775e-12 -2.325359990873e-12 2.573318820056e-12
410 3 1.231519047960e-02 7.043230176158e-03 1.423560569443e-02 4.337362861647e-12 1.084370503738e-11 -4.343249068312e-12 4.779420417692e-09 -2.949531377291e-09 1.239253302490e-08 1.250000000000e-03 2.045307717181e-05 2.185441713892e-14 -3.467158572467e-14 -6.686245714357e-14
411 3 6.401393801449e-03 7.042290719819e-03 7.471391595625e-03 7.499189408703e-11 4.448135964668e-11 6.580044504804e-12 -2.735923376473e-08 8.602288201524e-08 7.700474505651e-08 1.250000000000e-03 2.045307717181e-05 2.252419001426e-13 -3.255929752403e-13 1.500892490755e-13
412 3 1.120133941598e-02 6.841136502943e-03 7.501213295726e-03 -3.556389097956e-11 1.639930954967e-11 -4.721123964315e-11 -6.933530658800e-08 4.963978154381e-08 3.393834825419e-08 1.250000000000e-03 2.045307717181e-05 -2.344260175325e-12 -8.784143710222e-13 9.285322073727e-13
413 3 9.829698177088e-03 7.454020733666e-03 1.130521037913e-02 2.168171471737e-11 4.823404450664e-11 -2.707011968969e-11 1.622695881552e-08 3.395579246841e-08 1.428654849608e-09 1.250000000000e-03 2.045307717181e-05 6.557380326302e-14 -8.168184870475e-14 -1.387795403961e-13
414 3 9.140993995814e-03 2.251737783855e-03 8.060073276753e-03 3.513399672730e-12 5.454799774495e-11 -2.158578836923e-11 1.439502815897e-08 -2.311382691341e-09 5.256595832245e-10 1.250000000000e-03 2.045307717181e-05 4.992550515347e-12 -2.400292948344e-14 1.408201464235e-12
415 3 1.378562936437e-02 1.281435684500e-02 1.154417795157e-03 -4.014587248670e-12 6.084353573940e-12 -8.942254718473e-12 -6.271823234969e-10 -6.522692131430e-10 -7.505573382916e-09 1.250000000000e-03 2.045307717181e-05 4.635247757192e-13 1.174324308206e-12 -5.413355263109e-13
416 3 9.256509315920e-03 1.160487596320e-02 8.121561729104e-03 1.487059906316e-10 1.431068374578e-10 -2.264146567269e-11 7.269983698958e-08 4.718774935557e-09 2.589615856660e-07 1.250000000000e-03 2.045307717181e-05 -1.452543148058e-12 -5.407206049534e-15 8.608014414038e-13
417 3 8.310058220349e-03 4.874651090953e-03 1.143010010573e-03 -4.336515842726e-12 2.106758913457e-12 -8.199385227003e-12 2.360388474356e-10 1.734096591111e-09 -4.963563923245e-09 1.250000000000e-03 2.045307717181e-05 -4.443217408659e-14 2.746188992883e-13 -8.026955137472e-14
418 3 1.132435465173e-03 4.341411259326e-03 4.459493015675e-03 -8.917824682279e-12 2.982440833294e-11 -5.931695983331e-12 1.390434749347e-09 3.727938342827e-09 -4.159732256433e-10 1.250000000000e-03 2.045307717181e-05 3.041791194587e-13 -6.829338627408e-13 5.495289555962e-13
419 3 1.255939256473e-02 7.039649235227e-03 1.043846258494e-02 1.300007866745e-11 4.687868257253e-11 -1.300544482692e-11 3.419253522029e-09 -1.643157678288e-08 -4.457928644409e-08 1.250000000000e-03 2.045307717181e-05 4.404966380371e-14 -3.061657159642e-15 -6.706102678551e-14
420 3 1.032129004756e-02 1.222220249688e-02 1.424088570629e-02 -5.246971535507e-12 6.109638277830e-11 -3.036859700361e-11 3.665208685044e-09 -1.865750129623e-08 1.924085619623e-08 1.250000000000e-03 2.045307717181e-05 -2.960411811594e-13 -7.497925953727e-13 1.034790180707e-13
421 3 4.296873205491e-03 9.579486656322e-04 1.249460183734e-02 4.119933683318e-11 2.948176570741e-11 -1.499427871696e-11 3.275595371159e-08 1.819054148125e-08 -6.545378384300e-09 1.250000000000e-03 2.045307717181e-05 -7.806615270640e-14 1.197820942262e-13 -2.363301215073e-13
422 3 1.331277375580e-02 1.212971421623e-02 3.875427991427e-03 -2.006407662156e-11 2.852742717435e-11 -1.582713596949e-11 1.714054007808e-08 -1.452200360386e-09 8.563359157471e-09 1.250000000000e-03 2.045307717181e-05 1.119109468825e-12 -6.982522412084e-13 -6.108306379479e-13
423 3 9.923985721300e-03 8.669664032238e-03 1.179698605704e-03 -6.306807840999e-12 4.271978914353e-12 -2.163297183646e-12 2.119813248780e-09 -1.050711947901e-09 -5.537350257156e-10 1.250000000000e-03 2.045307717181e-05 7.563114756740e-13 -1.001473972697e-13 -5.543250612408e-13
424 3 3.444508616226e-03 8.451460711630e-03 6.515102685143e-03 -1.571096696563e-11 5.041876521079e-11 1.580713104979e-11 -6.204114654400e-09 2.022392881154e-08 6.170174396954e-09 1.250000000000e-03 2.045307717181e-05 -6.071190032175e-14 -5.776676799959e-13 -1.079019293087e-13
425 3 1.344757323030e-02 9.962145880593e-03 6.439655770871e-03 -2.423426891266e-10 3.907310600691e-11 1.918641413001e-10 9.179956067212e-08 1.282555281710e-07 1.606228774346e-07 1.250000000000e-03 2.045307717181e-05 8.398323561795e-12 1.887830157537e-13 -5.143830654566e-12
426 3 9.530740886788e-03 2.233957487404e-03 1.252375654439e-02 1.207037287243e-11 4.548596990661e-11 -1.301010049660e-11 5.157704666164e-09 -1.555817458890e-09 -4.566412397586e-09 1.250000000000e-03 2.045307717181e-05 4.244209124023e-13 3.167772278364e-13 -7.148260294064e-14
427 3 1.473114926318e-02 3.882102600890e-03 1.407655993114e-03 -1.485946880152e-12 1.582853335907e-11 -4.582107562673e-12 2.251407242198e-09 -6.213197872124e-09 4.512131138613e-10 1.250000000000e-03 2.045307717181e-05 -4.487841198734e-14 -1.065412566775e-13 1.145208831682e-13
428 3 2.166106680592e-03 1.323091919620e-02 2.898343684186e-03 -1.831348724329e-11 1.772589172927e-11 2.719526664577e-12 -7.251401812388e-09 -7.818033019230e-09 -4.254290691638e-10 1.250000000000e-03 2.045307717181e-05 1.670395466030e-13 6.441261689033e-13 -8.096964904111e-13
429 3 1.406025490522e-02 4.359879788490e-03 9.685274124115e-03 1.301095217080e-11 4.183234708962e-11 -2.780328011099e-12 4.366499180263e-09 2.834908871030e-09 -3.202105677342e-10 1.250000000000e-03 2.045307717181e-05 1.996892320729e-14 -5.306105860067e-13 -6.437670624867e-13
430 3 5.249630329878e-04 3.254972609732e-03 6.729881553023e-03 3.878707163469e-12 3.574080875585e-11 -2.164591784163e-12 -3.307602801415e-09 4.380894472697e-10 -8.038912268540e-10 1.250000000000e-03 2.045307717181e-05 -2.400369803648e-13 -4.164913024299e-14 -4.588469199205e-15
431 3 6.128052798945e-03 1.225792882318e-03 6.124599123463e-03 -2.182409213884e-12 3.661894569639e-11 -1.568533941612e-12 -8.315159515016e-09 5.607523665788e-09 2.934913950979e-09 1.250000000000e-03 2.045307717181e-05 1.431488115087e-13 -4.547632369059e-14 -6.277941447112e-14
432 3 9.491827109109e-03 1.302178781997e-04 8.944877473961e-03 2.310462579510e-11 5.418639396787e-11 -3.025173697349e-11 -1.149763182863e-08 1.068241550184e-08 2.027134964106e-08 1.250000000000e-03 2.045307717181e-05 7.083581131125e-13 -1.134066060740e-12 1.279862724407e-12
433 3 1.183659863542e-02 2.104136717500e-03 1.332118943933e-02 1.294291460355e-11 6.067122528463e-11 2.889557080499e-12 -2.749315192001e-08 -8.425176768753e-10 2.804475358788e-09 1.250000000000e-03 2.045307717181e-05 1.297162568433e-13 1.199037002357e-13 -3.467041616449e-13
434 3 1.354107323346e-03 1.346626305255e-02 1.005091224233e-02 2.262709945634e-11 3.881430512929e-11 4.336468402441e-12 -1.627904942476e-09 3.687358057535e-09 -2.303782350985e-11 1.250000000000e-03 2.045307717181e-05 -3.560204566292e-13 -2.510684646478e-13 2.691458513225e-14
435 3 2.770412766520e-03 3.595041447602e-03 6.030114255419e-03 1.024806412598e-12 3.576964349731e-11 -6.506115444962e-12 -5.206044917930e-09 2.540378865518e-09 3.370226091310e-09 1.250000000000e-03 2.045307717181e-05 -8.431420689398e-14 -3.492588807178e-14 -1.474888764536e-13
436 3 1.306817046222e-02 1.090681667703e-02 1.060045591283e-02 -1.301038282863e-11 8.050657728977e-11 4.083778198321e-11 8.529351575910e-09 4.153828182668e-08 -1.158098003693e-08 1.250000000000e-03 2.045307717181e-05 -9.489152073834e-14 -4.967210836740e-13 6.098767993743e-13
437 3 1.671770232545e-03 7.004800834658e-03 1.228417302971e-02 1.576411741806e-11 3.670730946905e-11 -4.336581646553e-12 1.989487131872e-09 2.279140583646e-09 -8.284548533698e-09 1.250000000000e-03 2.045307717181e-05 7.535940810230e-14 -1.125211672792e-13 -2.704210094464e-14
438 3 1.222247853153e-02 7.806857176287e-03 1.203392589357e-03 -1.054277116034e-11 1.164990619092e-11 -6.717194594264e-12 -6.570037915662e-09 7.899095417551e-10 8.225033794171e-09 1.250000000000e-03 2.045307717181e-05 7.606341958395e-13 -4.517960751936e-13 -9.102938147829e-13
439 3 1.362443840474e-02 1.443724493518e-02 1.093735868776e-02 2.133729533631e-11 7.308500416035e-11 3.076043279520e-11 5.479659869902e-09 -2.578838417167e-09 8.272611393265e-09 1.250000000000e-03 2.045307717181e-05 3.571923162671e-14 -8.987425159927e-14 -1.382386999728e-13
440 3 1.376915615249e-02 4.340471579674e-03 1.207222754498e-02 1.318207275585e-11 3.949331475544e-11 -4.336088368087e-12 -5.862453117593e-09 -3.180320216197e-09 -1.657297569885e-09 1.250000000000e-03 2.045307717181e-05 -4.460120888420e-13 -1.158990596461e-13 2.954770214660e-15
441 3 9.998798723309e-03 7.708240134886e-03 3.563329968682e-03 -1.301071332440e-11 -2.629088679524e-12 -3.555812842716e-11 2.026267318662e-08 -4.781128270814e-08 1.240856192644e-08 1.250000000000e-03 2.045307717181e-05 3.528862104907e-14 7.123423626801e-13 3.783174701194e-13
442 3 4.715095805178e-03 1.280880792119e-02 1.071009562380e-02 4.123113492048e-11 3.920862631805e-11 -3.930610484036e-11 2.340674582934e-08 -2.603712653834e-08 1.551334846885e-09 1.250000000000e-03 2.045307717181e-05 4.743473636155e-14 1.426557910866e-12 -1.024038395683e-12
443 3 2.585068221973e-03 2.951566175303e-04 3.990216517764e-03 -3.205832109456e-12 2.421296497176e-11 2.169309195766e-12 3.729000043471e-10 -1.738693616135e-09 2.093463508631e-10 1.250000000000e-03 2.045307717181e-05 -6.954846935301e-14 -3.028059483753e-13 -1.815436312102e-14
444 3 5.727865019101e-03 8.441311011821e-03 4.534024250977e-03 -1.713676974494e-11 2.548259575731e-11 9.606808281646e-12 6.730085052782e-09 4.638223487823e-08 5.381759837891e-09 1.250000000000e-03 2.045307717181e-05 1.843238561248e-13 -5.772297946978e-13 -1.957218349950e-13
445 3 1.347220969060e-02 1.203543167481e-02 7.703150047499e-03 -1.195095944789e-11 1.694195816191e-10 7.446015743670e-11 -1.171265310143e-07 9.387016403141e-08 -6.053722914354e-08 1.250000000000e-03 2.045307717181e-05 1.097608861755e-13 4.679224617576e-13 8.981831105231e-13
446 3 1.426178145054e-02 7.500984803646e-03 1.206106214094e-02 3.852903462326e-12 2.414743507441e-11 -1.170986432489e-12 -8.419786542083e-09 -6.479278259678e-09 3.569874651952e-09 1.250000000000e-03 2.045307717181e-05 2.057507412252e-13 -5.164517230180e-14 4.184165180805e-13
447 3 4.187225430931e-03 1.399540739091e-02 1.275764137535e-02 3.812439179593e-11 3.903006143085e-11 -3.842794171560e-11 -1.695865448403e-08 3.339992630906e-08 6.646836113290e-09 1.250000000000e-03 2.045307717181e-05 -4.380854154989e-14 -5.344495802183e-14 -1.977579872630e-13
448 3 7.810223275134e-04 7.627290031811e-03 1.012653089238e-02 2.308895404731e-11 5.137204842092e-11 1.301092087807e-11 4.010846990845e-09 4.251168812255e-09 -1.112625922993e-08 1.250000000000e-03 2.045307717181e-05 -1.780672301387e-13 -8.755075238650e-13 -3.063696904754e-16
449 3 6.451465723279e-04 4.464082882399e-03 1.279292375207e-02 1.588647582270e-11 3.025243275980e-11 -4.336843485375e-12 1.567176233849e-09 2.984471887217e-09 -2.468478793860e-09 1.250000000000e-03 2.045307717181e-05 3.371004969101e-14 -1.429521521838e-13 -6.172734502982e-14
450 3 4.142404593620e-03 1.007964140142e-02 1.001016219045e-02 4.867775688801e-11 5.175981722053e-11 -1.300964268083e-11 1.934411243571e-09 -6.415964227905e-09 -1.556788694625e-08 1.250000000000e-03 2.045307717181e-05 -6.242811587785e-13 -2.427688965160e-13 7.298226332446e-14
451 3 1.072754356640e-02 3.630645941339e-04 1.187390990613e-02 5.564971725813e-12 5.271750280641e-11 -2.168049427184e-11 1.307024632009e-08 -1.576442997241e-08 -1.699549110620e-09 1.250000000000e-03 2.045307717181e-05 -8.056920745797e-13 -1.312598080904e-13 -9.863012252346e-14
452 3 1.506294118041e-02 1.000487093920e-02 4.753042013408e-03 -1.414177803674e-10 7.769748582006e-11 1.717543366917e-11 -4.955065249251e-08 -7.697673012200e-08 -3.914837537401e-08 1.250000000000e-03 2.045307717181e-05 -9.811469887505e-12 -1.406422759203e-13 5.938571541098e-12
453 3 8.636296845275e-03 8.383205801098e-03 8.176771542485e-03 1.257666138853e-10 1.604758069433e-10 -3.899774013232e-11 8.213202113435e-09 -2.605674904193e-09 1.503325937519e-07 1.250000000000e-03 2.045307717181e-05 5.106801751299e-14 5.139993836256e-14 1.605658596431e-13
454 3 8.013053304351e-03 4.948863430361e-03 8.509151742201e-03 -1.166216528475e-11 6.178433003601e-11 -4.336685299545e-12 -8.517824271143e-09 4.720560894800e-09 -3.048566342344e-08 1.250000000000e-03 2.045307717181e-05 -1.432266840881e-12 -7.864087559485e-13 -4.008323230673e-14
455 3 1.148762898144e-02 1.407327345640e-02 2.781182319128e-03 4.337313558187e-12 2.958473110680e-11 -5.411763947606e-12 -1.585770823329e-09 7.695103363985e-10 -1.290546956908e-10 1.250000000000e-03 2.045307717181e-05 -3.507435526329e-14 -1.376996521627e-13 -1.492818416815e-13
456 3 3.509161234921e-03 8.374892695694e-03 1.162183081884e-02 2.749236817485e-11 4.113062611402e-11 -1.204332346477e-11 4.418139415486e-09 -3.664047756857e-09 6.035591676243e-09 1.250000000000e-03 2.045307717181e-05 -1.942367600475e-13 -8.524212903850e-13 1.301997167656e-13
457 3 8.438999240400e-03 1.497954907305e-02 2.592052117396e-03 -1.300759797352e-11 1.239166254927e-11 -5.104178507328e-13 -9.872019371107e-09 -3.079166088392e-09 -2.520754962465e-09 1.250000000000e-03 2.045307717181e-05 2.536533561851e-14 1.834723265723e-14 9.034969035921e-14
458 3 6.756709618377e-03 1.073365305296e-02 1.429362723913e-02 2.382143829823e-11 3.060454911997e-11 -1.300860246147e-11 2.002128642372e-08 -1.679662453913e-08 -2.201721283401e-08 1.250000000000e-03 2.045307717181e-05 -4.649327163247e-13 1.145613944883e-13 2.544847782891e-14
459 3 1.359598718264e-03 3.365188330999e-03 9.228076200147e-03 1.313302295122e-11 4.479836333973e-11 -4.337207922558e-12 -3.116137292267e-10 -9.128984881127e-10 -1.692462987670e-09 1.250000000000e-03 2.045307717181e-05 2.806711058651e-13 -5.549696795496e-13 1.291441617423e-14
460 3 1.025302943766e-02 3.860066865981e-04 1.203783312863e-03 -4.337510300718e-12 3.835925512904e-12 1.179357418414e-13 1.891700919414e-09 -2.994379000727e-09 -3.492825620535e-09 1.250000000000e-03 2.045307717181e-05 8.107281359151e-14 3.048002816034e-14 3.157607322703e-14
461 3 3.720729367503e-03 1.242915670043e-02 7.796075586969e-03 1.807155228540e-11 3.902660690493e-11 -1.155301075213e-11 -2.948726322564e-08 2.064173494297e-08 2.782904575434e-08 1.250000000000e-03 2.045307717181e-05 1.423046495753e-13 1.120715833389e-13 3.300393761471e-13
462 3 8.739868845785e-03 1.098230634521e-02 1.304821087402e-02 3.035588798700e-11 2.584255104881e-11 -2.169636374381e-11 -2.061352822410e-08 7.174985303000e-09 5.747513299301e-09 1.250000000000e-03 2.045307717181e-05 3.963733685436e-14 -1.139746065217e-12 2.203172738588e-14
463 3 6.357586444453e-03 1.103005551115e-02 1.023604800829e-02 6.609681858831e-11 4.538607088278e-11 -2.865500423650e-11 -3.496526187506e-09 -7.559223795060e-09 1.212027774208e-08 1.250000000000e-03 2.045307717181e-05 4.187243455435e-13 5.241065577201e-13 2.966431570496e-13
464 3 1.478228880713e-02 1.406383972150e-02 8.822673593805e-03 2.993022371582e-11 8.279063523017e-11 2.535298552370e-11 4.209935670251e-09 1.652661089170e-08 -5.120550721959e-08 1.250000000000e-03 2.045307717181e-05 -6.405231493519e-13 5.093779200907e-13 -8.635531468483e-14
465 3 4.368745495427e-03 6.333612444175e-03 5.941343671949e-03 -1.240605646269e-11 4.795823410939e-11 1.045789029795e-12 1.319128230468e-09 9.879764887770e-10 5.119025534851e-09 1.250000000000e-03 2.045307717181e-05 6.316691913833e-13 -9.226231038598e-13 -3.654379405357e-13
466 3 7.434574374024e-03 1.488925019340e-02 9.990363329257e-03 5.813357018796e-11 4.835242347660e-11 1.377486300945e-11 -2.381387003504e-08 3.616543333288e-08 3.373788813978e-09 1.250000000000e-03 2.045307717181e-05 -1.458785794987e-13 -1.357466287034e-12 -6.562334872581e-14
467 3 7.211587553110e-03 1.034690795146e-02 8.071941240605e-03 1.144456935531e-10 3.095230158091e-11 -3.672019820182e-11 1.909292261377e-09 -1.553810954576e-09 -9.238398707687e-08 1.250000000000e-03 2.045307717181e-05 -4.736880457150e-13 2.373313095934e-13 6.234162753388e-13
468 3 2.351214771813e-04 1.144494307576e-02 8.919051398286e-03 -5.909740740643e-12 5.637576910447e-11 1.256610789877e-11 1.044641692590e-08 1.719718014390e-08 -3.216630793070e-08 1.250000000000e-03 2.045307717181e-05 9.770877633109e-13 -1.730335291177e-14 4.081461433822e-13
469 3 5.603306398402e-03 4.026158780414e-03 3.702272541510e-03 -8.492137161839e-12 2.818797989293e-11 -5.075251550888e-12 5.241457585805e-09 7.379816362700e-09 6.195830316746e-09 1.250000000000e-03 2.045307717181e-05 1.703401088392e-13 5.026051755674e-16 -1.839648615950e-14
470 3 6.372737996798e-03 3.411686498409e-03 1.210194006185e-03 -7.091974494100e-12 1.200341405288e-11 -3.286460168805e-12 -2.138203165604e-09 -1.262210347561e-09 -7.537324192905e-10 1.250000000000e-03 2.045307717181e-05 3.336549636086e-14 -4.862616562310e-13 -5.412983623427e-14
471 3 8.022505090266e-03 4.371021553153e-03 4.081553833366e-03 -4.341031006338e-12 2.839137651874e-11 -1.100803931143e-11 -4.476740754550e-09 -2.415890920228e-09 -6.750892812449e-09 1.250000000000e-03 2.045307717181e-05 4.576946440884e-14 -2.614386346163e-13 -3.381688142520e-13
472 3 2.454432009939e-03 9.871802123495e-03 2.800994369140e-03 -3.964500750373e-11 1.318663700319e-11 1.308987780522e-11 1.414454885411e-09 -2.645866713245e-08 2.437234506180e-08 1.250000000000e-03 2.045307717181e-05 2.370158068812e-12 1.704507577720e-13 -1.710928316701e-13
473 3 8.084880441604e-03 9.621785138109e-03 1.112049381782e-02 3.807217757586e-11 3.869486217828e-11 -4.332243957915e-12 7.767283698188e-09 -1.806694895666e-08 -1.630297268793e-08 1.250000000000e-03 2.045307717181e-05 -5.260442705139e-13 -2.251782122224e-13 -2.224155333874e-13
474 3 1.285232393501e-02 7.232529433145e-04 2.931943638301e-03 4.398170585195e-12 2.526821230820e-11 -3.118852310937e-12 -3.590607741442e-09 -4.401266517055e-10 -5.532991921813e-10 1.250000000000e-03 2.045307717181e-05 1.457997274394e-13 2.115223776915e-13 1.987396511642e-13
475 3 1.439111901283e-03 8.374524042696e-03 4.809999163818e-03 -7.316665159470e-11 3.916903302999e-11 4.599804718172e-11 2.670032044350e-08 1.913902405289e-08 2.373927860624e-08 1.250000000000e-03 2.045307717181e-05 1.158921811059e-12 1.415992051916e-13 -1.325870973842e-12
476 3 1.402488538638e-02 7.279458455687e-03 3.249900054317e-03 -3.014367803272e-11 1.049059686494e-11 -2.420035044102e-11 -2.539514158697e-09 -2.417432174742e-08 1.703260088179e-08 1.250000000000e-03 2.045307717181e-05 4.234183666006e-13 5.447375115616e-13 -5.423884390422e-13
477 3 1.574134414321e-03 7.995940908951e-03 1.168566982795e-03 -4.496634736168e-12 1.465548726634e-11 4.037108213399e-12 -1.046685869846e-08 -2.321906633256e-09 -6.930819593342e-09 1.250000000000e-03 2.045307717181e-05 4.516452090959e-14 -6.541845198335e-13 -1.739797180996e-13
478 3 1.162722021611e-02 1.131144341530e-02 2.470776899770e-03 -1.544224577992e-11 3.903068655542e-11 -3.354177158515e-11 -2.173505453538e-09 -8.788466715425e-09 -1.120730065327e-08 1.250000000000e-03 2.045307717181e-05 5.435961223866e-14 -3.706816270613e-14 3.024329528476e-13
479 3 1.163132771058e-02 8.661327459155e-03 5.915815766489e-03 -5.518393853473e-12 -2.168104749582e-11 -3.692238366724e-11 5.884439144777e-08 -1.597355167616e-07 -3.952725281547e-08 1.250000000000e-03 2.045307717181e-05 -5.519366450430e-13 1.991660813325e-13 4.638639969205e-12
480 3 5.706930600124e-03 1.748117119229e-03 1.086125312671e-02 2.609377431926e-11 4.933393093156e-11 -1.790977303814e-11 -9.469284325817e-09 -1.985279557052e-09 2.002220685033e-10 1.250000000000e-03 2.045307717181e-05 4.628776225469e-13 -2.833059956963e-14 -4.376208033691e-13
481 3 9.205672252116e-03 4.584170366056e-03 1.306316945574e-02 2.160431828490e-11 4.444256122697e-11 -4.336897448963e-12 3.804861259091e-09 7.384572073430e-09 2.970287901974e-09 1.250000000000e-03 2.045307717181e-05 -1.080431033056e-13 -1.977497380959e-13 -1.043753644562e-13
482 3 1.148974670117e-02 9.159351886591e-03 1.091734774860e-02 1.070067852266e-11 5.638103928336e-11 -1.692434142707e-12 2.652090906996e-08 -4.061690503183e-08 2.776639040682e-08 1.250000000000e-03 2.045307717181e-05 -3.898027443844e-13 -2.502056351422e-15 4.686221288547e-13
483 3 9.022917703017e-04 9.138545299550e-04 1.423809369494e-02 7.358923497415e-12 9.471328796784e-12 -4.337022770472e-12 5.946962475057e-10 -4.888882498907e-09 -5.078756751077e-09 1.250000000000e-03 2.045307717181e-05 -1.909772403064e-13 -5.001386203114e-14 -6.304232707588e-14
484 3 1.329662959090e-02 9.079055810725e-03 1.356629322497e-02 4.341020214697e-12 2.420881878994e-11 4.508074577070e-12 1.296954193622e-08 7.118827283865e-09 -1.143675624651e-08 1.250000000000e-03 2.045307717181e-05 -5.293282609294e-14 -3.081671111219e-13 2.767459757727e-13
485 3 3.876119769989e-03 6.382594156947e-03 2.316482827454e-03 -1.841521683220e-11 3.251619366020e-11 7.559052704185e-12 8.820956819848e-09 1.562984129828e-08 7.378793737293e-09 1.250000000000e-03 2.045307717181e-05 8.158052010639e-14 7.110732466962e-15 -2.339155546337e-14
486 3 9.370735186209e-03 8.241794767035e-03 5.833093837585e-03 1.125745049796e-11 5.983625797816e-11 -9.654052683691e-11 -1.039678597453e-07 8.365588226945e-08 -6.043647787668e-09 1.250000000000e-03 2.045307717181e-05 -9.233448708630e-13 -2.087223733610e-13 -8.178319643589e-13
487 3 6.833030562344e-03 2.860567818752e-03 7.685089110011e-03 7.070141013014e-12 4.342860041977e-11 -3.418978623041e-12 1.352166046079e-08 1.221787655722e-08 4.119866576013e-09 1.250000000000e-03 2.045307717181e-05 -4.267448619938e-12 2.209646375448e-12 -7.157729937823e-13
488 3 1.329191416861e-02 2.179918523048e-03 1.135917147417e-02 1.474026175399e-11 4.524386231927e-11 4.214029044637e-12 1.727752567313e-09 -9.496886581294e-10 -1.416429145512e-09 1.250000000000e-03 2.045307717181e-05 -4.176588818839e-13 9.517340600918e-14 -4.705870869150e-14
489 3 1.520713408195e-02 1.474867321756e-02 1.524205152611e-03 2.460689905107e-12 1.035768306494e-11 -6.959855441976e-13 1.173777924915e-09 -7.422767307571e-09 3.996629127599e-09 1.250000000000e-03 2.045307717181e-05 -3.377164854297e-13 8.507222618334e-13 -3.472934579748e-13
490 3 5.397906519210e-03 1.196631116578e-02 1.283885851811e-02 4.121709611111e-11 4.770698427356e-11 -3.536746717097e-11 -4.365692927673e-08 3.575511716605e-08 -1.056752637350e-08 1.250000000000e-03 2.045307717181e-05 -3.963279816324e-13 1.501054525434e-13 -4.413269290943e-14
491 3 1.245736265228e-02 1.378044851016e-02 8.875136908951e-03 4.770650388134e-11 1.423707437931e-10 1.301230460448e-11 6.351145105976e-08 -2.581931357132e-08 3.847764568281e-08 1.250000000000e-03 2.045307717181e-05 -3.467796457690e-14 6.024611255241e-13 6.459748770738e-14
492 3 2.711484870026e-03 4.983731625941e-03 1.180361559054e-02 1.046668003407e-11 3.386976422953e-11 -4.336145985203e-12 2.143431986902e-10 -2.576402705359e-09 4.540234784666e-09 1.250000000000e-03 2.045307717181e-05 4.825753774553e-14 -6.792525241382e-13 2.543966379083e-14
493 3 2.415419747191e-03 2.775065625674e-04 1.018859039431e-02 2.925903492095e-11 3.797392443390e-11 1.624743977025e-12 5.873792722452e-09 1.938090319566e-09 -6.192505427310e-09 1.250000000000e-03 2.045307717181e-05 -1.609980027438e-13 -3.255372636681e-13 -9.810167095852e-14
494 3 1.533024428397e-02 1.328813418656e-02 1.228187238878e-02 3.027555402538e-11 3.999692539724e-11 1.301152526255e-11 2.276651455150e-08 1.170424775607e-08 -9.873307410068e-09 1.250000000000e-03 2.045307717181e-05 -9.433678384353e-14 1.284014890047e-13 -1.752123173421e-14
495 3 1.060295845438e-02 1.346020441630e-02 7.360347913963e-03 2.086838851046e-11 1.717703939834e-10 -2.396101263530e-11 -1.070583413467e-07 -6.147732206130e-09 -9.738290467368e-08 1.250000000000e-03 2.045307717181e-05 2.659470141753e-14 -8.285778050254e-13 -4.074717549163e-14
496 3 1.018926702508e-02 6.320236084390e-03 1.315985069394e-03 -1.854074731492e-12 1.718439736850e-12 -1.531667792728e-11 5.571285197267e-09 -3.691179554970e-09 6.931967416092e-09 1.250000000000e-03 2.045307717181e-05 6.623500564499e-13 -1.994750328237e-13 -1.652223481271e-13
497 3 6.517110602299e-03 8.423111856413e-03 9.419103546864e-03 5.983950364066e-11 5.637814915121e-11 -3.034134986094e-11 -4.093393660178e-09 -1.532215493129e-08 1.062301928089e-08 1.250000000000e-03 2.045307717181e-05 -2.297767708080e-13 1.689227524045e-14 6.787429427096e-14
498 3 1.684042162049e-03 3.927802100451e-03 1.844346425021e-03 -3.615917048882e-12 1.796627926875e-11 3.774944539415e-12 2.499645278204e-09 3.855560572715e-10 5.687664844042e-10 1.250000000000e-03 2.045307717181e-05 -1.896240491500e-15 -1.363560612973e-13 4.346785832360e-14
499 3 1.164191507217e-02 4.335719052430e-03 1.364806985675e-03 -3.021916274249e-12 9.516342249560e-12 -9.510074080216e-12 -4.564035280259e-09 -1.806105047372e-09 -2.810950819413e-09 1.250000000000e-03 2.045307717181e-05 3.756083576218e-13 -5.455871041401e-13 1.124346016628e-13
500 3 1.002123851980e-02 7.624109639202e-03 1.383002693406e-02 1.300782271774e-11 1.204736593256e-11 -1.199266995500e-11 1.077642995357e-08 -7.533863262112e-11 -1.168318796546e-08 1.250000000000e-03 2.045307717181e-05 -2.599760165179e-15 -4.617790754373e-13 -5.647094013909e-13
