ITEM: TIMESTEP
225000
ITEM: NUMBER OF ATOMS
500
ITEM: BOX BOUNDS pp pp ff
0.0000000000000000e+00 1.5370634520482899e-02
0.0000000000000000e+00 1.5370634520482899e-02
0.0000000000000000e+00 1.5370634520482899e-02
ITEM: ATOMS id type x y z vx vy vz omegax omegay omegaz radius mass fx fy fz
1 1 9.621578313725e-03 6.911729064401e-03 5.965105891740e-04 2.539828492770e+01 -1.509078586721e+01 -2.175355850508e+00 -2.190562095203e+04 1.180337466778e+04 1.519800439683e+04 5.718750000000e-04 1.958537774335e-06 -2.539958179224e-02 1.509155641944e-02 2.175466926585e-03
2 1 1.299474415091e-02 1.400439444478e-02 8.179396226340e-03 -2.174057412850e+00 -1.025617412993e+01 3.881642630380e+00 -3.777684359325e+03 2.865223213296e+04 1.125261620809e+04 5.718750000000e-04 1.958537774335e-06 2.174168422627e-03 1.025669782153e-02 -3.881840831348e-03
3 1 1.091927871120e-02 1.148369663954e-02 1.369825039124e-02 -9.787617748912e+00 4.470099112342e+00 -5.897617986936e+00 6.025438310680e+03 -3.039478652733e+04 1.535399106054e+04 5.718750000000e-04 1.958537774335e-06 9.788117515506e-03 -4.470327360550e-03 5.897919125837e-03
4 1 2.944811075065e-03 8.429644174201e-03 1.411531642450e-02 2.495411082723e+00 -1.232593190591e+01 1.894300609448e+00 1.522244012086e+04 -2.324167193834e+04 2.656040972768e+04 5.718750000000e-04 1.958537774335e-06 -2.495538501175e-03 1.232656128163e-02 -1.894397334534e-03
5 1 1.431778241237e-02 1.786195225547e-03 1.270183936970e-02 -6.541616219341e+00 -7.015545107553e+00 -6.887584775448e+00 3.151150528920e+04 1.564851668472e+04 4.788727566644e+03 5.718750000000e-04 1.958537774335e-06 6.541950241504e-03 7.015903329050e-03 6.887936463149e-03
6 1 4.203898524970e-03 1.129719635624e-02 1.477345376747e-02 1.974511980200e+01 7.697482511134e+00 -1.052755843675e+00 -2.559474993443e+03 -3.734086096946e+03 -1.091687120298e+04 5.718750000000e-04 1.958537774335e-06 -1.974612800967e-02 -7.697875553109e-03 1.052809598553e-03
7 1 7.906061482051e-03 9.136534409811e-03 3.659516159968e-03 -8.180933805373e+00 4.712885099201e+00 -3.340116630279e+01 -1.206898817945e+04 -1.414213587861e+04 -1.041092392413e+04 5.718750000000e-04 1.958537774335e-06 8.181351532906e-03 -4.713125744329e-03 3.340287180330e-02
8 1 1.131222045299e-02 4.797595688435e-03 3.590514050364e-03 -6.910922561779e+00 1.279636550823e+01 8.118330640196e-01 -1.683629887229e+04 -1.165271895442e+04 1.211675427032e+04 5.718750000000e-04 1.958537774335e-06 6.911275441133e-03 -1.279701890481e-02 -8.118745171143e-04
9 1 1.066531350474e-02 9.098119189980e-03 9.618109953285e-03 3.309089504118e+01 -3.164968753572e+00 1.436912324169e+01 -2.581641938597e+04 2.144689916303e+04 -1.009909188303e+03 5.718750000000e-04 1.958537774335e-06 -3.309258469890e-02 3.165130360379e-03 -1.436985694502e-02
10 1 5.029750429664e-03 8.310783954437e-03 1.496227164523e-02 2.056607322717e+01 2.831350314071e+01 9.197104421586e+00 4.871910859791e+04 -3.005346990701e+03 -2.651126545313e+04 5.718750000000e-04 1.958537774335e-06 -6.480477699604e-01 -3.442172384319e-02 -3.090758273746e+00
11 1 1.267418820456e-02 3.147575278497e-03 6.827854036188e-03 7.273371919908e+00 -5.146195593250e+00 6.829637221083e+00 -1.007516221837e+04 -6.992318740083e+03 -2.138718204245e+04 5.718750000000e-04 1.958537774335e-06 -7.273743306327e-03 5.146458363692e-03 -6.829985949918e-03
12 1 1.138873201348e-02 6.966137049819e-03 5.749425499967e-03 -2.404003622271e+01 3.328008968863e+01 1.511565183054e+01 6.386772560621e+03 -1.911261136386e+04 2.967763308202e+04 5.718750000000e-04 1.958537774335e-06 2.404126373357e-02 -3.328178900683e-02 -1.511642365245e-02
13 1 1.075048268566e-02 1.739449081729e-03 5.318861204440e-03 -2.412353226098e+01 -1.361388006471e+01 1.134608415001e+01 2.898040264562e+04 1.455413909428e+04 2.247732803084e+04 5.718750000000e-04 1.958537774335e-06 2.412476403523e-02 1.361457520449e-02 -1.134666349362e-02
14 1 1.209711462551e-02 7.384834742145e-03 2.909937744507e-03 2.151297595524e+01 1.836209790295e+01 -7.074272419050e-02 2.331685585922e+04 -1.482736266645e+04 -1.910713209748e+03 5.718750000000e-04 1.958537774335e-06 -2.151407443159e-02 -1.836303549199e-02 7.074633639228e-05
15 1 9.586635814988e-03 2.924015678826e-03 7.231978344412e-03 -1.160946375278e+00 -2.470959734122e+00 1.002501116324e+01 -2.289849185667e+03 -2.192710008903e+03 2.626061650030e+04 5.718750000000e-04 1.958537774335e-06 1.161005654485e-03 2.471085904060e-03 -1.002552305141e-02
16 1 2.012534526445e-03 3.710689460746e-03 8.258544624665e-03 1.902543218599e+01 2.657714908328e+00 -4.197619373936e+00 -1.962934861091e+04 6.930956009976e+03 2.157994164795e+04 5.718750000000e-04 1.958537774335e-06 -1.902640364561e-02 -2.657850614192e-03 4.197833709026e-03
17 1 1.358471949611e-02 1.421705441918e-02 6.030946331871e-03 6.845769421488e+00 7.328256071309e+00 2.521740859992e+01 2.219434574312e+04 -2.164204340942e+04 2.949557775919e+03 5.718750000000e-04 1.958537774335e-06 -6.846118974050e-03 -7.328630260173e-03 -2.521869622871e-02
18 1 7.195799569815e-03 9.424392841488e-04 2.108575182345e-03 -2.453191862630e+01 -5.735644854327e+00 -2.219597110966e+01 -6.648309461808e+03 -2.279646406971e+04 3.800648963256e+04 5.718750000000e-04 1.958537774335e-06 2.453317125321e-02 5.735937722700e-03 2.219710446050e-02
19 1 4.264399797917e-03 3.413974563157e-03 5.422351474174e-03 -3.646438692520e+00 -4.450471507722e+00 -1.037605966786e+01 8.045224017799e+02 -9.434227787815e+03 -2.347990988162e+04 5.718750000000e-04 1.958537774335e-06 3.646624883715e-03 4.450698753723e-03 1.037658948095e-02
20 1 8.579676965227e-03 7.477285699532e-03 8.037645665037e-04 4.897887046936e+00 -2.228105377390e+01 3.003295111172e+00 2.708394598225e+04 -1.362298014400e+04 2.685496982228e+03 5.718750000000e-04 1.958537774335e-06 1.161403533745e+01 -6.046015173276e+00 -6.561287893785e+00
21 1 1.471653015547e-02 1.082387484799e-02 6.089887680677e-03 -9.821982968363e+00 2.193872888838e+00 -1.757401326130e+01 9.710834278543e+03 -1.612513542793e+04 -2.677037240112e+04 5.718750000000e-04 1.958537774335e-06 9.822484489682e-03 -2.193984910415e-03 1.757491060986e-02
22 1 1.497086322809e-02 6.925144492322e-03 4.094475113615e-03 1.249926677420e+01 -1.964035707719e+01 1.208453701292e+01 2.147303167236e+04 -6.476357763025e+03 -1.757710085066e+04 5.718750000000e-04 1.958537774335e-06 -1.249990500059e-02 1.964135993555e-02 -1.208515406275e-02
23 1 1.931181673697e-03 5.544861939103e-03 6.124541698118e-03 -1.616778801898e+01 -1.890916841953e+01 1.176791182620e+01 -1.695013132888e+04 -7.308994536660e+03 -9.754462674474e+03 5.718750000000e-04 1.958537774335e-06 1.616861356412e-02 1.891013394259e-02 -1.176851270880e-02
24 1 2.226994811122e-03 1.909235709658e-03 1.159222026996e-02 1.804558401046e+01 4.677240492233e+00 -3.040505105483e+00 -2.578860135437e+03 1.001895711855e+04 -2.638150121856e+04 5.718750000000e-04 1.958537774335e-06 -2.256009437179e+00 -3.306860895828e+00 -5.667916176790e+00
25 1 1.092370573825e-02 2.421231779315e-03 4.653345845601e-03 -3.552302671493e+00 1.949260454079e+01 7.457602690382e+00 -2.784434842114e+04 1.917594108310e+04 5.175434491161e+03 5.718750000000e-04 1.958537774335e-06 3.552484055999e-03 -1.949359985474e-02 -7.457983483828e-03
26 1 3.612502192441e-03 6.550004384760e-03 1.490729697362e-02 -2.688577100524e+00 2.154232213760e+01 3.771291751205e+00 -5.363071634745e+03 -7.588483912826e+03 2.721151488497e+02 5.718750000000e-04 1.958537774335e-06 2.032539885256e-01 -7.205195452168e-01 -1.458136018899e+00
27 1 1.167511241534e-02 6.761813542434e-03 5.685964533376e-04 4.322185030830e+00 1.338115228192e+01 8.845861316679e-01 1.880753567649e+04 -7.767863181740e+03 7.907587346225e+03 5.718750000000e-04 1.958537774335e-06 -1.104339729043e-02 -3.188858431595e-02 -4.026338079325e-02
28 1 1.773887946854e-03 5.089997593732e-03 1.405066883199e-02 1.112039313376e+01 -3.221286744700e+00 -1.216917214466e+01 1.643371765095e+04 -5.818143246782e+03 -1.714291435443e+04 5.718750000000e-04 1.958537774335e-06 -1.112096095333e-02 3.221451227166e-03 1.216979351606e-02
29 1 1.034332772956e-02 1.686525807445e-04 5.637102816585e-03 7.786939733719e+00 1.095214494129e+01 -1.533678086440e+01 1.377584095888e+04 3.197684796218e+02 2.486798886857e+03 5.718750000000e-04 1.958537774335e-06 -7.787337343479e-03 -1.095270416993e-02 1.533756397740e-02
30 1 1.124283669278e-02 1.306196552715e-02 4.003948655112e-03 -2.824207430168e+01 1.094776286852e+01 -1.281997066817e+01 -2.046177310846e+04 4.008155742458e+03 1.765566988502e+04 5.718750000000e-04 1.958537774335e-06 2.824351637325e-02 -1.094832187341e-02 1.282062527006e-02
31 1 1.166567895884e-02 2.177175557410e-03 1.417945797909e-02 1.062496734113e+01 1.519120272217e+01 -4.001871355599e+00 2.221993235858e+04 -6.232754101486e+03 1.715435662623e+03 5.718750000000e-04 1.958537774335e-06 -1.062550986372e-02 -1.519197840179e-02 4.002075695579e-03
32 1 4.325544537795e-03 1.173880523467e-02 7.456475974995e-03 -2.200715711846e+01 2.528442716194e+01 -4.321987117648e+01 -4.356136805646e+04 8.180924020078e+03 -1.371554413584e+04 5.718750000000e-04 1.958537774335e-06 2.200828082826e-02 -2.528571821277e-02 4.322207803093e-02
33 1 5.317861063017e-03 1.093619206994e-02 1.495434730992e-02 -1.745440370102e+01 3.154972785932e-01 -9.779822252496e+00 3.112136780952e+03 1.705742938151e+04 2.230616570532e+04 5.718750000000e-04 1.958537774335e-06 2.198906515646e-01 3.842963926416e-02 -4.024393308213e-01
34 1 1.331007478965e-02 6.801797574253e-03 7.120203444583e-03 -1.072058861063e+01 1.067897575547e+01 1.210593236183e+01 1.498816074085e+04 7.182671491394e+03 1.828017224036e+04 5.718750000000e-04 1.958537774335e-06 1.072113601575e-02 -1.067952103579e-02 -1.210655050414e-02
35 1 9.523919473721e-03 1.115098213728e-02 1.412235060985e-02 -1.316671321108e+01 -3.034956266545e+00 -6.282010925067e+00 -1.371579759381e+04 -2.289817131820e+04 6.016137267663e+03 5.718750000000e-04 1.958537774335e-06 1.316738551803e-02 3.035111234770e-03 6.282331691496e-03
36 1 6.773219193845e-03 1.507106696413e-02 1.421404870262e-02 1.024532807627e+01 4.875096680379e+00 -4.692549105144e+00 9.168056310787e+03 -1.914412642734e+04 -1.008032142813e+04 5.718750000000e-04 1.958537774335e-06 -1.024585121406e-02 -4.875345608210e-03 4.692788711894e-03
37 1 1.359116616885e-02 4.101771816487e-03 1.393718156567e-02 -6.373558212213e+00 3.873019042824e+01 -7.372884380263e+00 -1.234734278474e+04 -1.696285447143e+04 -6.672233350052e+03 5.718750000000e-04 1.958537774335e-06 6.373883653148e-03 -3.873216803462e-02 7.373260847899e-03
38 1 1.525556323429e-02 3.462785632060e-03 8.730862884326e-04 -1.380454502567e+01 1.793138550369e+01 7.705957008519e+00 -3.240588777326e+04 -2.493927065437e+04 -6.526783945768e+03 5.718750000000e-04 1.958537774335e-06 1.380524990101e-02 -1.793230110008e-02 -7.706350483211e-03
39 1 1.375140697772e-02 7.246535051293e-03 1.215054860855e-02 3.472608772263e+01 3.310761708468e+00 1.542652825674e+01 -1.469889635962e+04 1.241915730640e+03 1.892985739201e+04 5.718750000000e-04 1.958537774335e-06 -3.472786087510e-02 -3.310930759625e-03 -1.542731595235e-02
40 1 1.436786857142e-02 1.501484808315e-03 2.279204089769e-03 1.830641767843e+00 2.445156494485e+01 -6.825892538222e+00 1.331629216630e+04 3.605245813473e+04 1.193627640737e+04 5.718750000000e-04 1.958537774335e-06 -1.830735242437e-03 -2.445281346882e-02 6.826241075848e-03
41 1 8.784625969644e-03 5.091885216294e-03 3.017095636826e-03 5.363018380030e+00 -6.266767960255e-01 2.775274328058e+00 -1.597510124417e+04 -8.479499357933e+03 -5.928394967902e+03 5.718750000000e-04 1.958537774335e-06 -5.363292221684e-03 6.267087948362e-04 -2.775416036637e-03
42 1 2.533399287352e-03 3.433069055277e-03 1.324497613765e-02 1.492503980139e+01 -3.368187128846e+00 1.794871332820e+01 1.901916149660e+03 -2.124207507321e+04 -8.229562554014e+03 5.718750000000e-04 1.958537774335e-06 -1.492580189044e-02 3.368359112208e-03 -1.794962980937e-02
43 1 5.469705268066e-03 5.084271668544e-04 1.934045215567e-03 1.071833722031e+01 -1.031928258822e+00 -8.206165228987e-01 -3.874085160880e+03 -5.478685857824e+03 -1.967380006882e+04 5.718750000000e-04 1.958537774335e-06 -1.071888451047e-02 1.031980950221e-03 8.206584244864e-04
44 1 8.967442344701e-03 5.752846709081e-03 3.319014749557e-03 -2.543785917136e+01 1.446717145247e+01 -3.735758248129e+00 2.619508102964e+03 -2.830766728782e+04 1.073558226567e+04 5.718750000000e-04 1.958537774335e-06 2.543915805660e-02 -1.446791016225e-02 3.735949000079e-03
45 1 1.416862631714e-02 1.036243102858e-02 5.844362569526e-04 5.020686868222e+00 4.529906298622e+00 2.990390829118e+00 -7.716409647510e+03 7.439926198993e+03 -7.539886453094e+03 5.718750000000e-04 1.958537774335e-06 -5.020943230049e-03 -4.530137600651e-03 -2.990543521783e-03
46 1 9.509179687940e-03 1.044827041454e-02 1.023139623595e-02 -7.353481803315e+00 2.779467344237e-01 1.233658876979e+00 1.509714180367e+03 2.102088797726e+04 -5.784532646421e+03 5.718750000000e-04 1.958537774335e-06 7.353857280233e-03 -2.779609266916e-04 -1.233721868967e-03
47 1 6.447553271319e-03 1.404809982681e-03 1.133453207744e-02 -2.050346568136e+01 1.654005077081e+01 -5.911361982245e+00 -9.905069004734e+03 3.641207026914e+04 2.975289045763e+04 5.718750000000e-04 1.958537774335e-06 2.050451261101e-02 -1.654089532410e-02 5.911663822930e-03
48 1 8.203431779677e-04 6.556133941494e-03 5.516417003916e-04 2.360821704691e+01 -8.149284079244e+00 1.728522880252e+00 -1.586930454150e+03 -1.303816878469e+04 7.019231345139e+03 5.718750000000e-04 1.958537774335e-06 -5.120717381663e-02 1.619113828036e-02 -5.921950098614e-02
49 1 1.287178681079e-02 1.063223098073e-02 9.915497596627e-03 -2.014498224068e+01 4.086140471661e+00 1.836861227462e+01 2.981364447745e+02 9.758327979462e+03 8.200888120308e+03 5.718750000000e-04 1.958537774335e-06 2.014601086576e-02 -4.086349114515e-03 -1.836955019629e-02
50 1 7.992126853765e-05 3.443158863663e-03 4.226266653987e-03 1.638755235607e+01 -3.574723764360e+00 -2.534109635180e+01 -1.189630332391e+04 1.258946832726e+03 -1.679831844900e+04 5.718750000000e-04 1.958537774335e-06 -1.638838912262e-02 3.574906293711e-03 2.534239029622e-02
51 1 1.167012760394e-03 1.541703977817e-03 8.147129219412e-03 -7.034589484093e+00 -1.752581668851e+01 -1.898618043572e+00 -3.543486389205e+04 2.281416841977e+04 -4.554605761463e+02 5.718750000000e-04 1.958537774335e-06 7.034948678017e-03 1.752671157611e-02 1.898714989111e-03
52 1 1.207988536923e-02 1.085988959336e-02 3.136298445472e-03 1.332140739659e-01 -2.726771135288e+01 -3.103666688868e+01 -2.075148707828e+03 -2.188813574234e+04 -2.731320228705e+03 5.718750000000e-04 1.958537774335e-06 -1.332208760239e-04 2.726910367239e-02 3.103825165524e-02
53 1 7.363514543972e-03 1.248880664971e-02 1.401199905205e-02 -3.945539306130e+00 1.422378414793e+01 -9.496101486940e+00 2.608638549919e+04 7.251238009463e+03 -1.438091136588e+04 5.718750000000e-04 1.958537774335e-06 3.945740769733e-03 -1.422451043009e-02 9.496586368390e-03
54 1 3.083534497912e-03 7.054452519999e-03 5.714777738210e-04 1.334429627101e+01 -2.250781182646e+01 -3.328966671385e+00 1.711870073186e+03 -2.300562181786e+04 -2.936618665927e+03 5.718750000000e-04 1.958537774335e-06 -5.181209703251e-02 5.376010606809e-02 1.024523596774e-01
55 1 1.184027553331e-02 9.691608078073e-03 7.859188852147e-03 1.436386077723e+01 -1.081983811621e+01 -1.207664805650e+00 7.235879351933e+03 -1.540621725961e+04 -4.555031544242e+03 5.718750000000e-04 1.958537774335e-06 -1.436459421186e-02 1.082039058912e-02 1.207726470351e-03
56 1 1.352192054353e-02 3.940874596251e-03 1.491410698812e-02 -1.321361373381e+01 -2.116145762518e+01 5.233948518412e+00 6.897710811595e+03 -5.663900361791e+03 -3.988337222467e+03 5.718750000000e-04 1.958537774335e-06 4.889735236622e-01 7.468239273614e-01 -1.742263816842e+00
57 1 1.424932929444e-02 8.034558541755e-03 4.902571180324e-03 9.487288039846e-01 -2.139379598464e+01 -8.443226137172e+00 4.806665490312e+03 -1.493987815047e+04 2.222999465823e+04 5.718750000000e-04 1.958537774335e-06 -9.487772471272e-04 2.139488837553e-02 8.443657257641e-03
58 1 1.417296140414e-02 1.110354151158e-02 4.254580805658e-03 2.911850490893e+01 8.653904156118e+00 1.401755983366e+01 1.026116285843e+04 9.800763733455e+03 1.640705714661e+04 5.718750000000e-04 1.958537774335e-06 -2.911999173201e-02 -8.654346034041e-03 -1.401827558578e-02
59 1 7.830954265830e-03 4.366724113681e-03 7.826547636924e-03 -2.825693955779e+01 -1.037942232192e+01 -5.772444776315e+00 -2.227423306049e+04 7.630249852001e+03 -3.723402617664e+04 5.718750000000e-04 1.958537774335e-06 2.825838238839e-02 1.037995230671e-02 5.772739523733e-03
60 1 4.277659073733e-03 1.270755165573e-02 1.489042650088e-02 -6.041612326868e+00 -1.362626093640e+01 2.885328231563e+00 1.944785657641e+04 2.887060000073e+04 -3.318391459621e+04 5.718750000000e-04 1.958537774335e-06 -2.116863422317e-01 5.235817156685e-01 -1.111866003282e+00
61 1 6.525392293988e-03 1.242223933993e-02 2.592053159049e-03 5.467522421338e+00 -3.000766082366e+01 -3.047976251039e+01 -5.274309948291e+02 9.485299693497e+03 -1.402125351162e+04 5.718750000000e-04 1.958537774335e-06 -5.467801599083e-03 3.000919304803e-02 3.048131884079e-02
62 1 1.076264043734e-02 1.266297699805e-02 1.483033724379e-02 3.993450236988e+00 2.171384901564e+01 -2.504413159793e+00 3.216589279486e+04 5.782944603314e+02 1.424800158647e+04 5.718750000000e-04 1.958537774335e-06 -3.066078527308e-02 -4.173628914120e-02 6.919755696075e-02
63 1 8.245795591314e-03 7.082374296364e-03 5.004402133085e-03 -1.373948164219e+01 2.696943912620e+00 -2.268425046905e+01 2.266629365814e+04 -1.185773542264e+04 -2.013673863933e+04 5.718750000000e-04 1.958537774335e-06 1.374018319533e-02 -2.697081621560e-03 2.268540875198e-02
64 1 9.386738831978e-03 6.857898382567e-03 7.842014005348e-03 2.348775896854e+01 -1.753676434009e+01 -2.833213343364e+01 1.205529179349e+04 -3.583475712493e+04 -3.372683485446e+04 5.718750000000e-04 1.958537774335e-06 -2.348895827950e-02 1.753765978669e-02 2.833358010372e-02
65 1 1.093520399372e-02 6.331052458883e-03 1.787933359839e-03 -2.118936171040e+01 -1.865177449371e+01 -9.133626874915e+00 3.344372519487e+04 -1.445888972194e+04 1.486683960329e+04 5.718750000000e-04 1.958537774335e-06 2.119044366266e-02 1.865272687395e-02 9.134093248010e-03
66 1 1.321729622481e-03 5.466671938791e-03 8.788449031411e-04 2.017841483466e+01 -4.668646826130e+00 -3.411702099317e+01 -3.921519899478e+02 8.992818880422e+03 -2.255440272433e+04 5.718750000000e-04 1.958537774335e-06 -2.017944516685e-02 4.668885212403e-03 3.411876304601e-02
67 1 5.339747960555e-03 3.816699860352e-03 1.320712500159e-02 2.127315475554e+01 -1.117827395167e+01 3.095752346068e+00 2.146286859496e+04 -3.244483066005e+03 -1.852900519447e+03 5.718750000000e-04 1.958537774335e-06 -2.127424098636e-02 1.117884472671e-02 -3.095910418608e-03
68 1 1.487013346361e-02 5.295707794840e-03 1.011394149282e-03 1.929269579916e+01 1.785695750085e+00 -1.635673474306e+00 -7.161538682035e+03 2.560394498390e+03 5.499874759300e+03 5.718750000000e-04 1.958537774335e-06 -1.929368090556e-02 -1.785786929686e-03 1.635756993604e-03
69 1 6.435173340489e-03 1.050328121122e-02 1.134453301983e-02 -1.146701126897e+00 -2.575177781001e+00 -8.023071252069e+00 2.891978322390e+03 1.731771997170e+04 1.002530693005e+04 5.718750000000e-04 1.958537774335e-06 1.146759678725e-03 2.575309272428e-03 8.023480918966e-03
70 1 2.845095518249e-03 4.912898122139e-03 1.008656038719e-02 -1.211239929208e+01 -2.276382597471e+01 6.987066354166e+00 -1.595188910891e+04 2.381842289937e+04 6.135980320441e+03 5.718750000000e-04 1.958537774335e-06 1.211301776460e-02 2.276498832086e-02 -6.987423121506e-03
71 1 1.101615028669e-03 6.977386069844e-03 1.098329821544e-02 -2.782979087476e+01 1.454277058594e+00 9.559448501483e+00 1.872272409666e+04 -4.787494974949e+04 -1.983544320840e+03 5.718750000000e-04 1.958537774335e-06 2.783121189468e-02 -1.454351315590e-03 -9.559936617502e-03
72 1 1.305604742411e-02 1.101854028994e-02 1.103921155559e-03 5.240963232633e+00 -2.857661201807e+01 3.459240946426e+00 2.004051086174e+04 4.253897454314e+03 -2.913187432354e+02 5.718750000000e-04 1.958537774335e-06 -5.241230842015e-03 2.857807117150e-02 -3.459417579097e-03
73 1 2.500509586853e-03 1.083522789105e-02 1.369219025129e-02 -4.440489458238e+01 -2.557380555750e+01 5.916519634738e+00 2.808434527012e+04 5.781893963421e+03 -4.117887675016e+02 5.718750000000e-04 1.958537774335e-06 4.440716194544e-02 2.557511138431e-02 -5.916821738778e-03
74 1 4.505111385896e-03 1.481747739604e-02 1.113370034911e-02 9.299199531859e-01 -1.498926131403e+01 -4.070750448491e+00 -4.316926317487e+03 3.028610335069e+03 1.410201461801e+04 5.718750000000e-04 1.958537774335e-06 -9.299674359278e-04 1.499002668230e-02 4.070958305514e-03
75 1 6.225561615154e-03 1.196155611088e-03 1.462225401785e-02 1.087646229921e+01 2.258420384683e+01 -2.969586166850e+00 2.899970412554e+04 -1.265392960635e+04 1.173759111682e+04 5.718750000000e-04 1.958537774335e-06 -1.087701766341e-02 -2.258535702127e-02 2.969737797206e-03
76 1 1.072197405440e-02 6.633974679932e-03 5.161973053930e-04 8.700217533252e-01 7.489072491750e+00 4.108915172231e+00 -1.356417958950e+04 1.933529616030e+03 -9.083604786226e+03 5.718750000000e-04 1.958537774335e-06 4.450018687820e-03 -9.646530994367e-04 -5.986160163417e-02
77 1 1.473964414409e-02 1.079816243838e-03 8.820386736047e-03 5.545867613827e-01 2.576431990104e+01 5.398690677075e+00 2.301302242877e+04 6.874626764890e+02 6.792731129518e+03 5.718750000000e-04 1.958537774335e-06 -5.546150791965e-04 -2.576563545573e-02 -5.398966340195e-03
78 1 2.505611009610e-03 6.728824256750e-03 1.026353799013e-02 -1.912079233697e+01 3.618875897235e+01 -5.863829536602e+00 -3.805219305046e+04 2.170651929519e+04 1.138887842734e+03 5.718750000000e-04 1.958537774335e-06 1.912176866579e-02 -3.619060681043e-02 5.864128950227e-03
79 1 7.513639396191e-03 7.430286812322e-03 1.170335538359e-02 -3.529642956048e+01 -2.063630481493e+01 1.179942495263e+01 -4.037855068693e+03 -3.038942556013e+03 4.260961304781e+04 5.718750000000e-04 1.958537774335e-06 3.529823183523e-02 2.063735852749e-02 -1.180002744433e-02
80 1 2.801155812469e-03 1.302593680257e-02 8.568322243785e-04 2.259152254692e+01 -1.127294957015e+00 -1.026850098203e+01 -3.234371765915e+04 -1.220861210336e+04 -1.891630346224e+04 5.718750000000e-04 1.958537774335e-06 -2.259267609506e-02 1.127352517943e-03 1.026902530306e-02
81 1 9.096551155536e-03 2.200362796064e-03 1.254468281610e-02 -1.713532642762e+01 7.782005707422e-01 8.297875164549e-01 -7.524785036321e+03 4.410689087117e+03 2.446494112370e+04 5.718750000000e-04 1.958537774335e-06 1.713620137635e-02 -7.782403065245e-04 -8.298298863237e-04
82 1 1.448559404903e-02 8.669986061254e-03 7.884283637318e-04 -7.439584213697e-01 -2.951382109342e+01 -8.280387032271e+00 -2.271049900778e+04 2.884020675254e+04 1.131920842565e+04 5.718750000000e-04 1.958537774335e-06 7.439964087100e-04 2.951532810179e-02 8.280809837996e-03
83 1 2.282359058125e-03 2.083466479748e-03 1.214522864848e-02 7.753545757866e+00 7.966336576002e+00 1.375630314905e+01 -5.139548596408e+03 -3.274951165626e+04 -5.833142595859e+02 5.718750000000e-04 1.958537774335e-06 2.230208990078e+00 3.294216673165e+00 5.657199831586e+00
84 1 1.314718424756e-02 1.465408427895e-02 1.455990157790e-03 1.885851295641e+01 -2.093371907506e+01 -2.884269595133e+00 3.299618008212e+04 1.007496272700e+04 1.838863669750e+04 5.718750000000e-04 1.958537774335e-06 -1.885947589295e-02 2.093478797392e-02 2.884416869130e-03
85 1 4.682069559780e-03 4.555838546745e-03 1.227378764647e-02 1.321860507871e+01 7.327326153751e+00 4.210690688391e+00 -3.937146924098e+03 -4.590615599971e+04 7.922534921193e+01 5.718750000000e-04 1.958537774335e-06 -1.321928003532e-02 -7.327700295133e-03 -4.210905690917e-03
86 1 8.622804153322e-03 6.594496161029e-03 2.897830917455e-03 -7.238144654496e-01 -2.975539977003e+00 1.274935071698e+00 1.053381003554e+04 -2.383297380524e+03 1.712302607923e+04 5.718750000000e-04 1.958537774335e-06 7.238514242172e-04 2.975691911367e-03 -1.275000171294e-03
87 1 1.444384449427e-02 1.476994931269e-02 1.904778514513e-03 3.963179207805e+00 -4.102661679750e+00 6.426725755200e+00 7.496808440898e+03 7.660993169591e+03 -2.225250040562e+04 5.718750000000e-04 1.958537774335e-06 -3.963381572121e-03 4.102871166196e-03 -6.427053910929e-03
88 1 5.545536011156e-03 7.330435803428e-03 3.586488582670e-03 2.424003261116e+01 -2.642257969982e+00 7.911116993534e+00 2.797420934052e+04 5.873437850975e+03 -1.653370028465e+04 5.718750000000e-04 1.958537774335e-06 -2.424127033405e-02 2.642392886598e-03 -7.911520943922e-03
89 1 1.453674262316e-02 9.554848261258e-04 1.029813256923e-03 -2.169098300723e+01 -6.105511401731e+00 1.052719342536e+01 1.117455096736e+04 -3.918428120753e+04 7.441622757436e+03 5.718750000000e-04 1.958537774335e-06 2.169209057283e-02 6.105823155899e-03 -1.052773095551e-02
90 1 1.185301540963e-02 1.000456284912e-02 2.845795510231e-03 -2.311936468267e+01 8.911672175497e-01 -6.848959691312e+00 -1.580142752274e+04 -1.267621562801e+04 3.282285746688e+04 5.718750000000e-04 1.958537774335e-06 2.312054518301e-02 -8.912127215340e-04 6.849309406773e-03
91 1 6.250419027555e-03 1.046606770517e-02 5.074013895512e-03 -1.392268202793e+01 1.984001011484e+01 6.590216026888e+00 -4.963608593122e+03 7.958520385729e+03 3.096068076500e+03 5.718750000000e-04 1.958537774335e-06 1.392339293548e-02 -1.984102316771e-02 -6.590552530611e-03
92 1 1.951575876827e-04 6.621673975793e-03 1.161328953763e-02 1.236321933180e+01 1.309986433338e+01 -2.046891922784e+01 -2.976311271606e+03 -9.921696335107e+03 -2.276891429340e+04 5.718750000000e-04 1.958537774335e-06 -1.236385061146e-02 -1.310053322695e-02 2.046996439350e-02
93 1 1.487315371366e-02 3.776318285241e-03 1.145311068755e-02 -7.305219665118e+00 -1.709984381165e+01 -8.631081375096e+00 2.050411872743e+04 5.550167469253e+02 -2.138052097874e+04 5.718750000000e-04 1.958537774335e-06 7.305592677719e-03 1.710071694859e-02 8.631522087663e-03
94 1 1.082050729165e-02 1.482725429654e-02 6.654509385326e-04 3.306271955016e+01 -3.370356821096e+00 9.604549985823e-01 -3.790289698735e+03 4.748075992839e+03 -6.621861000007e+03 5.718750000000e-04 1.958537774335e-06 -3.306440776920e-02 3.370528915245e-03 -9.605040404774e-04
95 1 1.169822964939e-02 4.480380907001e-03 1.340191887316e-02 -1.370227691389e+01 -2.910921916434e+00 -9.832181003628e+00 9.025207329349e+03 -1.278392726036e+04 1.680096362576e+04 5.718750000000e-04 1.958537774335e-06 1.370297656732e-02 2.911070551329e-03 9.832683045670e-03
96 1 1.486759272630e-02 1.188722317347e-02 1.483146391116e-02 1.123659389156e+01 3.906854068118e+00 -4.366765591328e-01 1.196963627331e+04 -9.711845985694e+03 -4.377945484305e+03 5.718750000000e-04 1.958537774335e-06 -6.668816172261e-02 2.534891328991e-02 -1.249542791344e-01
97 1 1.480435129956e-03 1.192009717170e-03 4.029807982892e-03 -2.354328719761e+01 -3.539398869499e+00 -3.438961644359e+01 -1.990196628732e+04 -1.267823452045e+04 -9.724570118955e+03 5.718750000000e-04 1.958537774335e-06 2.354448934391e-02 3.539579595122e-03 3.439137241546e-02
98 1 7.114095295898e-03 8.739181005953e-03 8.003222525264e-03 -4.922658475095e+00 2.173689877778e+01 -5.219059654016e+00 2.940115525587e+04 -1.197974269676e+04 -1.262993354982e+04 5.718750000000e-04 1.958537774335e-06 4.922909831485e-03 -2.173800868788e-02 5.219326144977e-03
99 1 9.477092510679e-03 1.192386836272e-03 1.442914068687e-02 9.578142783184e-01 8.963829238900e+00 -2.432897686198e+00 -2.433925540167e+04 1.741394305409e+04 -7.995083762089e+03 5.718750000000e-04 1.958537774335e-06 -9.578631853753e-04 -8.964286941940e-03 2.433021912646e-03
100 1 9.986723350082e-03 3.932265616208e-03 5.274929702602e-04 -1.252502242254e+01 -1.423657654064e+01 3.820653009719e+00 2.492266907652e+04 -2.201415443208e+04 -1.536536193460e+04 5.718750000000e-04 1.958537774335e-06 8.952200789550e-03 1.170213216258e-02 -1.138387561197e-01
101 2 1.464576299528e-02 6.475669925184e-03 7.077123259815e-03 -1.836934306279e+01 -8.674995221207e+00 8.597530594533e-01 -1.296396432812e+04 2.423590956295e+03 6.152033519786e+03 7.625000000000e-04 4.642459909534e-06 1.836973875256e-02 8.675182087270e-03 -8.597715791949e-04
102 2 3.246924439285e-03 2.619074964440e-03 1.053644958418e-03 -1.174128402527e+01 1.168040735565e+01 5.228032384799e+00 -3.675939036349e+03 -6.066633085700e+03 -3.332509393454e+03 7.625000000000e-04 4.642459909534e-06 1.174153694155e-02 -1.168065896060e-02 -5.228145000634e-03
103 2 8.718640310638e-03 2.859899866522e-03 1.410272898358e-02 3.474193703469e+00 5.035502002813e+00 -3.472740907474e+00 9.045870578986e+02 -6.885103263418e+03 -3.155320004643e+03 7.625000000000e-04 4.642459909534e-06 -3.474268540271e-03 -5.035610471395e-03 3.472815712982e-03
104 2 6.177910252225e-03 7.990742203466e-03 1.410914281578e-02 -2.437938425243e+01 -6.852853955944e+00 5.418066367468e+00 1.339777799589e+04 -1.240054388285e+04 -9.699843759831e+03 7.625000000000e-04 4.642459909534e-06 2.566137195818e+01 -3.636343749941e+00 5.667236323176e+00
105 2 3.926022612487e-03 1.396795716531e-02 1.472900424783e-02 -2.258248429575e+01 9.380189800453e+00 5.249114655402e+00 6.801970813335e+03 -6.812884843047e+03 -5.182693816585e+03 7.625000000000e-04 4.642459909534e-06 9.855690933132e-01 -1.528147769585e-01 -2.436004865596e+00
106 2 1.476042375448e-02 5.634817790078e-03 1.315538483570e-02 -1.216030907803e+01 4.130608321271e+00 7.849972475756e-01 -1.702947985701e+04 4.564732137221e+03 -2.673551801844e+02 7.625000000000e-04 4.642459909534e-06 1.216057102043e-02 -4.130697297749e-03 -7.850141570195e-04
107 2 1.469326773733e-02 2.587534166519e-03 5.821476017511e-03 -2.053391360673e+01 -8.780644622248e+00 1.147392040216e+01 -2.822338473793e+03 7.069224324218e+03 3.309776438177e+03 7.625000000000e-04 4.642459909534e-06 2.053435592301e-02 8.780833764081e-03 -1.147416755922e-02
108 2 9.434912498563e-03 4.283112899157e-03 6.081376382531e-03 3.653115598458e+01 1.196912265727e+00 9.698069865045e+00 -4.234180931616e+03 8.043659183799e+03 1.542971656185e+04 7.625000000000e-04 4.642459909534e-06 -3.653194289375e-02 -1.196938048137e-03 -9.698278768923e-03
109 2 1.025143987600e-02 5.634731711777e-03 1.394403609382e-02 1.316460342290e+01 -7.043870420048e+00 -1.396576145354e+00 2.150833061573e+03 -1.112478363753e+04 -8.312944868234e+03 7.625000000000e-04 4.642459909534e-06 -1.316488699857e-02 7.044022150430e-03 1.396606228678e-03
110 2 1.463572144598e-02 6.281408584140e-03 1.449569606458e-02 -5.016669585135e+00 3.668456345255e+00 -1.217452563628e+00 -2.280622059014e+03 1.488176793142e+03 4.555208944583e+03 7.625000000000e-04 4.642459909534e-06 5.016777648053e-03 -3.668535366624e-03 1.217478788492e-03
111 2 4.173143794003e-03 5.797456032145e-03 5.088092084803e-03 -1.169261057775e+01 -2.631001167512e+01 -3.423064287314e+00 -1.236370733203e+04 -5.813265017748e+03 -1.770656906076e+04 7.625000000000e-04 4.642459909534e-06 1.169286244557e-02 2.631057841299e-02 3.423138022749e-03
112 2 1.835355315756e-03 6.797391565890e-03 1.226333483021e-02 7.923722768250e+00 -3.241784098278e+00 -9.579731709435e-01 -7.529991103701e+03 1.988475086039e+04 -1.334577109931e+04 7.625000000000e-04 4.642459909534e-06 -7.923893451327e-03 3.241853928799e-03 9.579938064218e-04
113 2 4.779575355383e-03 7.211143045478e-03 9.745129378292e-04 -2.021239542175e+01 7.989183019239e+00 3.071664625396e+00 9.663618033306e+03 1.023296090805e+04 -1.040862565727e+04 7.625000000000e-04 4.642459909534e-06 2.021283081228e-02 -7.989355112380e-03 -3.071730791413e-03
114 2 1.243718193746e-02 8.617067452894e-03 8.189429628126e-03 -7.720867180486e+00 -2.851117738617e+00 9.443575369715e+00 1.338520359937e+04 -9.912166727898e+03 1.838587382659e+04 7.625000000000e-04 4.642459909534e-06 7.721033493898e-03 2.851179153884e-03 -9.443778791586e-03
115 2 6.973651206516e-03 9.290381283442e-03 6.849335023401e-03 9.163789477100e+00 2.148850330506e+01 1.455492917123e+01 1.262679169814e+04 -8.237087867170e+01 6.952804405662e+03 7.625000000000e-04 4.642459909534e-06 -9.163986872168e-03 -2.148896618394e-02 -1.455524269559e-02
116 2 1.198085285048e-03 8.783498834565e-03 1.717241376836e-03 -9.946399058532e+00 -1.894967491480e+00 1.077887045405e+01 1.254765089190e+04 4.060637307485e+03 -2.354254784041e+03 7.625000000000e-04 4.642459909534e-06 9.946613311612e-03 1.895008310536e-03 -1.077910263920e-02
117 2 1.508407668724e-02 4.373480493024e-03 1.414527794818e-02 -1.090560325997e+01 4.777362724386e+00 1.921602215482e-01 1.225770134118e+02 -5.458482777823e+02 -1.505948693948e+04 7.625000000000e-04 4.642459909534e-06 1.090583817505e-02 -4.777465632450e-03 -1.921643608271e-04
118 2 6.308818122631e-03 3.754649621347e-04 1.367112411575e-02 -4.145199176954e+00 -8.460152941268e+00 5.679560352084e+00 5.867957700998e+02 9.333114892926e+03 1.140562933921e+03 7.625000000000e-04 4.642459909534e-06 4.145288467729e-03 8.460335179464e-03 -5.679682694179e-03
119 2 6.112385492588e-03 2.375745522272e-03 9.834030755303e-03 -2.312750385192e+01 -2.717955584524e+01 -7.448651773673e+00 -4.544130628094e+03 -6.973522093593e+03 5.817461427235e+03 7.625000000000e-04 4.642459909534e-06 2.312800203612e-02 2.718014131376e-02 7.448812223357e-03
120 2 5.319674306592e-03 8.671932754825e-03 3.638280366841e-03 1.460157446417e+00 -6.329716329316e+00 -2.058080381239e+01 8.409483200161e+03 -8.430495609145e+02 -1.405887213618e+03 7.625000000000e-04 4.642459909534e-06 -1.460188899331e-03 6.329852676270e-03 2.058124713872e-02
121 2 9.343696771176e-03 2.919119906874e-03 1.037165021879e-02 1.841841611560e+01 9.794635157071e+00 -4.779414584491e+00 -1.229835472288e+04 -2.929042931259e+03 1.174516026765e+04 7.625000000000e-04 4.642459909534e-06 -1.841881286244e-02 -9.794846141039e-03 4.779517536754e-03
122 2 1.113052211825e-03 1.430816221187e-02 1.205861032952e-02 -1.402051030364e+01 -1.041605794269e+01 -3.800414806867e+00 -6.144774250225e+03 -4.127461112878e+03 -7.727423498098e+03 7.625000000000e-04 4.642459909534e-06 1.402081231620e-02 1.041628231259e-02 3.800496670722e-03
123 2 1.079630229351e-02 3.249503953763e-03 1.250834591849e-02 1.112801261290e+01 -2.372304152556e+01 1.570155670954e+01 -2.173362655964e+03 1.264422778159e+04 -1.356724736253e+02 7.625000000000e-04 4.642459909534e-06 -1.112825231884e-02 2.372355253810e-02 -1.570189493314e-02
124 2 7.246282310018e-03 6.833952444042e-03 9.557060373515e-03 -5.553787237330e+00 2.690226059555e+01 1.033799091335e+00 -1.429849535049e+04 -1.532917999442e+04 -9.471682754169e+03 7.625000000000e-04 4.642459909534e-06 5.553906870175e-03 -2.690284009091e-02 -1.033821360162e-03
125 2 1.384254064676e-02 7.026625806109e-03 1.439249169060e-02 -3.572121957558e+00 -1.780756944800e+00 -8.870367994291e+00 -2.273670631345e+03 4.645563473458e+03 6.035055694865e+02 7.625000000000e-04 4.642459909534e-06 3.572198903810e-03 1.780795303673e-03 8.870559068834e-03
126 2 4.781992298322e-04 7.314434761260e-03 1.086213824814e-02 2.928481340311e+01 1.993382131225e+01 -3.088088961846e+01 -5.279548354231e+02 -1.043779993874e+04 7.603169367225e+03 7.625000000000e-04 4.642459909534e-06 -2.928544422050e-02 -1.993425070208e-02 3.088155481656e-02
127 2 4.017233592105e-03 3.568148879478e-03 1.165756552362e-02 2.043610661576e+01 -3.198135205879e+01 -9.229383994804e+00 2.467663846308e+04 6.288931578308e+03 -2.951272865549e+03 7.625000000000e-04 4.642459909534e-06 -2.043654682520e-02 3.198204096169e-02 9.229582802828e-03
128 2 1.264942322066e-02 9.957767291277e-03 2.498046894367e-03 -1.880632734254e-01 2.272045230735e+00 -8.364092531482e-01 -4.631087008479e+03 -1.323318639115e+04 -2.443810969825e+03 7.625000000000e-04 4.642459909534e-06 1.880673244529e-04 -2.272094172335e-03 8.364272700463e-04
129 2 2.333927400787e-04 5.617206530889e-03 1.480491969336e-02 1.017046079654e+01 -3.253274577347e-01 -3.973104103186e-01 -1.248750884777e+03 -1.576102961193e+04 -5.431238628804e+03 7.625000000000e-04 4.642459909534e-06 7.044488323266e-02 -2.589275902769e-02 -2.713404489018e+00
130 2 6.285589821496e-03 1.124865746147e-02 7.465938532384e-04 2.479092365215e+00 3.881322996320e+00 4.291313623097e+00 -5.015215254397e+03 3.236546637562e+03 -1.871397262576e+04 7.625000000000e-04 4.642459909534e-06 -3.832778515081e-03 -1.117955420513e-02 -4.711306756031e-01
131 2 1.281253102060e-02 3.304212129646e-03 8.156219154119e-03 -6.909394768307e+00 -5.971002976053e+00 -2.951968306430e+01 1.727401799072e+04 -1.465912650257e+04 -2.678645899997e+03 7.625000000000e-04 4.642459909534e-06 6.909543601980e-03 5.971131596046e-03 2.952031894096e-02
132 2 1.229185172017e-02 7.858644886682e-03 1.386360536838e-02 -9.735528913074e+00 -1.632305713455e+00 -5.090015576682e+00 -2.206945124791e+03 1.321473889737e+04 -6.147672107365e+03 7.625000000000e-04 4.642459909534e-06 9.735738623848e-03 1.632340874574e-03 5.090125219529e-03
133 2 6.187508262804e-03 8.591857108697e-03 3.835575116617e-03 1.447952445439e+01 1.374729449807e+01 1.096930534772e+01 -1.106910013301e+04 -1.295818228820e+04 -3.168633273865e+03 7.625000000000e-04 4.642459909534e-06 -1.447983635448e-02 -1.374759062535e-02 -1.096954163498e-02
134 2 1.243724217265e-02 4.051905100852e-03 1.442808334410e-02 -1.704861585478e+01 -1.095971803499e+00 9.979776938494e+00 2.051788937866e+03 2.806422186480e+03 1.179584321825e+04 7.625000000000e-04 4.642459909534e-06 1.704898309507e-02 1.095995411574e-03 -9.979991910559e-03
135 2 7.347843037922e-03 8.457249286807e-03 3.071818153271e-03 -2.786360683572e+00 9.792547695503e+00 1.302971280669e+00 4.722582461730e+03 -1.149784388400e+04 -5.538618824406e+03 7.625000000000e-04 4.642459909534e-06 2.786420703923e-03 -9.792758634506e-03 -1.302999347672e-03
136 2 4.076079445474e-03 1.231524408892e-03 6.013852911902e-03 1.397889353927e+01 1.772324360551e+01 4.036271179918e+00 -3.516730371585e+03 5.062495757317e+03 -1.743129758449e+01 7.625000000000e-04 4.642459909534e-06 -1.397919465538e-02 -1.772362537779e-02 -4.036358124301e-03
137 2 6.606417660933e-03 2.663121806505e-04 1.028996273237e-02 9.923457891799e+00 -1.713325134216e+01 4.325615594863e+00 4.498398362986e+03 -5.186025210566e+03 6.395515719815e+03 7.625000000000e-04 4.642459909534e-06 -9.923671650708e-03 1.713362040556e-02 -4.325708771947e-03
138 2 6.858678948093e-03 5.886156620585e-03 4.226490771595e-03 4.597003192207e-01 -2.215840172446e+00 1.219309560547e+01 1.246197772789e+03 1.670877062091e+04 -6.880847536668e+03 7.625000000000e-04 4.642459909534e-06 -4.597102215188e-04 2.215887903346e-03 -1.219335825412e-02
139 2 6.765007512646e-04 1.078342273157e-02 1.246327707378e-02 -1.059962903527e+01 4.921568290315e+00 1.727674801085e-02 -1.340980035299e+04 1.669063147119e+04 9.702595693579e+03 7.625000000000e-04 4.642459909534e-06 1.059985735943e-02 -4.921674304678e-03 -1.727712016528e-05
140 2 4.750120113196e-03 1.076222534088e-02 8.279458125788e-03 -1.449658164086e+01 -8.589677578825e+00 -7.371573689170e+00 5.243191587114e+03 -1.530034882427e+04 -1.397075141136e+04 7.625000000000e-04 4.642459909534e-06 1.449689390837e-02 8.589862607081e-03 7.371732478532e-03
141 2 4.739091357969e-04 7.161066036227e-03 5.818499713615e-03 -1.797213160687e+00 -1.446672843333e+01 -1.216199210623e+01 -9.367316288827e+03 -7.371287534615e+03 -8.115658828019e+02 7.625000000000e-04 4.642459909534e-06 1.797251874040e-03 1.446704005777e-02 1.216225408489e-02
142 2 5.057063035449e-03 1.138357495588e-02 1.941440011187e-03 3.531578308129e+00 -8.005535985969e+00 6.289389647324e+00 1.099429361609e+04 4.930575930799e+03 -2.137739999934e+04 7.625000000000e-04 4.642459909534e-06 -3.531654381040e-03 8.005708431367e-03 -6.289525125611e-03
143 2 4.450638972933e-03 8.134888236428e-03 4.506413953128e-03 1.021176527329e+01 -1.583363783164e+00 3.895163963278e+00 1.074190191124e+04 5.325383545718e+03 -2.412009084481e+03 7.625000000000e-04 4.642459909534e-06 -1.021198524256e-02 1.583397890036e-03 -3.895247868103e-03
144 2 1.309199529038e-04 4.537480150469e-03 1.385923270009e-03 -7.412504341387e+00 8.596367647571e+00 2.494982142863e+00 -3.452400616731e+03 -1.463634800715e+04 -5.140518268711e+02 7.625000000000e-04 4.642459909534e-06 7.412664012427e-03 -8.596552819937e-03 -2.495035886696e-03
145 2 1.474166513355e-02 1.155120724337e-02 5.073813602269e-03 -9.159205765829e+00 -1.200986384474e+01 2.808624239662e+01 1.857943554323e+04 7.502015789323e+02 8.378173095892e+03 7.625000000000e-04 4.642459909534e-06 9.159403062160e-03 1.201012254643e-02 -2.808684739586e-02
146 2 1.302664763135e-02 9.711365208759e-03 7.561731502662e-03 1.190875904687e+01 -1.482812922879e+01 -5.510607603730e+00 6.440558981653e+03 -1.262673504332e+04 -9.214700905684e+02 7.625000000000e-04 4.642459909534e-06 -1.190901557069e-02 1.482844863809e-02 5.510726306453e-03
147 2 3.103300005103e-03 7.270782740518e-03 1.458459743224e-02 -1.434383113478e+01 -1.144817537414e+01 -6.073135419792e-01 1.768454163193e+03 8.774776033307e+03 1.440607397068e+02 7.625000000000e-04 4.642459909534e-06 1.434414011192e-02 1.144842197663e-02 6.073266239796e-04
148 2 6.743473888076e-03 7.955685349884e-03 3.463393764698e-03 2.908738841699e+01 -1.297897105524e+00 2.315257430396e+01 9.843425318022e+03 5.011616580800e+03 -3.058999891114e+01 7.625000000000e-04 4.642459909534e-06 -2.908801498169e-02 1.297925063225e-03 -2.315307302821e-02
149 2 8.358549361648e-03 7.814250149883e-03 1.044893517288e-02 1.436729997343e+00 6.831593587912e+00 2.316353895675e+00 1.245664370371e+02 -1.220014270185e+04 -1.268669166463e+04 7.625000000000e-04 4.642459909534e-06 -1.436760945611e-03 -6.831740745688e-03 -2.316403791718e-03
150 2 1.013565173238e-02 1.153915687729e-02 1.052646763736e-02 2.007563024108e+01 -4.719828964822e+00 -1.284184086922e+01 -1.793607879311e+04 -1.982508262740e+04 -1.182001817179e+03 7.625000000000e-04 4.642459909534e-06 -2.007606268558e-02 4.719930633565e-03 1.284211749234e-02
151 2 1.324300321325e-02 6.257409016103e-03 9.171563695357e-03 -7.974471083355e+00 2.781287445309e+00 -2.972595737803e+00 -8.296254765258e+03 1.540763381671e+03 1.644722638858e+04 7.625000000000e-04 4.642459909534e-06 7.974642859590e-03 -2.781347356378e-03 2.972659769800e-03
152 2 8.883574269053e-03 5.294464705139e-03 6.002499617656e-03 9.561297717917e+00 -8.063270423204e+00 -1.186427927326e+01 -5.942276488894e+03 -2.004549534378e+03 -2.541057112692e+02 7.625000000000e-04 4.642459909534e-06 -9.561503675617e-03 8.063444112246e-03 1.186453483896e-02
153 2 8.860676063587e-03 1.028547010132e-02 1.499431272635e-03 1.001564479482e+01 -1.891543132803e+01 2.646838735233e+00 1.704295147883e+04 1.104050277843e+04 1.114561897001e+02 7.625000000000e-04 4.642459909534e-06 -1.001586053951e-02 1.891583878096e-02 -2.646895750173e-03
154 2 8.787049245780e-03 6.466609017791e-03 7.120128503741e-04 -9.613846599697e+00 -7.255719011301e+00 -1.104358108014e+00 -1.106140594470e+04 -1.206856620503e+03 1.191823745558e+03 7.625000000000e-04 4.642459909534e-06 1.417850174931e-01 2.465693457025e-01 5.478770980648e-01
155 2 2.722469221875e-03 7.682234938130e-03 8.762862548347e-03 1.177760122850e+01 2.444905490502e+01 1.236759673043e+01 6.388903183394e+03 -3.057206415384e+02 2.313508948602e+03 7.625000000000e-04 4.642459909534e-06 -1.177785492708e-02 -2.444958155645e-02 -1.236786313797e-02
156 2 7.034003725785e-03 1.163531067567e-03 6.524073462768e-04 -1.782396240703e+01 -8.421016625367e+00 -6.120664467455e+00 -9.886237404936e+02 1.699235376754e+04 -1.991522286518e+04 7.625000000000e-04 4.642459909534e-06 7.039034608890e-01 2.119536634385e-01 2.410500514744e+00
157 2 1.148872638507e-02 9.807438859978e-04 6.355986709390e-04 1.799285948680e+01 -2.049359883769e+00 6.518727505512e+00 3.422967687259e+03 2.125365590653e+04 -5.211848709259e+03 7.625000000000e-04 4.642459909534e-06 -6.272057363109e-02 -1.227506038088e-02 8.741140455955e-02
158 2 1.294953399730e-02 1.939147909479e-03 4.517402144477e-03 8.280822456996e+00 -6.026977678600e-01 1.105919839318e+00 -5.149056998524e+03 -4.850974978918e+03 -1.293085013313e+04 7.625000000000e-04 4.642459909534e-06 -8.281000832275e-03 6.027107504331e-04 -1.105943661681e-03
159 2 8.191557052730e-03 7.791713872718e-03 9.328674739880e-04 4.349313012587e+00 -6.127299660765e+00 5.177137518507e+00 9.928634136025e+03 1.110070304039e+04 -7.133425978267e+03 7.625000000000e-04 4.642459909534e-06 -1.162293990395e+01 6.074245667349e+00 6.552913603395e+00
160 2 4.447708059263e-04 6.526183765288e-03 1.402488889414e-02 -7.614515057276e-01 6.364825872868e+00 -3.875762015240e+00 1.712900880695e+03 7.484082841034e+03 -1.588804528236e+04 7.625000000000e-04 4.642459909534e-06 7.614679079782e-04 -6.364962976109e-03 3.875845502132e-03
161 2 9.887293862091e-03 1.032516600671e-04 1.077525934645e-02 1.123357213100e+00 9.193174963774e+00 -1.674342962006e+01 9.793135930789e+03 -1.534335053437e+04 -9.758895093652e+03 7.625000000000e-04 4.642459909534e-06 -1.123381411077e-03 -9.193372991827e-03 1.674379028640e-02
162 2 1.340038316102e-03 1.459664874609e-02 1.066729626518e-02 -5.759801879132e+00 -9.711381171259e+00 1.411633355776e+01 3.255701599288e+03 -8.077490702282e+03 5.374096087234e+03 7.625000000000e-04 4.642459909534e-06 5.759925949691e-03 9.711590361872e-03 -1.411663763443e-02
163 2 1.300180174594e-02 3.357149067398e-03 1.414657690621e-02 3.907082819499e+01 -9.507650658393e+00 -7.284677906034e+00 1.930959903531e+03 1.347100762174e+04 -1.168571032652e+04 7.625000000000e-04 4.642459909534e-06 -3.907166981066e-02 9.507855460494e-03 7.284834823594e-03
164 2 8.105664367547e-03 4.472813083225e-03 1.183699386843e-02 -9.520815370605e+00 -1.016628581361e+01 6.923154159027e+00 -5.789499122092e+03 -2.717861014471e+03 -1.337362681403e+04 7.625000000000e-04 4.642459909534e-06 9.521020456285e-03 1.016650480322e-02 -6.923303289088e-03
165 2 2.001594342135e-03 7.683143306745e-03 4.944251409495e-03 -6.558256785755e+00 -2.713696287878e+01 -2.640944077086e+00 -1.599310030088e+04 2.602687989289e+03 8.413603720107e+03 7.625000000000e-04 4.642459909534e-06 6.558398055646e-03 2.713754742981e-02 2.641000965051e-03
166 2 8.367170172698e-03 5.116395617584e-03 1.043433017566e-02 8.587491486194e+00 1.000535946284e+01 2.136162052583e+01 1.200889036589e+03 1.172437883291e+03 -5.597926947525e+03 7.625000000000e-04 4.642459909534e-06 -8.587676467360e-03 -1.000557498597e-02 -2.136208067155e-02
167 2 1.364730042315e-02 6.101727560294e-03 5.930934060385e-03 9.540276402858e+00 1.181375390228e+01 -1.145392032212e+01 -7.551940866086e+02 -8.848593445988e+03 1.749508778972e+04 7.625000000000e-04 4.642459909534e-06 -9.540481907743e-03 -1.181400837962e-02 1.145416704836e-02
168 2 2.912180144789e-03 1.470852145928e-02 1.929425328209e-03 1.517220312467e+01 -6.616002593764e+00 -6.166716423259e-01 -1.977829162122e+02 8.418489308953e+03 8.942159115002e+03 7.625000000000e-04 4.642459909534e-06 -1.517252994559e-02 6.616145107544e-03 6.166849259070e-04
169 2 8.759283785649e-03 1.399834746305e-02 3.963144880986e-03 -5.256594450243e+00 -3.842359220483e+00 1.085960565418e+01 -5.453063839999e+03 1.288781797778e+04 8.410364440720e+03 7.625000000000e-04 4.642459909534e-06 5.256707681328e-03 3.842441987854e-03 -1.085983957843e-02
170 2 1.427555331531e-02 1.166947115224e-02 1.400757805035e-02 -6.623361091944e+00 -2.527048714203e+01 2.338196727997e+01 -1.050727177495e+04 1.400491078605e+03 -6.296430706217e+03 7.625000000000e-04 4.642459909534e-06 6.623503764232e-03 2.527103148775e-02 -2.338247094552e-02
171 2 3.019878148370e-03 1.198570824449e-02 7.273281115716e-03 -1.168113328916e+01 -2.143060894533e+01 -4.251745362858e+00 7.346686554309e+03 4.176867014233e+03 -3.090689878281e+03 7.625000000000e-04 4.642459909534e-06 1.168138490975e-02 2.143107057712e-02 4.251836948720e-03
172 2 2.823410607702e-03 1.492326138180e-02 3.609492684308e-03 -1.294196067069e+01 1.610910240639e+01 -1.062653933679e+01 8.521737303493e+03 1.851294688484e+04 -1.219422544476e+04 7.625000000000e-04 4.642459909534e-06 1.294223945047e-02 -1.610944940883e-02 1.062676824061e-02
173 2 3.275350153512e-03 1.401801046182e-02 1.383639590196e-02 1.131959400604e+01 -8.172640749241e+00 -7.907354313747e+00 3.030311170468e+03 -2.391334935929e+04 -1.245512606338e+04 7.625000000000e-04 4.642459909534e-06 -1.131983783879e-02 8.172816794203e-03 7.907524644236e-03
174 2 6.858470661768e-03 6.162322418728e-03 6.626068674482e-03 2.045474721295e+01 4.361821159377e+00 -1.116783028245e+01 1.376239664975e+04 9.091883325455e+03 9.818580443111e+02 7.625000000000e-04 4.642459909534e-06 -2.045518782393e-02 -4.361915116357e-03 1.116807084610e-02
175 2 3.192480558392e-03 5.942260902865e-03 5.346761067743e-03 -1.183481118421e+00 -2.227632032039e+01 -3.711165668439e+00 -2.568187578618e+03 -7.524763511888e+03 -1.561267466717e+03 7.625000000000e-04 4.642459909534e-06 1.183506611514e-03 2.227680016945e-02 3.711245609799e-03
176 2 5.184950856320e-03 1.418483445072e-02 1.332423162119e-02 -1.026614438340e+01 1.598664571269e+01 -1.318093846110e+01 1.139870347812e+04 2.714723513778e+04 -1.486451479100e+04 7.625000000000e-04 4.642459909534e-06 1.026636552404e-02 -1.598699007733e-02 1.318122238864e-02
177 2 1.129569514112e-02 7.292465013675e-03 1.043794543113e-02 -4.498585955229e+00 1.844597544937e+01 -4.840267496481e+00 1.590096000811e+04 -1.087578771605e+04 -4.484314452425e+03 7.625000000000e-04 4.642459909534e-06 4.498682858227e-03 -1.844637278986e-02 4.840371759563e-03
178 2 2.234633814052e-04 5.476093661499e-04 1.377646750977e-02 -3.308459967937e+00 6.044385382002e+00 -4.508403649669e+00 7.531886735497e+03 3.701777667995e+03 -4.251832644340e+03 7.625000000000e-04 4.642459909534e-06 3.308531234707e-03 -6.044515582708e-03 4.508500764149e-03
179 2 1.397109663533e-02 6.104023757847e-03 1.364786694560e-02 -2.323964218881e+01 -1.245843060614e+01 -1.309602675596e+00 -5.696038863496e+03 -1.979658550013e+04 4.556781673914e+03 7.625000000000e-04 4.642459909534e-06 2.324014278856e-02 1.245869897031e-02 1.309630885445e-03
180 2 5.566312081408e-03 4.738374621501e-03 1.161515329771e-02 -2.439132103823e+01 -9.146765932682e+00 -1.080965037725e+01 2.857406986925e+03 1.007887287860e+03 -2.342482040958e+03 7.625000000000e-04 4.642459909534e-06 2.439184644603e-02 9.146962961050e-03 1.080988322543e-02
181 2 3.529402689779e-03 8.501909552512e-03 1.009325773359e-02 -4.774261133930e+00 8.666586790525e+00 -1.948981287470e+01 5.112424806623e+03 1.737163926499e+03 1.157272768960e+04 7.625000000000e-04 4.642459909534e-06 4.774363975184e-03 -8.666773475465e-03 1.949023270025e-02
182 2 5.147713553581e-03 5.333267787185e-03 9.487529696265e-04 1.563646248347e+01 -9.187319161169e+00 1.161437815554e+00 -7.927931294697e+03 7.383567579886e+03 6.402648533716e+03 7.625000000000e-04 4.642459909534e-06 -1.563679930488e-02 9.187517063084e-03 -1.161462833817e-03
183 2 9.106364414479e-03 1.752928086971e-04 1.137841318238e-02 -1.302165095179e+01 -1.656516687086e+01 1.099012964234e+00 -1.948959520915e+04 -2.801873081118e+02 -3.939389149494e+03 7.625000000000e-04 4.642459909534e-06 1.302193144815e-02 1.656552369728e-02 -1.099036637818e-03
184 2 5.869329926049e-03 5.564492357152e-04 6.725871848169e-03 -9.016742619280e+00 6.145493960821e+00 8.011027126114e+00 2.327367346007e+04 -1.258930250817e+04 -1.089121174023e+04 7.625000000000e-04 4.642459909534e-06 9.016936846845e-03 -6.145626339484e-03 -8.011199689794e-03
185 2 1.160475352416e-02 1.367687615787e-02 2.774322868885e-03 4.084325797100e+01 -9.426684016980e+00 -9.548133049984e+00 1.946742357119e+04 -2.266201640745e+03 -1.544017284245e+04 7.625000000000e-04 4.642459909534e-06 -4.084413776617e-02 9.426887074998e-03 9.548338724107e-03
186 2 1.064164794358e-02 1.203233646054e-02 7.120127465896e-03 9.694475789859e-01 -1.865018171272e+01 8.891251406572e+00 9.969307150118e+03 6.446366553166e+02 9.878073944725e+03 7.625000000000e-04 4.642459909534e-06 -9.694684616318e-04 1.865058345197e-02 -8.891442930960e-03
187 2 6.349370791288e-03 5.042599809900e-03 1.414905165684e-02 -2.869145160171e+01 -3.085901736251e+01 1.427425235424e+01 -1.601653137328e+03 -7.309772417138e+03 -7.128997179618e+03 7.625000000000e-04 4.642459909534e-06 2.869206963762e-02 3.085968208946e-02 -1.427455983261e-02
188 2 4.901181804238e-03 1.102532056008e-02 1.377849291826e-02 4.034542051906e+00 -1.545509794850e+01 -2.388192151114e+00 -5.336695368668e+03 3.655491827512e+03 1.570034716405e+03 7.625000000000e-04 4.642459909534e-06 -4.034628959042e-03 1.545543086319e-02 2.388243594608e-03
189 2 1.157860952068e-02 7.573161542373e-03 1.395801910381e-02 1.558229131237e+00 -2.391190427375e+00 -9.697853641443e+00 -9.189394160475e+03 -1.438614998927e+04 1.587929078710e+04 7.625000000000e-04 4.642459909534e-06 -1.558262696690e-03 2.391241935454e-03 9.698062540663e-03
190 2 9.998051220139e-03 1.094510164769e-02 4.251113421812e-03 1.161772621233e+01 1.778186087521e+01 -2.339728382616e+00 4.081823981880e+03 -6.571996215420e+01 -1.933082458538e+03 7.625000000000e-04 4.642459909534e-06 -1.161797646708e-02 -1.778224391016e-02 2.339778782164e-03
191 2 1.045909571407e-02 1.342064060790e-02 5.466869090166e-03 -5.956504121679e+00 1.414291634169e+01 9.752873212140e+00 -2.436123887144e+04 -5.009269679201e+03 -2.039192388104e+03 7.625000000000e-04 4.642459909534e-06 5.956632429355e-03 -1.414322099098e-02 -9.753083296524e-03
192 2 6.440313674521e-03 1.262564285193e-02 4.869574541234e-03 8.476896585147e+00 -2.963552935009e+00 3.078609431294e+00 -7.234188785469e+02 5.296008940753e+03 7.082649103602e+02 7.625000000000e-04 4.642459909534e-06 -8.477079184013e-03 2.963616772217e-03 -3.078675746907e-03
193 2 9.788258807429e-03 1.344111048440e-02 1.311239666651e-02 8.001117750263e+00 -6.954499800281e-01 1.213409431104e+01 1.665230607107e+03 1.122135560933e+04 -4.325889668161e+03 7.625000000000e-04 4.642459909534e-06 -8.001290100488e-03 6.954649605551e-04 -1.213435568876e-02
194 2 1.622701953645e-03 1.478939954675e-02 2.350657740800e-03 -2.588790656654e+01 -6.869322041732e+00 1.284032822713e+01 1.289043936472e+04 -9.752785155843e+03 -3.332525216912e+03 7.625000000000e-04 4.642459909534e-06 2.588846421195e-02 6.869470012207e-03 -1.284060481766e-02
195 2 1.265798312138e-02 1.479469412141e-02 6.953842916449e-04 1.253317955718e+01 -1.749984671499e+01 1.325941318571e+00 1.298471844702e+04 9.701494860074e+03 1.174990322580e+04 7.625000000000e-04 4.642459909534e-06 -1.028830489916e-01 1.512372891096e-01 3.214659308458e-01
196 2 1.444278075902e-02 1.361893339536e-02 1.282080167070e-02 -2.645837852127e+01 -5.992418226685e+00 1.029867375496e+01 -5.208974415620e+02 1.073641588136e+04 -3.342739576721e+03 7.625000000000e-04 4.642459909534e-06 2.645894845507e-02 5.992547307979e-03 -1.029889559631e-02
197 2 1.233173184157e-02 1.125272526806e-02 1.432194153494e-02 -1.534401606244e+01 7.431242440201e+00 7.852572671223e+00 -5.229936101968e+03 2.061936639002e+03 -5.730751970955e+03 7.625000000000e-04 4.642459909534e-06 1.534434658434e-02 -7.431402514874e-03 -7.852741821673e-03
198 2 6.375869808102e-03 6.850922681291e-03 3.275963109157e-03 -1.644587402876e+01 2.268822163428e+01 -6.530117394563e+00 -5.772790019419e+03 -1.192063023415e+04 6.416231430425e+03 7.625000000000e-04 4.642459909534e-06 1.644622828552e-02 -2.268871035601e-02 6.530258058310e-03
199 2 2.127617530728e-03 1.198287762197e-02 9.306630508716e-03 9.370708396198e+00 -9.946105242350e+00 2.005940095492e-01 -7.374632891513e+03 7.638393073689e+03 -8.660763361219e+02 7.625000000000e-04 4.642459909534e-06 -9.370910248458e-03 9.946319489100e-03 -2.005983304984e-04
200 2 4.596625697218e-04 4.637337688878e-03 1.014539355108e-02 -1.489956400199e+01 -1.067292073931e+01 2.174335388551e+01 -6.112921175527e+03 -4.749065655905e+03 2.344029102319e+03 7.625000000000e-04 4.642459909534e-06 -7.032335350484e+00 -3.716000671499e+00 -1.286517821737e+01
201 2 1.200841024958e-02 1.398784190391e-02 1.354339853535e-02 1.036730954938e+01 2.831351039598e+01 2.148549195426e+01 -1.621593589960e+04 6.545402549908e+03 -1.480447415114e+04 7.625000000000e-04 4.642459909534e-06 -1.036753286920e-02 -2.831412029075e-02 -2.148595476827e-02
202 2 2.383725478110e-03 1.091244022439e-03 1.679203379389e-03 1.498064764510e+01 5.420042374585e-02 -1.130619173973e+01 -1.811221510536e+04 -9.446789668086e+03 6.193930979254e+03 7.625000000000e-04 4.642459909534e-06 -1.498097033977e-02 -5.420159126463e-05 1.130643528379e-02
203 2 8.464788045175e-03 3.505310076328e-03 1.305744438143e-03 -1.220456512234e+01 1.083146989739e+01 4.452663992995e+00 -1.231832637836e+04 -1.456909628056e+04 1.393110574899e+04 7.625000000000e-04 4.642459909534e-06 1.220482801805e-02 -1.083170321558e-02 -4.452759906799e-03
204 2 1.408515333392e-02 2.310052966471e-03 1.413234828083e-02 5.200911977124e+00 -7.037143680367e+00 -2.838467048237e+00 1.494720466283e+04 -6.446010617086e+02 2.019436117727e+03 7.625000000000e-04 4.642459909534e-06 -5.201024008764e-03 7.037295265849e-03 2.838528190999e-03
205 2 4.593254564466e-03 2.669200879624e-03 1.101906119011e-02 -6.061404760700e+00 -2.030611072122e+01 4.305549470081e+00 8.908188094861e+03 6.785860550033e+03 1.480333882324e+04 7.625000000000e-04 4.642459909534e-06 6.061535328016e-03 2.030654813045e-02 -4.305642214926e-03
206 2 5.942746612824e-03 7.536231084941e-03 1.377266324946e-02 1.439653480303e+01 -1.660907324875e+00 1.104700571948e+01 2.692211926458e+04 -1.809856368941e+03 -7.500684443818e+03 7.625000000000e-04 4.642459909534e-06 -1.439684491546e-02 1.660943102095e-03 -1.104724368047e-02
207 2 1.111498560247e-02 1.284428088476e-02 3.213488209731e-03 -1.805528523894e+01 -5.646843302169e+00 -5.476583226354e+00 -7.994169906111e+03 -2.404454504604e+03 -1.503936466281e+04 7.625000000000e-04 4.642459909534e-06 1.805567416366e-02 5.646964939513e-03 5.476701196165e-03
208 2 1.025641917121e-02 1.064599769350e-02 1.690347902016e-03 -1.516456337630e+01 -4.679298971569e+00 3.620701893956e+00 -1.405382015513e+03 1.886397208937e+03 -9.134307845101e+03 7.625000000000e-04 4.642459909534e-06 1.516489003265e-02 4.679399767265e-03 -3.620779886657e-03
209 2 9.930647873034e-03 8.060494804296e-03 1.457304315987e-02 2.394654312481e+01 2.611515699626e+00 -1.756785280556e+00 1.954280314292e+03 -3.865974718597e+03 -6.437946576511e+03 7.625000000000e-04 4.642459909534e-06 -2.394705895176e-02 -2.611571953681e-03 1.756823123061e-03
210 2 1.438747122621e-02 3.810978928597e-03 9.851987632712e-03 2.888817887933e+00 1.274822192729e+01 8.786813949024e+00 -1.697508943096e+03 -1.068490173925e+04 4.194507081697e+03 7.625000000000e-04 4.642459909534e-06 -2.888880115291e-03 -1.274849653379e-02 -8.787003223749e-03
211 2 6.229102450993e-03 1.149043035689e-02 1.109007630386e-02 -1.928109512679e+01 3.487109543374e+00 8.040475591191e+00 1.082386274233e+04 -9.970424009530e+03 -1.812915755516e+03 7.625000000000e-04 4.642459909534e-06 1.928151045640e-02 -3.487184658393e-03 -8.040648789214e-03
212 2 7.552423059463e-03 3.210747999839e-03 4.535700489726e-03 -1.160521993279e+01 -1.163476137951e+01 2.658863154315e+00 -3.738680935524e+03 6.455555734509e+03 -3.564044426772e+03 7.625000000000e-04 4.642459909534e-06 1.160546991815e-02 1.163501200121e-02 -2.658920428271e-03
213 2 6.953256706202e-03 3.631629536533e-03 1.041761780462e-02 -2.917175884823e+01 -1.348714503330e+01 -1.111340553765e+01 -4.022060397343e+03 3.158812353627e+03 -3.065396484302e+03 7.625000000000e-04 4.642459909534e-06 2.917238723033e-02 1.348743555676e-02 1.111364492895e-02
214 2 9.311871641246e-03 3.417566511381e-03 2.316453667948e-03 -1.973948753806e+01 -6.342504869580e+00 -4.481852401848e+00 4.514066945961e+03 -4.557082559194e+03 9.153231045343e+03 7.625000000000e-04 4.642459909534e-06 1.973991274179e-02 6.342641492009e-03 4.481948944393e-03
215 2 8.316620725726e-03 8.458906313468e-03 4.392467661998e-03 -4.288272255263e+00 -1.673889026869e+01 -1.772933911563e-01 1.904646219653e+03 -1.321826383576e+04 1.716884770457e+03 7.625000000000e-04 4.642459909534e-06 4.288364627942e-03 1.673925083725e-02 1.772972101922e-04
216 2 1.006382687401e-02 7.011359445967e-03 1.403234399926e-02 1.041421649449e+01 -1.305872868633e+01 -3.822947333218e+00 -2.432159015696e+04 2.647958079973e+04 -1.826872369680e+04 7.625000000000e-04 4.642459909534e-06 -1.041444082472e-02 1.305900998138e-02 3.823029682441e-03
217 2 2.591284388992e-04 1.169064123697e-02 3.771179109479e-03 1.561678455011e+01 -6.781509863644e+00 2.307738304969e+00 -2.539174520081e+02 -1.485692440807e+04 -1.100724840433e+04 7.625000000000e-04 4.642459909534e-06 -1.561712094765e-02 6.781655942578e-03 -2.307788015425e-03
218 2 1.408129669726e-03 5.409695644773e-03 1.135122958775e-02 1.278393296894e+01 1.686687236712e+01 1.184792117374e+01 -5.563056156887e+03 -1.501629602713e+04 1.482094673593e+04 7.625000000000e-04 4.642459909534e-06 -1.278420834468e-02 -1.686723569251e-02 -1.184817638706e-02
219 2 2.705447669820e-03 4.869762655511e-03 3.648775543716e-03 -1.383497105275e+01 1.647884820928e+01 -1.191560242561e+01 -9.494940964044e+03 -5.786065741460e+03 2.192504519827e+04 7.625000000000e-04 4.642459909534e-06 1.383526906866e-02 -1.647920317633e-02 1.191585909685e-02
220 2 7.664016037364e-03 1.378057487781e-02 4.310260477257e-03 1.424593308180e+01 4.023312703302e+00 7.284412242772e+00 8.755954245981e+03 1.024647547664e+04 -1.344016236706e+03 7.625000000000e-04 4.642459909534e-06 -1.424623995015e-02 -4.023399368550e-03 -7.284569154609e-03
221 2 2.001185100363e-03 2.282309728421e-03 1.024410918158e-02 6.451854031676e+00 1.450226066436e+01 -7.889155515664e+00 -6.274603054490e+03 -3.252002295407e+03 -3.035670422793e+03 7.625000000000e-04 4.642459909534e-06 -6.451993009569e-03 -1.450257305420e-02 7.889325454137e-03
222 2 8.499878765632e-03 3.355479428588e-03 7.344401053474e-03 1.036560224632e-01 -1.546033749462e+01 -1.618014948275e+01 -8.856790694201e+03 -7.549493108750e+03 -7.471567427092e+03 7.625000000000e-04 4.642459909534e-06 -1.036582552936e-04 1.546067052218e-02 1.618049801561e-02
223 2 7.280802340943e-03 9.184243167899e-03 1.342491748466e-02 -9.394990752963e+00 1.491711083527e+01 -2.054673815469e+00 2.992651867354e+03 2.932441819474e+03 -1.719579000626e+03 7.625000000000e-04 4.642459909534e-06 9.395193128283e-03 -1.491743216130e-02 2.054718074722e-03
224 2 5.729216126542e-04 1.124972496909e-02 1.418557371612e-02 9.498284190861e+00 -2.655629005443e+00 -4.928613718526e+00 -3.785879129184e+03 -1.276673349525e+04 1.145630829379e+04 7.625000000000e-04 4.642459909534e-06 -9.498488791202e-03 2.655686209732e-03 4.928719884653e-03
225 2 1.483565963516e-02 1.507344085431e-03 1.312144707462e-02 2.165191780660e+01 -1.501243971050e+01 5.879068726961e-01 2.879199210308e+03 -8.089610128089e+03 2.436629508460e+04 7.625000000000e-04 4.642459909534e-06 -2.165238420555e-02 1.501276308999e-02 -5.879195366619e-04
226 2 1.188525494045e-02 6.238126311548e-03 1.375119647960e-02 -2.886876812217e+01 1.173839462664e+01 7.171751286070e-01 -1.364739725916e+04 2.425708335531e+04 -1.915118790458e+03 7.625000000000e-04 4.642459909534e-06 2.886938997762e-02 -1.173864748068e-02 -7.171905771104e-04
227 2 1.062215448744e-02 1.504622229740e-02 1.276743760686e-02 8.900235070539e+00 -3.601835461624e+01 -8.674397300415e+00 5.424848263469e+03 -1.460192633188e+04 -1.705092583764e+04 7.625000000000e-04 4.642459909534e-06 -8.900426788442e-03 3.601913047928e-02 8.674584153599e-03
228 2 5.150143565542e-03 6.308207591335e-03 2.699357562690e-03 -6.807730944711e+00 8.404380177887e+00 -1.377987833776e+01 -5.436877681096e+03 -8.720492892840e+03 3.214780240581e+03 7.625000000000e-04 4.642459909534e-06 6.807877588468e-03 -8.404561214695e-03 1.378017516693e-02
229 2 1.100406845996e-02 1.223777549371e-02 1.349352896356e-02 8.093136632838e+00 2.635624554119e+01 -6.999435075227e+00 -7.401893229611e+03 2.952118112919e+03 -1.540380538948e+04 7.625000000000e-04 4.642459909534e-06 -8.093310965221e-03 -2.635681327497e-02 6.999585848437e-03
230 2 1.148706235087e-02 2.738304104993e-03 1.431197099070e-02 7.059945953736e+00 -8.334921080848e+00 -4.318564070928e+00 -1.112689264069e+04 -9.562844480170e+03 6.815300096607e+03 7.625000000000e-04 4.642459909534e-06 -7.060098030397e-03 8.335100621453e-03 4.318657096117e-03
231 2 1.295814778743e-02 1.511850769555e-04 9.642345627658e-03 -3.347900350705e+00 3.933383598509e-01 8.378567833902e+00 -8.827198625880e+02 1.448625359817e+04 9.789356848225e+02 7.625000000000e-04 4.642459909534e-06 3.347972467052e-03 -3.933468326615e-04 -8.378748314692e-03
232 2 1.455653784685e-02 4.532404086887e-04 4.267824229694e-03 -8.292419409115e+00 1.224791495711e+01 1.280659232694e+01 1.966855238246e+03 2.432288575587e+03 1.077796463065e+04 7.625000000000e-04 4.642459909534e-06 8.292598034201e-03 -1.224817878661e-02 -1.280686819078e-02
233 2 3.930289863941e-03 1.100502040951e-03 6.923849264945e-04 1.630246892832e+00 -1.956829281019e+01 1.413118313913e+00 1.071690385205e+04 1.927920738603e+03 -2.612115400569e+03 7.625000000000e-04 4.642459909534e-06 -3.976710533849e-03 1.907547609826e-01 3.409911052892e-01
234 2 9.391513494734e-03 4.182820155133e-03 1.466609109379e-02 2.579197040580e+01 -1.594812773857e+01 5.997453561721e+00 8.492487141806e+03 -1.089985189265e+04 -3.896755524843e+03 7.625000000000e-04 4.642459909534e-06 1.190328095082e+01 -5.258845979011e+00 2.680046339665e+00
235 2 3.261651011642e-03 1.041345039267e-02 1.187052108065e-02 1.007940523028e+01 -4.752044595670e+00 1.425410642693e-02 -1.135302028242e+04 1.563517109016e+04 4.971114254398e+03 7.625000000000e-04 4.642459909534e-06 -1.007962234842e-02 4.752146958363e-03 -1.425441347134e-05
236 2 1.320665576925e-02 1.000759489516e-02 1.408382312826e-03 -9.848250462099e-01 -1.087043466526e+01 2.844691092852e+00 2.131976647426e+04 -8.088099607130e+03 -1.349577303754e+04 7.625000000000e-04 4.642459909534e-06 9.848462600982e-04 1.087066882277e-02 -2.844752369684e-03
237 2 1.501114752845e-02 1.319592339566e-02 7.837825966849e-03 1.801010340023e+01 -2.780505049176e+00 -1.415959482609e+01 -1.062111301638e+04 1.697613776287e+03 -1.722732201418e+04 7.625000000000e-04 4.642459909534e-06 -1.801049135170e-02 2.780564943391e-03 1.415989983464e-02
238 2 7.330596032052e-03 5.481355556066e-03 1.188802946674e-02 -2.077384460276e+01 8.431081364160e+00 -1.045184733355e+01 -6.995011936228e+03 3.274448902171e+03 5.909017341609e+03 7.625000000000e-04 4.642459909534e-06 2.077429208734e-02 -8.431262976132e-03 1.045207247437e-02
239 2 1.868355398013e-03 1.081783241051e-02 1.014632037034e-02 -1.557589892819e+01 3.414447792741e+00 -2.666292438660e+00 1.195745180458e+04 1.045879187054e+04 -3.161208742861e+03 7.625000000000e-04 4.642459909534e-06 1.557623444502e-02 -3.414521342570e-03 2.666349872648e-03
240 2 1.163383451966e-02 6.732395239604e-03 6.373710444207e-03 1.334871140069e+00 -1.529148667422e+00 1.452003542623e+00 -5.350827626677e+03 8.876330549122e+03 -7.052767124413e+00 7.625000000000e-04 4.642459909534e-06 -1.334899894219e-03 1.529181606459e-03 -1.452034819895e-03
241 2 2.651343657889e-03 1.501584446985e-02 1.358847469455e-02 1.229288667415e+00 -2.064126460897e+01 1.813943731378e+01 1.031282726656e+04 1.676927094646e+04 -1.207172945091e+04 7.625000000000e-04 4.642459909534e-06 -1.229315147238e-03 2.064170923767e-02 -1.813982805120e-02
242 2 1.472138377771e-02 4.184175591937e-03 4.928684812583e-03 4.547049707988e+00 6.271786693853e+00 -3.518557725197e+00 2.406844346870e+03 1.278537754560e+04 -4.901078927179e+03 7.625000000000e-04 4.642459909534e-06 -4.547147654933e-03 -6.271921792958e-03 3.518633517635e-03
243 2 1.380869794454e-02 1.275110777385e-02 1.783542262880e-03 -2.861731976008e+01 -2.914139704798e+01 -4.386184237187e+00 -1.201048734427e+04 3.683961311017e+03 9.625589220395e+03 7.625000000000e-04 4.642459909534e-06 2.861793619914e-02 2.914202477606e-02 4.386278718966e-03
244 2 2.648678624324e-03 2.707430206971e-04 4.709863251395e-03 1.307146415271e+01 1.099279189474e+01 2.315324270705e+01 1.694466974511e+04 6.323955515324e+03 1.709460359786e+04 7.625000000000e-04 4.642459909534e-06 5.789492705857e+00 -1.177045629511e+01 3.281646275047e+00
245 2 1.258546461817e-02 5.037599463373e-03 2.330784793100e-03 -3.782085500558e+00 5.231939924097e+00 -5.156770589071e+00 -8.491686514687e+03 -6.702053162809e+03 8.729086169108e+02 7.625000000000e-04 4.642459909534e-06 3.782166969586e-03 -5.232052624103e-03 5.156881669872e-03
246 2 1.019443417075e-03 1.305450433957e-03 1.997772148259e-03 -2.644528454367e+00 -4.370014268551e+00 1.366593966196e+01 5.354645514230e+03 1.105834000977e+04 -1.239598069138e+04 7.625000000000e-04 4.642459909534e-06 2.644585419542e-03 4.370108402017e-03 -1.366623403680e-02
247 2 1.064651217153e-02 6.795778971267e-04 9.079277447732e-03 -4.736633322195e+00 1.308818780110e+01 -4.956626462859e+00 -6.934120985702e+03 4.092985054295e+03 4.277099020268e+03 7.625000000000e-04 4.642459909534e-06 4.736735352917e-03 -1.308846973073e-02 4.956733232402e-03
248 2 8.401076246041e-03 4.886413800879e-03 1.244311347416e-02 1.815249397482e+01 9.268019737586e+00 -1.001451358744e+00 -1.228015701300e+04 -1.355354880686e+04 1.073099008884e+03 7.625000000000e-04 4.642459909534e-06 -1.815288499349e-02 -9.268219377853e-03 1.001472930775e-03
249 2 1.529943164375e-02 8.511085875355e-03 8.743341197741e-03 -8.096126693650e+00 6.536761806697e+00 8.942665918098e+00 8.448607904010e+03 -2.528124794344e+03 -6.785607171982e+03 7.625000000000e-04 4.642459909534e-06 8.096301090441e-03 -6.536902613570e-03 -8.942858549994e-03
250 2 5.592337702162e-03 1.520311375695e-02 6.664527174899e-03 3.112424684158e+01 -7.777013923991e+00 1.598974648207e+01 7.245993720092e+03 -9.970160005104e+03 -2.423138302685e+04 7.625000000000e-04 4.642459909534e-06 -3.112491728178e-02 7.777181446847e-03 -1.599009091350e-02
251 2 1.432649962908e-02 2.624583543816e-03 1.149202692668e-02 3.113360621717e+01 1.390205178798e+01 1.552690207339e+00 1.741402286554e+04 5.815585165318e+03 1.076755659742e+04 7.625000000000e-04 4.642459909534e-06 -3.113427685898e-02 -1.390235124886e-02 -1.552723653479e-03
252 2 1.289062224688e-02 8.335518235760e-03 4.503904362399e-03 8.576965507937e+00 -1.376689359812e+01 1.761589268895e+01 -2.237903249236e+03 8.965551786123e+03 -9.210773246892e+03 7.625000000000e-04 4.642459909534e-06 -8.577150262366e-03 1.376719014759e-02 -1.761627214882e-02
253 2 6.125270995873e-04 1.151661484166e-02 1.218774367208e-02 2.053280286966e+01 -1.388792055478e+00 -9.931253399540e+00 3.591728686630e+03 -1.904824203976e+03 -7.863500926236e+02 7.625000000000e-04 4.642459909534e-06 -2.053324516201e-02 1.388821971126e-03 9.931467326370e-03
254 2 3.943726432710e-03 5.031376964971e-03 1.370020987458e-02 1.527328955115e+00 1.503925272715e-01 -8.948197845494e+00 1.775063633750e+04 4.901381093380e+03 -2.715706843011e+03 7.625000000000e-04 4.642459909534e-06 -1.527361854954e-03 -1.503957668421e-04 8.948390596552e-03
255 2 1.447270932028e-02 4.508035610777e-03 1.049945649197e-03 -1.087570938414e+01 -1.249929927912e+00 1.709279012823e+00 4.518928692852e+03 -3.985028568744e+03 -7.105433670512e+03 7.625000000000e-04 4.642459909534e-06 1.087594365528e-02 1.249956852364e-03 -1.709315832007e-03
256 2 4.985935390231e-03 1.362901174221e-02 5.632484505940e-03 -4.500794772438e+00 3.287596168352e+01 -2.803591164189e+01 -2.760773523287e+03 -1.622738770313e+03 -2.014357912665e+03 7.625000000000e-04 4.642459909534e-06 4.500891723016e-03 -3.287666985700e-02 2.803651555697e-02
257 2 1.270674130298e-02 3.543339029061e-03 5.124119706775e-03 -7.795802056762e+00 4.205368736504e+00 -1.282021850191e+00 1.997226850797e+04 8.746171097590e+03 3.818646193157e+03 7.625000000000e-04 4.642459909534e-06 7.795969984330e-03 -4.205459323379e-03 1.282049465927e-03
258 2 8.822084410747e-03 9.903556898025e-03 7.385248956710e-04 -1.471405739264e+01 4.343831732724e-01 1.362491668550e+00 -4.046307429734e+03 -1.052663717656e+04 -2.289010134696e+03 7.625000000000e-04 4.642459909534e-06 4.621459807955e-02 1.212988000498e-02 -6.918950796774e-02
259 2 2.401265886609e-03 6.598908076765e-03 1.349533602289e-02 -1.535489312518e+01 -8.757556865479e+00 -7.300222162227e+00 -1.542423130065e+04 -5.307824196461e+03 1.671187191101e+04 7.625000000000e-04 4.642459909534e-06 1.535522388138e-02 8.757745509983e-03 7.300379414622e-03
260 2 1.640796237136e-03 1.522725464497e-03 6.166853236474e-03 -6.136209663224e+00 4.372036725763e+00 -5.544373959518e+00 -1.527044866573e+04 1.163914584774e+04 -1.160077681186e+04 7.625000000000e-04 4.642459909534e-06 6.136341841895e-03 -4.372130902794e-03 5.544493389594e-03
261 2 4.582841291615e-03 1.313428870879e-02 8.871220915505e-03 -4.437011509860e+00 -3.020409207800e-01 -4.944108771605e+00 3.099929227962e+03 7.413716127078e+03 2.449325663567e+03 7.625000000000e-04 4.642459909534e-06 4.437107086498e-03 3.020474269735e-04 4.944215271508e-03
262 2 9.100327777393e-03 1.888142570417e-03 1.226493454669e-03 -5.907474926905e+00 2.260672276752e+01 -9.030132560702e+00 -1.116098703781e+04 8.289949170450e+03 -4.240674614807e+03 7.625000000000e-04 4.642459909534e-06 5.907602178455e-03 -2.260720973370e-02 9.030327076696e-03
263 2 5.953602891469e-04 6.871046007810e-03 1.246424131858e-02 -1.572443234850e+00 -8.401112574265e+00 -6.033407765205e+00 -9.403474175595e+03 2.478025766007e+03 1.254556573421e+04 7.625000000000e-04 4.642459909534e-06 1.572477106486e-03 8.401293540686e-03 6.033537729445e-03
264 2 5.743933358189e-03 8.067259095994e-03 1.407982656427e-02 -2.233432514429e+01 -4.420377632731e+00 1.418717168198e+01 -3.934357373988e+03 3.298071524790e+03 1.095421696499e+04 7.625000000000e-04 4.642459909534e-06 -2.561465724254e+01 3.647617224363e+00 -5.686841983538e+00
265 2 8.691253405262e-04 1.184166752530e-02 8.814415185467e-03 1.621004164210e+01 -2.427751627270e+00 -1.300736577142e+01 -2.506550781735e+04 1.344853567271e+04 -5.357324872148e+03 7.625000000000e-04 4.642459909534e-06 -1.621039081885e-02 2.427803922906e-03 1.300764596007e-02
266 2 1.211797126848e-02 1.016234465502e-02 4.300813329025e-03 -1.187135209459e+01 -5.049704949280e+00 3.287860163001e+00 1.257290985935e+04 -1.056528235493e+04 3.741048378401e+03 7.625000000000e-04 4.642459909534e-06 1.187160781263e-02 5.049813723805e-03 -3.287930986035e-03
267 2 1.456606431294e-02 1.426847091879e-02 3.004013029144e-03 1.039654779841e+01 -3.431323656012e+01 1.035122205431e+01 -1.538500916455e+03 4.483846131847e+03 -5.124502332982e+03 7.625000000000e-04 4.642459909534e-06 -1.039677174803e-02 3.431397569361e-02 -1.035144502759e-02
268 2 3.359118028979e-03 7.849096706785e-03 6.236650991892e-03 9.204392118331e+00 1.100680725116e+01 -6.368068190210e+00 1.410206910976e+04 1.593445605010e+04 1.436579670176e+03 7.625000000000e-04 4.642459909534e-06 -9.204590388011e-03 -1.100704434625e-02 6.368205363293e-03
269 2 8.957817492779e-03 4.365539146858e-03 1.453265950456e-02 -1.481345845204e+01 -7.871281244837e-01 -9.931587614174e+00 8.448508673285e+01 -1.977831215981e+03 1.005174605084e+04 7.625000000000e-04 4.642459909534e-06 -1.254950624892e+01 5.634592851092e+00 -4.135464388962e+00
270 2 9.914161782377e-03 1.015775686659e-02 8.374676677370e-03 -1.379749385698e+01 -3.530794391870e+00 -3.172539805328e+00 -1.134600047158e+04 -5.517346083927e+03 -2.055220126865e+03 7.625000000000e-04 4.642459909534e-06 1.379779106560e-02 3.530870447894e-03 3.172608144273e-03
271 2 1.461561044186e-02 8.839420152038e-04 9.312017203826e-03 -9.441970496898e+00 -1.300634178935e+01 -1.788406116733e+01 -1.973344094190e+03 -1.306740760607e+04 -5.242009724791e+03 7.625000000000e-04 4.642459909534e-06 9.442173884198e-03 1.300662195595e-02 1.788444640375e-02
272 2 5.780759677021e-03 6.013271563507e-03 1.370691098619e-02 -1.692891760641e+01 9.469688827379e+00 1.701817233633e+01 1.201256444580e+02 7.862588369033e+03 -4.027061887648e+03 7.625000000000e-04 4.642459909534e-06 1.692928226830e-02 -9.469892811753e-03 -1.701853892084e-02
273 2 7.957089933198e-03 1.104088192832e-02 7.632764710497e-04 6.350586061838e+00 1.184987126442e+01 5.272941885656e+00 -1.560803861401e+04 8.386694457146e+03 -9.984470381346e+03 7.625000000000e-04 4.642459909534e-06 -6.350722858342e-03 -1.185012651975e-02 -5.273055468876e-03
274 2 1.270769417521e-02 2.027104379353e-03 7.003463221184e-04 -1.192365870865e+01 1.971871954861e+00 -5.904919705435e+00 -1.807690718203e+04 -8.807654622472e+02 -8.918941427392e+03 7.625000000000e-04 4.642459909534e-06 -2.082809534356e-01 -2.292459509127e-01 1.532154487901e+00
275 2 1.845672570131e-03 1.337088154152e-02 7.349293430810e-03 -1.928133947353e+01 1.683122202993e+01 6.187418471572e+00 5.404546843549e+03 -2.245409222340e+03 1.303198159144e+04 7.625000000000e-04 4.642459909534e-06 1.928175480840e-02 -1.683158458738e-02 -6.187551753321e-03
276 2 3.361895574865e-04 2.706094262311e-04 3.189770184451e-03 1.200679864675e+01 1.210706357777e+01 -1.244799907025e+01 1.092973719084e+04 8.260291279944e+03 -1.329974387616e+04 7.625000000000e-04 4.642459909534e-06 -1.200705728242e-02 -1.210732437322e-02 1.244826720971e-02
277 2 1.463171716139e-02 8.547078118080e-04 5.548207887037e-03 -1.980147560320e+00 -3.790810434360e+00 -1.014065112304e+01 -6.464200209145e+03 7.391215138033e+03 -3.429437273956e+03 7.625000000000e-04 4.642459909534e-06 1.980190214220e-03 3.790892091330e-03 1.014086956046e-02
278 2 3.895949405271e-03 2.858043151050e-03 2.766937514822e-03 1.917949355695e+01 9.088142273580e+00 1.372769137327e+01 -8.063937458042e+02 -2.614540869630e+04 9.339806396646e+03 7.625000000000e-04 4.642459909534e-06 -1.917990669798e-02 -9.088338039149e-03 -1.372798707829e-02
279 2 1.949282310205e-03 1.212421186245e-02 1.247239071583e-02 1.722400646843e+01 7.867526237407e+00 -7.707331175433e+00 4.581115093048e+03 6.152787610473e+03 7.202263531770e+03 7.625000000000e-04 4.642459909534e-06 -1.722437748676e-02 -7.867695709968e-03 7.707497197269e-03
280 2 3.838365067264e-03 1.396599579207e-02 1.141866083296e-02 8.635535694640e+00 4.426132179465e+00 -1.001151928540e+00 -7.726216217260e+03 -1.620006189509e+04 2.889239834979e+03 7.625000000000e-04 4.642459909534e-06 -8.635721710715e-03 -4.426227521753e-03 1.001173494122e-03
281 2 8.942051088642e-03 1.487743756975e-02 5.077033322829e-03 1.405266776924e+01 -2.646201232560e+01 -2.296595679689e+01 -5.016876674926e+02 5.218489983607e+02 3.509536685854e+03 7.625000000000e-04 4.642459909534e-06 -1.405297047450e-02 2.646258233768e-02 2.296645150125e-02
282 2 1.151251004684e-03 4.296437726667e-03 1.415967208773e-02 7.285627516632e+00 3.503063145225e+01 -1.387640157882e+00 -6.901397297691e+02 2.118812107273e+04 1.146990789891e+04 7.625000000000e-04 4.642459909534e-06 -7.285784454647e-03 -3.503138603898e-02 1.387670048717e-03
283 2 1.366866632994e-02 1.073991410685e-02 2.223745525144e-03 -1.195901292792e+00 1.635750234206e+01 -2.494679483324e+01 9.325552255762e+03 -7.949951053155e+03 -6.908784543203e+02 7.625000000000e-04 4.642459909534e-06 1.195927053425e-03 -1.635785469523e-02 2.494733220637e-02
284 2 2.549855195620e-03 9.575087086517e-03 1.009662645700e-02 2.511791832407e+00 -8.419089743160e-01 -1.295076012779e+01 -1.058084178226e+04 7.832289610877e+03 1.562560259781e+04 7.625000000000e-04 4.642459909534e-06 -2.511845938333e-03 8.419271096822e-04 1.295103909711e-02
285 2 1.188025818330e-02 1.163525396646e-02 1.353468706831e-02 -1.061456734117e+01 1.243605632081e+01 -2.624264029186e-01 7.748913447656e+02 -1.369500869198e+04 1.212370309491e+04 7.625000000000e-04 4.642459909534e-06 1.061479598711e-02 -1.243632420302e-02 2.624320557850e-04
286 2 1.117695203679e-02 1.399964161163e-02 1.218384807386e-03 9.225924720017e+00 -1.053669589956e+01 3.464532996750e+00 1.430476565503e+04 1.253328565602e+04 -1.231894086557e+04 7.625000000000e-04 4.642459909534e-06 -9.226123453526e-03 1.053692286809e-02 -3.464607625453e-03
287 2 7.302004976761e-03 3.708410269545e-03 6.733610091223e-03 3.179725464584e+00 -3.109337582696e+01 2.911702324086e+01 3.973563316526e+03 -6.829184479916e+03 9.759277450393e+03 7.625000000000e-04 4.642459909534e-06 -3.179793958314e-03 3.109404560217e-02 -2.911765044391e-02
288 2 1.470883198698e-02 9.168573934651e-03 1.417974211766e-02 7.042331947775e+00 -3.562132540559e+00 -7.764742499091e+00 -4.733257286319e+03 -9.412054982619e+03 1.260713195441e+04 7.625000000000e-04 4.642459909534e-06 -7.042483645017e-03 3.562209271631e-03 7.764909757612e-03
289 2 2.698510357327e-05 1.472899568380e-02 1.324934747107e-02 -2.504957524436e+01 -3.179823464044e+00 -5.366521410464e-01 3.337201580713e+03 -6.511144257554e+03 -7.380963578677e+03 7.625000000000e-04 4.642459909534e-06 2.505011483146e-02 3.179891959885e-03 5.366637009460e-04
290 2 8.470438175373e-03 1.344239716558e-02 5.661739573605e-04 -1.014721086913e+01 9.367220809575e+00 4.090552671203e+00 -9.731803069916e+03 -1.333695594363e+04 5.257400452299e+03 7.625000000000e-04 4.642459909534e-06 4.686825458289e-02 -4.489721412729e-01 1.841078174410e+00
291 2 1.486882620108e-02 8.292485231057e-04 1.052804614809e-02 -3.270040854125e+01 -7.029916607241e+00 5.228478504547e+00 -1.430217673354e+04 1.014203304875e+04 7.385546294940e+03 7.625000000000e-04 4.642459909534e-06 3.270111293318e-02 7.030068037047e-03 -5.228591129992e-03
292 2 9.476657409244e-03 2.970575041633e-03 1.347446156264e-02 2.964828618681e+00 1.076506057454e+01 -8.550985544231e-01 8.677629286959e+03 1.018507906146e+04 -2.894296958591e+03 7.625000000000e-04 4.642459909534e-06 -2.964892483368e-03 -1.076529246222e-02 8.551169739031e-04
293 2 1.069764492946e-02 6.383148777394e-03 6.244207021499e-03 3.708514526489e+00 -3.629642453067e+00 9.533069437266e-01 -1.790114646509e+03 2.140798694705e+04 5.174148428254e+03 7.625000000000e-04 4.642459909534e-06 -3.708594410742e-03 3.629720638355e-03 -9.533274786907e-04
294 2 2.285713050733e-03 1.061531110063e-02 1.453184087962e-02 -1.139641449295e+01 1.750929254305e+01 -1.048642013251e+00 3.755327779225e+02 -3.302913175507e+01 1.770556126974e+02 7.625000000000e-04 4.642459909534e-06 1.139665998048e-02 -1.750966970667e-02 1.048664601806e-03
295 2 1.318625688140e-02 1.281802415593e-02 9.297377700650e-03 -2.371763296252e+01 -1.020735501245e+01 2.039567570049e+01 8.197257311600e+03 1.100669721301e+04 6.473322689056e+03 7.625000000000e-04 4.642459909534e-06 2.371814385856e-02 1.020757488672e-02 -2.039611503902e-02
296 2 1.438713137620e-02 8.358602700272e-03 2.757976438838e-03 -1.208596904682e+01 -8.818527370682e+00 3.968159044846e+00 -3.062717777060e+03 2.087023410984e+03 1.151169003299e+03 7.625000000000e-04 4.642459909534e-06 1.208622938788e-02 8.818717328538e-03 -3.968244522041e-03
297 2 2.248280995217e-03 7.944496366178e-03 1.405352290380e-02 1.883428367744e+01 7.624043149548e+00 2.572899497173e+00 -2.951906082320e+04 9.154965735916e+02 -2.651221919698e+04 7.625000000000e-04 4.642459909534e-06 -1.883468938238e-02 -7.624207377296e-03 -2.572954919405e-03
298 2 2.922363155859e-03 1.300186039956e-02 3.741158322212e-03 6.177904938169e+00 1.406083151891e+01 1.706324759617e+01 1.260335238353e+04 -1.542209208393e+04 4.146978023803e+03 7.625000000000e-04 4.642459909534e-06 -6.178038014989e-03 -1.406113440002e-02 -1.706361515164e-02
299 2 6.692144734477e-03 1.512367002201e-03 9.360067980331e-03 -2.869738240264e+00 5.926583732345e+00 2.352426312968e+01 7.616224570799e+03 1.438605081610e+04 1.335224334690e+04 7.625000000000e-04 4.642459909534e-06 2.869800056631e-03 -5.926711395513e-03 -2.352476986039e-02
300 2 7.824435395711e-03 1.347821367135e-02 1.388245812896e-02 1.142311640096e+01 -2.645336499447e+00 -1.524263614682e+00 1.866013101705e+03 -7.347540624403e+03 1.735890292600e+04 7.625000000000e-04 4.642459909534e-06 -1.142336246367e-02 2.645393482028e-03 1.524296448492e-03
301 2 2.568407803092e-03 3.830076480127e-03 1.376984979567e-02 1.097961970789e+01 1.673502348731e+01 4.277115004941e+00 -4.235472299893e+03 1.648996281916e+03 -1.598008934206e+03 7.625000000000e-04 4.642459909534e-06 -1.097985621734e-02 -1.673538397258e-02 -4.277207137285e-03
302 2 1.047251821716e-02 3.250520242470e-05 3.917492571795e-03 7.849359947000e+00 -4.395971844877e+00 1.440560330057e+01 1.878424747974e+04 -2.721599632016e+03 -3.270564510559e+03 7.625000000000e-04 4.642459909534e-06 -7.849529028245e-03 4.396066537489e-03 -1.440591360833e-02
303 2 1.271649634688e-02 1.870641425307e-03 1.335273143135e-02 5.146435347432e-01 -5.611253405682e+00 1.811273433381e+01 1.679030792586e+04 1.013437466050e+03 -6.321207475157e+03 7.625000000000e-04 4.642459909534e-06 -5.146546205604e-04 5.611374276392e-03 -1.811312449602e-02
304 2 1.140944306099e-02 1.026412754046e-02 1.290264173964e-02 -1.381009196096e+01 6.757556416000e+00 1.569317454584e+01 1.347155791888e+04 3.174270441580e+03 -3.667878546455e+03 7.625000000000e-04 4.642459909534e-06 1.381038944095e-02 -6.757701978959e-03 -1.569351258888e-02
305 2 9.248574497345e-03 1.453407125833e-02 1.124680044756e-02 2.487216401724e+01 -1.584750744353e+01 -8.162904620307e+00 1.276826454322e+04 -2.129924319198e+04 6.493570655207e+03 7.625000000000e-04 4.642459909534e-06 -2.487269978277e-02 1.584784881102e-02 8.163080455546e-03
306 2 1.237023419356e-02 6.848206156564e-03 6.695250295955e-04 -1.127975497277e+01 -3.915740485678e+00 8.998292631975e-01 1.664571694258e+03 1.411195104343e+03 7.746405108578e+03 7.625000000000e-04 4.642459909534e-06 3.716984172622e-01 8.098410119975e-02 7.362323137329e-01
307 2 1.185616397371e-02 4.660691027917e-03 9.854796060459e-03 2.063248424452e+01 1.144242027134e-01 -1.580693065305e+01 -1.020661853652e+04 3.492594812770e+03 -1.049531616894e+04 7.625000000000e-04 4.642459909534e-06 -2.063292868408e-02 -1.144266674986e-04 1.580727114648e-02
308 2 6.471315390949e-03 1.024651895603e-02 1.088971707891e-03 -3.470459659328e+01 1.846062579170e+01 3.865901876114e-01 -2.239885777546e+04 -1.445296117342e+04 2.047744243905e+03 7.625000000000e-04 4.642459909534e-06 3.470534415696e-02 -1.846102344777e-02 -3.865985150612e-04
309 2 1.091135410033e-02 1.188793971598e-02 2.567734356982e-03 1.999104479851e+01 -1.477069091572e+01 8.381809454493e-01 7.503687824264e+03 2.133254869899e+03 4.314124489896e+03 7.625000000000e-04 4.642459909534e-06 -1.999147542098e-02 1.477100908775e-02 -8.381990005110e-04
310 2 1.233088937877e-02 1.170255530743e-02 4.770904587987e-03 3.487825576181e+00 -1.420379543291e+01 2.200723750480e+00 7.212341461064e+03 1.460453580364e+04 9.008015386104e+03 7.625000000000e-04 4.642459909534e-06 -3.487900706624e-03 1.420410139358e-02 -2.200771155761e-03
311 2 2.938997116073e-03 1.365647734490e-03 8.565145997181e-03 -9.573617733122e+00 -2.774764323224e+01 2.336799998484e+01 3.835676117661e+02 1.502044131455e+04 -4.921330614393e+03 7.625000000000e-04 4.642459909534e-06 9.573823956205e-03 2.774824093780e-02 -2.336850334952e-02
312 2 1.337053408027e-02 8.537400643795e-04 1.220463543042e-02 -3.354702848573e+00 -1.198891707896e+01 -9.601345076209e-01 -5.083923487581e+03 3.240748661391e+03 -5.424074335079e+03 7.625000000000e-04 4.642459909534e-06 3.354775111450e-03 1.198917532945e-02 9.601551896560e-04
313 2 3.778185598544e-03 4.212306359723e-03 6.122762313344e-03 -1.332782525967e+01 1.678393966579e+01 -8.763037259808e-01 1.177199088466e+04 -5.543670690085e+03 1.037139170368e+04 7.625000000000e-04 4.642459909534e-06 1.332811235127e-02 -1.678430120475e-02 8.763226022364e-04
314 2 9.454944435484e-03 1.250786736466e-02 7.297314685843e-03 1.859839160606e+01 -1.739116764804e+01 -1.091493988880e+01 6.098561520806e+03 1.848696280384e+03 -1.742270947414e+04 7.625000000000e-04 4.642459909534e-06 -1.859879222971e-02 1.739154226716e-02 1.091517500499e-02
315 2 1.791622614055e-03 5.554954527390e-03 1.467640289480e-02 2.276351922378e+01 2.204968096223e+01 2.548967320563e+01 -7.442249440840e+02 6.844884805645e+03 -1.357434190125e+04 7.625000000000e-04 4.642459909534e-06 4.970540912740e-01 3.471931854801e-01 -5.144832810634e+00
316 2 2.102296299017e-03 2.353059740454e-03 2.105784267756e-03 -5.999724419279e+00 1.727274594398e+01 8.682655335311e-01 -2.158118540555e+04 -1.253328438776e+03 -1.730263999938e+04 7.625000000000e-04 4.642459909534e-06 5.999853657954e-03 -1.727311801220e-02 -8.682842366380e-04
317 2 9.246675170489e-03 6.420918815591e-03 9.177552778275e-03 1.484874371054e+01 2.457471608067e+01 6.304549997263e+00 1.004425887033e+04 1.627541605917e+04 1.666727634193e+04 7.625000000000e-04 4.642459909534e-06 -1.484906356389e-02 -2.457524543894e-02 -6.304685802115e-03
318 2 1.113100808562e-02 2.880437984746e-04 1.457935463074e-02 -2.186097136415e+01 2.442197178462e+01 -2.596991814751e-01 -1.159110115402e+04 3.950628538300e+03 4.361702395142e+03 7.625000000000e-04 4.642459909534e-06 2.186144226627e-02 -2.442249785266e-02 2.597047755951e-04
319 2 4.760519492980e-03 1.263001562423e-02 1.350351438472e-02 2.928502979126e+00 8.894550431585e+00 3.237053445131e+00 -1.337965246742e+04 -1.720526058926e+03 -2.262141278601e+04 7.625000000000e-04 4.642459909534e-06 -2.928566061331e-03 -8.894742027037e-03 -3.237123173750e-03
320 2 1.332482958631e-03 1.533781183509e-02 1.342432291567e-02 3.913118575045e+00 6.333403037020e+00 3.151028822216e+00 -7.459034519345e+03 -7.754215801931e+03 1.925729326755e+03 7.625000000000e-04 4.642459909534e-06 -3.913202866626e-03 -6.333539463389e-03 -3.151096697798e-03
321 2 4.464221269778e-03 9.533730323484e-03 1.120075256450e-02 1.845609270501e+01 -1.570706003706e+00 -6.156809064135e+00 1.263138326711e+04 -9.509053943252e+03 2.531724455282e+03 7.625000000000e-04 4.642459909534e-06 -1.845649026343e-02 1.570739837921e-03 6.156941686533e-03
322 2 2.233880333640e-03 1.732427674765e-03 1.344466040777e-03 2.308533182707e+01 -9.552868910718e+00 6.139033330379e+00 1.022161994155e+04 2.160830976530e+04 1.617052101665e+04 7.625000000000e-04 4.642459909534e-06 -2.308582910286e-02 9.553074686856e-03 -6.139165569875e-03
323 2 1.078605439280e-02 1.036425193018e-02 7.876384777089e-04 8.463325692436e+00 4.840888126943e+00 3.591885980992e+00 -6.370669399103e+03 1.076576398002e+04 -2.839386123089e+03 7.625000000000e-04 4.642459909534e-06 -8.463507998975e-03 -4.840992403394e-03 -3.591963352976e-03
324 2 1.270275549130e-02 1.438488943943e-02 1.383889450037e-02 1.855510386600e+00 7.978349926981e+00 1.960653900223e+01 1.144812006414e+04 8.318026912749e+02 -5.299334866890e+03 7.625000000000e-04 4.642459909534e-06 -1.855550355719e-03 -7.978521786770e-03 -1.960696134214e-02
325 2 8.270537626439e-03 1.250038371672e-02 1.290429798539e-02 1.377875896463e+00 1.947121676511e+01 -1.344215213328e+01 -7.202023193722e+03 4.393458468165e+03 -3.079246360813e+02 7.625000000000e-04 4.642459909534e-06 -1.377905576969e-03 -1.947163619008e-02 1.344244168757e-02
326 2 3.051981159530e-03 1.085521592538e-02 7.880272265054e-03 -2.659491591700e+00 1.344011294839e+01 4.389315062134e+00 -5.349674378657e+02 -2.167885989116e+03 2.188152281781e+03 7.625000000000e-04 4.642459909534e-06 2.659548879192e-03 -1.344040245876e-02 -4.389409611353e-03
327 2 4.442483704557e-03 1.235349882210e-02 9.172354438219e-03 1.260255375906e+01 -7.332474245452e+00 1.251196915467e+01 -4.049772826351e+03 -8.349977235680e+03 -5.506270574101e+03 7.625000000000e-04 4.642459909534e-06 -1.260282522775e-02 7.332632192582e-03 -1.251223867210e-02
328 2 7.777106109384e-03 4.058303562051e-03 1.116284463684e-02 1.165642500335e+01 7.389006215560e+00 2.014241119944e+01 -1.476630954365e+04 1.171891189986e+04 -3.283989666130e+03 7.625000000000e-04 4.642459909534e-06 -1.165667609170e-02 -7.389165380432e-03 -2.014284508246e-02
329 2 7.961196118726e-03 8.813506799980e-03 6.570377465211e-03 9.786114832204e+00 -1.128859158256e+01 1.521641982548e+01 1.384236725691e+04 2.358604153624e+04 -5.479493056239e+03 7.625000000000e-04 4.642459909534e-06 -9.786325632638e-03 1.128883474750e-02 -1.521674759886e-02
330 2 1.088231097625e-02 1.548452750602e-03 3.108842093382e-03 -3.497483643536e+00 1.431203479844e+00 -2.850274495459e+00 -1.106635588918e+04 7.744968050672e+03 -5.580531212334e+03 7.625000000000e-04 4.642459909534e-06 3.497558982022e-03 -1.431234309066e-03 2.850335892562e-03
331 2 1.511853042179e-02 7.365569126712e-03 1.456582777540e-02 -1.082323949863e+01 -2.164239970005e+01 -1.947374052518e+00 -1.389266176988e+04 -3.920797065973e+03 2.407437200779e+04 7.625000000000e-04 4.642459909534e-06 1.082347263952e-02 2.164286589397e-02 1.947416000451e-03
332 2 1.397204982238e-02 1.136674301499e-02 6.189866174157e-03 8.121112533269e+00 -2.176216172643e+01 -1.833194442371e+01 -7.907226025380e+03 -1.564477439311e+02 8.695226231530e+03 7.625000000000e-04 4.642459909534e-06 -8.121287468274e-03 2.176263050011e-02 1.833233930788e-02
333 2 6.721691539305e-03 1.402652243779e-02 2.717849086434e-03 -7.333315486945e+00 1.341528657206e+01 -2.631469598790e+01 1.308119838001e+04 2.476846365241e+03 2.687042337370e+03 7.625000000000e-04 4.642459909534e-06 7.333473452196e-03 -1.341557554764e-02 2.631526282667e-02
334 2 1.132325986600e-03 3.860971864552e-03 4.945843255199e-03 2.689164560441e+01 -2.153515978096e+01 -1.370358507060e+01 8.734145094270e+03 -1.158374940845e+04 6.031984421540e+03 7.625000000000e-04 4.642459909534e-06 -2.689222487112e-02 2.153562366485e-02 1.370388025635e-02
335 2 3.498504047357e-04 1.592322376707e-03 1.429514035004e-02 7.228693102910e+00 7.646302127532e+00 -2.246895456132e+00 4.739630970107e+03 5.461752499969e+03 -1.506891282714e+04 7.625000000000e-04 4.642459909534e-06 2.061891900124e+01 3.816361191181e+00 -1.022584196193e+00
336 2 1.312234376483e-03 4.454068664752e-03 1.468467670628e-02 1.382588688268e+01 3.961278100075e+00 -2.970332581577e+00 7.107872975042e+03 -1.427185142726e+04 -8.396036472866e+03 7.625000000000e-04 4.642459909534e-06 -7.402666123917e-02 2.633166574401e-02 -1.318148398919e-01
337 2 8.548952995933e-03 1.526428636672e-02 1.462673823054e-02 -2.022321474127e+00 -9.480132262588e+00 -3.008621545178e+00 -1.094780010569e+04 1.909807308719e+03 9.533927687234e+03 7.625000000000e-04 4.642459909534e-06 6.065861717878e-02 1.263238771350e-01 3.089410308705e-01
338 2 5.173864097541e-03 4.598128439366e-03 6.325870628038e-03 -2.547843689353e+01 9.673905735836e+00 -4.907019478521e+00 -6.413969846965e+03 1.809498043797e+04 8.387883837826e+03 7.625000000000e-04 4.642459909534e-06 2.547898571864e-02 -9.674114119200e-03 4.907125179491e-03
339 2 6.973323948070e-03 6.869169873919e-03 1.196740917200e-02 1.421142325488e+01 1.885017241777e+01 -2.877876056192e+01 -8.241564971860e+03 -5.595574574596e+03 -8.402315427290e+03 7.625000000000e-04 4.642459909534e-06 -1.421172937986e-02 -1.885057846497e-02 2.877938047854e-02
340 2 2.718689455520e-03 9.706643814086e-03 7.973055797613e-03 3.077894958010e+01 1.363055049992e+01 -1.720786886002e+01 6.612828414560e+03 1.034669215651e+04 -9.031238767587e+03 7.625000000000e-04 4.642459909534e-06 -3.077961258233e-02 -1.363084411245e-02 1.720823953074e-02
341 2 1.259660981774e-02 8.379674799948e-03 1.464719817139e-02 9.479913938734e+00 -2.593461097013e+01 -2.948347234803e+00 -1.517204387298e+04 -1.293059623733e+04 1.196487943690e+04 7.625000000000e-04 4.642459909534e-06 -6.558366039327e-03 1.305841180999e-01 2.123278658300e-01
342 2 2.283368854300e-03 7.268577827845e-04 4.507943913185e-03 -1.902332281766e+01 2.386038149602e+01 1.221634243426e+01 -1.441593560459e+04 -5.478665839558e+03 -1.815685351247e+03 7.625000000000e-04 4.642459909534e-06 -5.783540718984e+00 1.173560237096e+01 -3.317016622077e+00
343 2 1.207421068125e-02 3.846584236997e-03 5.506071150730e-03 1.104278384095e+01 2.192395992138e+00 2.775366489471e+01 3.529219687263e+03 -1.065972964851e+03 7.236005233407e+03 7.625000000000e-04 4.642459909534e-06 -1.104302171100e-02 -2.192443218033e-03 -2.775426272998e-02
344 2 9.102358010689e-03 5.912850827746e-03 4.689538879471e-03 5.856004763172e+00 -1.481976742695e+01 -1.358659037791e+01 2.019413269809e+04 -3.369542960134e+03 -6.446859442384e+03 7.625000000000e-04 4.642459909534e-06 -5.856130906015e-03 1.482008665613e-02 1.358688304351e-02
345 2 1.243987944990e-02 8.253337897262e-03 7.393062820373e-03 2.133158645964e+01 5.610607450827e-01 -1.163155024280e+01 -1.212401024212e+04 9.412324493121e+03 -3.034227523751e+02 7.625000000000e-04 4.642459909534e-06 -2.133204595841e-02 -5.610728307623e-04 1.163180079533e-02
346 2 6.217733334904e-04 7.691414263175e-03 4.602522773512e-03 -3.859136947061e-01 -1.127739259552e+01 1.675881050280e+01 4.540941868437e+03 7.223066510146e+03 -9.986038134822e+03 7.625000000000e-04 4.642459909534e-06 3.859220075837e-04 1.127763551922e-02 -1.675917150046e-02
347 2 9.058495905437e-04 4.844752118707e-03 1.059020382370e-02 8.274119709694e+00 1.171503123629e+01 1.574808543726e+01 -5.586902285219e+02 1.445073638778e+04 1.746192188690e+04 7.625000000000e-04 4.642459909534e-06 7.038960937494e+00 3.714958538554e+00 1.282768597045e+01
348 2 1.243584502253e-02 6.954654452687e-03 1.462140928964e-02 -1.099186491148e+01 1.570548431551e+01 -7.306061387209e-01 9.593900215466e+03 7.077228908429e+03 -1.534255861122e+03 7.625000000000e-04 4.642459909534e-06 2.136001614665e-02 -3.125620896831e-02 3.811019735602e-02
349 2 1.619107205112e-03 1.029619320482e-02 1.192461546158e-02 -1.059231306466e+01 -5.665261448249e+00 -1.191924081584e+01 9.478032382007e+03 -2.446597485103e+03 3.743621225008e+03 7.625000000000e-04 4.642459909534e-06 1.059254123123e-02 5.665383482334e-03 1.191949756545e-02
350 2 6.088039153682e-03 5.206092940999e-04 9.769514106301e-03 8.628373977056e+00 -9.826772423024e+00 9.412037292520e+00 1.170782532590e+04 -9.949776843303e+03 -6.301477204506e+03 7.625000000000e-04 4.642459909534e-06 -8.628559838862e-03 9.826984099253e-03 -9.412240035036e-03
351 2 1.109574465571e-02 1.321941193144e-02 6.645261991551e-03 -2.014380161021e+01 5.402071718440e+00 -2.665497237741e+01 3.057919606587e+03 5.111338362537e+03 9.401257519667e+03 7.625000000000e-04 4.642459909534e-06 2.014423552318e-02 -5.402188083216e-03 2.665554654600e-02
352 2 2.257147288278e-03 1.222270048115e-03 2.484278720536e-03 -1.295738058441e+01 -1.889958662501e+01 -2.656873226298e+01 1.098605739457e+04 7.413490935122e+02 -5.975967320891e+03 7.625000000000e-04 4.642459909534e-06 1.295765969634e-02 1.889999373663e-02 2.656930457389e-02
353 2 1.338528448590e-02 1.202669825027e-02 1.458148759987e-02 1.129187933613e+01 1.903776572671e+01 7.155420096539e+00 -1.347247356287e+04 2.350395724632e+03 -2.784928214921e+03 7.625000000000e-04 4.642459909534e-06 -1.129212257189e-02 -1.903817581481e-02 -7.155574229786e-03
354 2 3.421957510536e-03 9.093588772884e-03 8.539964321213e-03 -3.963959972173e+00 1.963277811628e+01 1.495748581210e+01 -1.624004748175e+04 3.780018483845e+02 -1.966042619572e+04 7.625000000000e-04 4.642459909534e-06 3.964045358917e-03 -1.963320102141e-02 -1.495780800784e-02
355 2 4.744024210104e-03 5.515008219325e-03 1.084808084945e-02 1.773730394542e+01 -1.179145981988e+01 -3.181933027089e+00 -3.798004927005e+03 -3.417420918868e+02 -1.671688852343e+03 7.625000000000e-04 4.642459909534e-06 -1.773768602058e-02 1.179171381698e-02 3.182001568372e-03
356 2 1.057928076644e-02 3.676657095909e-03 5.869142272560e-03 7.068183268672e+00 4.708740344332e+00 5.433333813918e+00 -1.024181766956e+04 2.415787092442e+03 -1.197701273277e+04 7.625000000000e-04 4.642459909534e-06 -7.068335522771e-03 -4.708841774217e-03 -5.433450852104e-03
357 2 1.241765311864e-02 1.513249131104e-02 3.752982623718e-03 1.202913702199e+00 -1.174589540970e+01 9.783804533150e+00 -1.434679984928e+04 -6.015283147245e+03 1.431774130119e+04 7.625000000000e-04 4.642459909534e-06 -1.202939613884e-03 1.174614842532e-02 -9.784015283819e-03
358 2 4.431202216212e-03 1.120931337100e-02 1.264379213279e-02 1.045532639895e+01 9.165103959970e+00 1.286448029423e+01 1.550132286306e+04 -1.335683687507e+04 -5.393934714014e+03 7.625000000000e-04 4.642459909534e-06 -1.045555161472e-02 -9.165301383353e-03 -1.286475740502e-02
359 2 3.436553213493e-03 6.967616061486e-04 6.018219704848e-03 -5.565634019320e+00 -1.192447427174e+01 9.797096078723e+00 8.379064911625e+03 8.629150224109e+03 2.018529488073e+04 7.625000000000e-04 4.642459909534e-06 5.565753907354e-03 1.192473113408e-02 -9.797307115701e-03
360 2 1.364346331816e-02 5.459415520694e-04 1.063919531964e-02 -1.436249170395e+01 -2.846865652516e+01 5.026344731504e+00 -7.693070236452e+02 1.165796621158e+04 7.900057307257e+03 7.625000000000e-04 4.642459909534e-06 1.436280108305e-02 2.846926976190e-02 -5.026453002832e-03
361 2 1.392349283193e-03 1.126196075997e-02 8.494745489313e-04 6.385459516315e-01 -7.018411013707e+00 4.069810386724e+00 9.312745927070e+03 8.402458154477e+02 3.032412496082e+03 7.625000000000e-04 4.642459909534e-06 -6.385597064020e-04 7.018562195674e-03 -4.069898053567e-03
362 2 1.083310780682e-02 8.410346217406e-03 1.473732612612e-03 1.359189832033e+01 -1.106900649037e+01 -6.973896343963e+00 -1.022324251545e+04 1.157171513197e+04 -1.987745282400e+03 7.625000000000e-04 4.642459909534e-06 -1.359219110027e-02 1.106924492528e-02 6.974046567050e-03
363 2 1.311418280065e-02 1.287307215814e-02 1.347421258385e-02 5.298224264796e+00 5.483997113254e+00 6.417077857531e+00 2.101815357292e+04 -5.317751964811e+03 4.729629714153e+02 7.625000000000e-04 4.642459909534e-06 -5.298338392619e-03 -5.484115242766e-03 -6.417216086320e-03
364 2 8.657318771520e-03 7.859868693603e-03 2.598339276895e-03 -9.283521674178e+00 1.137796324330e+01 -1.143627381721e+00 -7.313954294591e+02 3.968910281859e+03 1.109846607804e+04 7.625000000000e-04 4.642459909534e-06 9.283721648369e-03 -1.137820833338e-02 1.143652016334e-03
365 2 2.279906008552e-03 1.358251735704e-03 5.591749360501e-03 -1.037283812465e+01 7.959274056410e+00 5.423444403833e+00 -2.756786794883e+04 -7.062939061746e+03 -1.402803660203e+03 7.625000000000e-04 4.642459909534e-06 1.037306156355e-02 -7.959445505289e-03 -5.423561228994e-03
366 2 1.109388350196e-02 1.255666591731e-03 5.864726419218e-03 3.925829115361e+00 -6.025518431353e+00 -8.766128685028e+00 1.780235050523e+04 -6.269967780725e+01 2.157473558108e+03 7.625000000000e-04 4.642459909534e-06 -3.925913680737e-03 6.025648225651e-03 8.766317514177e-03
367 2 4.646825951179e-03 6.260622153093e-03 1.206996854198e-02 2.676784059032e+00 1.688509411045e+01 -8.423529421062e+00 -6.136197156430e+03 3.378031971526e+03 6.016878476633e+03 7.625000000000e-04 4.642459909534e-06 -2.676841719018e-03 -1.688545782836e-02 8.423710870359e-03
368 2 1.315910893704e-02 1.242648321721e-02 1.203352810340e-02 -2.089900499138e+00 -1.152103500153e+00 -2.801271223808e-01 -4.757153336892e+03 4.570886400010e+03 -6.095948341477e+03 7.625000000000e-04 4.642459909534e-06 2.089945517201e-03 1.152128317347e-03 2.801331565343e-04
369 2 5.123976741802e-03 1.264064167034e-02 1.088717080117e-02 1.876461289993e+01 2.696733707060e+00 -1.564193017175e+01 1.346165186737e+04 5.052948193646e+03 4.122212647768e+03 7.625000000000e-04 4.642459909534e-06 -1.876501710411e-02 -2.696791796776e-03 1.564226711095e-02
370 2 1.126402859497e-02 6.342265969701e-03 8.904720013737e-03 -2.235664004981e+01 -1.764025963976e+01 1.463451708320e+01 -2.431242250192e+03 6.943561797868e+03 -2.644376291025e+03 7.625000000000e-04 4.642459909534e-06 2.235712162902e-02 1.764063962450e-02 -1.463483232194e-02
371 2 1.495832070387e-02 2.626031459927e-03 4.214466305013e-03 3.771883076406e+01 -3.147237440730e+01 -3.964739029061e+00 -8.047796448319e+03 7.296003357278e+03 4.877956972389e+03 7.625000000000e-04 4.642459909534e-06 -3.771964325666e-02 3.147305234643e-02 3.964824432587e-03
372 2 1.107302916097e-02 8.895943975114e-04 6.476037419536e-03 2.060687328096e+01 4.736317454047e+00 -6.397802629722e+00 -9.501965450672e+03 9.239849314412e+03 -1.246721315606e+04 7.625000000000e-04 4.642459909534e-06 -2.060731716885e-02 -4.736419477964e-03 6.397940443308e-03
373 2 1.423125141670e-02 2.960124652347e-04 7.324388856903e-04 2.072146571375e+00 -1.146773094116e+01 1.211157350843e+00 4.016800350830e+03 2.483378271948e+03 -5.206460709245e+03 7.625000000000e-04 4.642459909534e-06 -2.160907434422e-03 1.577750360381e-02 -9.832060843585e-03
374 2 1.905471288622e-03 8.591982276186e-03 1.341302103160e-02 3.651666024868e+00 -1.470275603575e+01 -6.087823031331e+00 -1.035014330782e+04 1.573496606973e+03 -1.306212120639e+04 7.625000000000e-04 4.642459909534e-06 -3.651744684561e-03 1.470307274441e-02 6.087954167718e-03
375 2 1.467970783178e-02 3.846831382773e-04 2.763206518640e-03 1.504696677042e+01 -8.636904351370e+00 7.320647212305e+00 -1.043609143961e+03 1.388542735935e+04 -1.106943032076e+04 7.625000000000e-04 4.642459909534e-06 -1.504729089365e-02 8.637090396927e-03 -7.320804904672e-03
376 2 1.038221828551e-02 9.107275908328e-03 6.203318991761e-03 -1.155834561981e+00 7.605662218172e+00 2.242461447470e+00 1.147513029031e+04 4.383061785360e+03 -5.545468234831e+03 7.625000000000e-04 4.642459909534e-06 1.155859459545e-03 -7.605826049981e-03 -2.242509751813e-03
377 2 1.187213816401e-02 7.301301264691e-03 1.480891221669e-02 -1.439163565826e+00 -2.968986476253e+00 -1.758486020741e+00 -1.002495198007e+03 -4.335714231868e+01 -1.461331754806e+04 7.625000000000e-04 4.642459909534e-06 2.445709865265e-01 3.889714121436e-01 -2.479153447943e+00
378 2 1.504409586005e-02 2.279541899964e-03 3.082533292515e-03 1.184861608516e+01 -9.712450138450e+00 8.775262781073e+00 2.094516496597e+04 1.679884103301e+04 -3.524185910016e+03 7.625000000000e-04 4.642459909534e-06 -1.184887131345e-02 9.712659352090e-03 -8.775451806977e-03
379 2 1.158360989508e-02 5.676313131660e-03 7.313189163606e-04 -1.610708850337e+01 -1.263373520814e+01 7.162444692991e-01 -1.388445006190e+03 -1.166710268094e+03 -7.530355041046e+03 7.625000000000e-04 4.642459909534e-06 4.275841235402e-02 3.662582761836e-02 7.100213409254e-02
380 2 4.777709521139e-03 1.487740778581e-02 9.183207435495e-03 1.056308174098e+01 6.661725325651e+00 2.836852790404e+00 1.010213877160e+04 6.628214684911e+02 -1.033179520135e+04 7.625000000000e-04 4.642459909534e-06 -1.056330927787e-02 -6.661868824334e-03 -2.836913898393e-03
381 2 9.226232761718e-03 8.570664161257e-03 8.657614642403e-03 1.161141782968e+00 -7.755731574251e+00 1.479884412144e+01 -1.144410747110e+04 -1.371931290598e+04 1.385630338047e+04 7.625000000000e-04 4.642459909534e-06 -1.161166794855e-03 7.755898638669e-03 -1.479916289991e-02
382 2 1.300915253661e-02 3.374899932458e-03 8.503223699860e-04 -3.166443589948e+00 1.166136746929e+01 -1.243515884905e+01 -2.845532008085e+03 2.363876182600e+03 6.330433707809e+03 7.625000000000e-04 4.642459909534e-06 3.166511797576e-03 -1.166161866411e-02 1.243542671193e-02
383 2 5.966938635994e-03 3.475140452826e-03 1.303731154436e-02 3.082674287303e+00 -6.440666018092e+00 -1.747866780896e+00 -7.002749643982e+03 -5.892146448034e+03 7.587019888769e+03 7.625000000000e-04 4.642459909534e-06 -3.082740690476e-03 6.440804754987e-03 1.747904431290e-03
384 2 1.026131864091e-02 7.959963782333e-03 5.689804502679e-03 1.262876283287e+01 -1.231875138127e+01 -1.037503180254e+01 6.413921846090e+03 -2.788153098090e+03 -3.811478439187e+03 7.625000000000e-04 4.642459909534e-06 -1.262903486612e-02 1.231901673664e-02 1.037525528870e-02
385 2 1.154111132448e-02 6.952602584942e-03 1.781882770844e-03 -1.339074396195e+01 6.385088527272e+00 3.663082605883e+00 -1.149286455862e+03 3.909294662827e+03 7.406923584637e+03 7.625000000000e-04 4.642459909534e-06 1.339103240887e-02 -6.385226066986e-03 -3.663161511498e-03
386 2 7.264041036284e-03 7.251241166269e-03 1.419305454477e-02 1.125440265499e+01 -6.558994614068e+00 -2.650138673093e+00 -8.939573373850e+03 -1.535760138840e+04 -8.589360937775e+03 7.625000000000e-04 4.642459909534e-06 -1.125464508348e-02 6.559135899852e-03 2.650195759116e-03
387 2 1.502956874201e-02 6.532187243966e-03 7.670758455963e-03 1.822132668488e-01 2.012897760040e+00 -1.003320212758e+01 -1.981837818601e+02 -7.348783854101e+03 -4.542748112401e+03 7.625000000000e-04 4.642459909534e-06 -1.822171918626e-04 -2.012941119405e-03 1.003341825046e-02
388 2 8.840303947810e-03 1.008656718476e-02 1.289975045536e-02 -1.601082960158e+01 -2.101239226793e+01 5.849065118841e+00 -8.777281173467e+03 1.086136123699e+04 1.131789805384e+04 7.625000000000e-04 4.642459909534e-06 1.601117448715e-02 2.101284489100e-02 -5.849191112199e-03
389 2 1.066734531408e-02 5.206273668233e-03 1.173299866860e-02 1.112348304756e+01 6.432180716357e+00 -3.426481941561e+00 -2.852892204066e+04 -8.698539627171e+03 -4.230537889698e+03 7.625000000000e-04 4.642459909534e-06 -1.112372265593e-02 -6.432319270472e-03 3.426555750615e-03
390 2 1.344502438676e-02 9.135586349357e-03 1.281198103918e-02 1.265355267833e+01 7.757328198002e+00 2.213542032213e-01 -4.977510237125e+02 -3.482662700153e+03 9.421344146760e+03 7.625000000000e-04 4.642459909534e-06 -1.265382524558e-02 -7.757495296812e-03 -2.213589713609e-04
391 2 1.631368894650e-03 1.391080753239e-02 1.594133591913e-03 -5.625800103189e+00 -3.650404162683e+00 6.564582564344e+00 -1.052350933024e+04 -1.083994510744e+04 3.864506454763e+03 7.625000000000e-04 4.642459909534e-06 5.625921287247e-03 3.650482795193e-03 -6.564723970497e-03
392 2 8.485442251507e-03 8.440555581004e-03 1.070805497884e-02 9.022529029141e+00 5.106246799109e-01 7.376495897027e+00 7.167288615255e+01 -1.591847305596e+04 2.204750164602e+04 7.625000000000e-04 4.642459909534e-06 -9.022723381350e-03 -5.106356791589e-04 -7.376654792417e-03
393 2 5.937710980475e-03 1.129438387430e-02 8.801821858842e-03 -1.697340317885e+01 -4.971097987057e+00 -1.471558638579e+01 -8.252558126807e+03 5.728975658961e+02 9.770207134467e+03 7.625000000000e-04 4.642459909534e-06 1.697376879900e-02 4.971205068328e-03 1.471590337083e-02
394 2 6.068915791132e-03 4.555933626692e-03 5.192546187778e-03 -1.048581774854e+01 2.403138009625e+00 -2.154712639861e+00 4.563722170349e+03 -6.897611735645e+03 8.625329604857e+03 7.625000000000e-04 4.642459909534e-06 1.048604362111e-02 -2.403189775065e-03 2.154759054027e-03
395 2 1.376683921022e-02 6.188109718319e-03 7.815448651441e-04 1.552554212228e+01 2.352682251492e+01 2.687009984574e+00 -1.400520108994e+04 1.648634143642e+04 5.025226340484e+03 7.625000000000e-04 4.642459909534e-06 -1.552587655439e-02 -2.352732930075e-02 -2.687067864834e-03
396 2 4.013552260482e-03 2.297853064988e-03 3.801053748722e-03 -1.458066835584e+01 2.995143229932e+01 -8.610726113896e-01 -6.879875179742e+03 -8.758842229945e+03 -8.124687096491e+03 7.625000000000e-04 4.642459909534e-06 1.458098243464e-02 -2.995207747619e-02 8.610911595553e-04
397 2 3.658455163958e-03 1.400657808975e-02 1.033763678214e-02 1.466038063579e+01 1.335737755691e+01 -1.662785870692e+01 1.380646175220e+04 1.407917774713e+04 2.253166258455e+02 7.625000000000e-04 4.642459909534e-06 -1.466069643165e-02 -1.335766528509e-02 1.662821688377e-02
398 2 5.237451054851e-03 1.398855494459e-02 4.520887167721e-03 -2.696051060140e+00 -1.643059869311e+01 1.029150889535e+01 -1.323710205527e+04 -1.376767765932e+02 -1.606693403959e+04 7.625000000000e-04 4.642459909534e-06 2.696109135152e-03 1.643095262083e-02 -1.029173058236e-02
399 2 1.873352608734e-03 4.616269509049e-04 6.385568693386e-03 3.464774230872e+00 1.357506298431e+01 -1.861937709161e+01 1.781764069744e+03 7.102456574898e+03 8.702713244310e+02 7.625000000000e-04 4.642459909534e-06 -3.464848864771e-03 -1.357535540160e-02 1.861977816730e-02
400 2 9.733987275469e-03 1.443447641506e-02 1.758935370305e-03 -7.589362020438e+00 -3.254220546419e+01 9.189431968254e+00 7.385778904874e+03 -4.385141967107e+03 -8.622715817886e+03 7.625000000000e-04 4.642459909534e-06 7.589525501128e-03 3.254290644831e-02 -9.189629915681e-03
401 3 2.735349397302e-03 9.483660667328e-03 3.483046643777e-03 2.454317586471e+01 -9.817548612551e+00 -1.768341271711e+01 -9.320506733624e+03 -8.475306297717e+02 1.114724957954e+04 9.531250000000e-04 9.067304510808e-06 -2.454344654545e-02 9.817656887914e-03 1.768360774319e-02
402 3 8.264208513493e-03 1.263486990485e-02 1.418406747877e-02 -9.388255078292e+00 1.909210732719e+01 -2.536771079177e+00 1.686290548063e+04 8.720558318684e+03 2.171489074714e+03 9.531250000000e-04 9.067304510808e-06 9.388358619080e-03 -1.909231788941e-02 2.536799056610e-03
403 3 1.409168727547e-02 7.406934338457e-03 1.337675623079e-03 9.299558172339e+00 -7.548846878760e-01 4.646546674898e+00 5.524685915765e+03 -1.004628012154e+04 -1.493697984670e+04 9.531250000000e-04 9.067304510808e-06 -9.299660734912e-03 7.548930133162e-04 -4.646597920535e-03
404 3 7.045105532043e-04 1.161760163887e-03 3.262237127466e-03 -2.602363889157e+00 3.116293050987e+01 -2.710776517744e+00 5.773345830365e+03 7.314590507896e+02 -1.567797838784e+03 9.531250000000e-04 9.067304510808e-06 2.602392589998e-03 -3.116327419827e-02 2.710806414241e-03
405 3 1.172490788287e-03 5.329050337969e-03 1.033182787457e-02 1.400789327435e+01 -1.688334992854e+01 -1.266026883468e+01 -9.319524711809e+03 8.861347989717e+03 -1.001004089919e+04 9.531250000000e-04 9.067304510808e-06 -1.400804776401e-02 1.688353613091e-02 1.266040846172e-02
406 3 1.275575233716e-02 8.976348339208e-03 3.915967116114e-03 9.630575498568e+00 1.131261604628e+01 -1.975454773151e+01 -1.229237700326e+04 -1.596760417409e+04 -1.508518131684e+03 9.531250000000e-04 9.067304510808e-06 -9.630681711850e-03 -1.131274081038e-02 1.975476559962e-02
407 3 4.460135187525e-04 5.564138489607e-03 7.423805443089e-03 4.949256892948e+00 1.488085685158e+00 1.548822330054e+01 5.903782053723e+03 -3.977331441336e+03 -6.759270083104e+03 9.531250000000e-04 9.067304510808e-06 -4.949311477102e-03 -1.488102096895e-03 -1.548839411640e-02
408 3 2.965052521212e-03 6.800126766899e-03 1.180928816391e-03 5.732926170743e+00 -2.355052701744e+00 1.980613907397e+00 -7.815343157449e+03 5.662723076796e+03 6.379375920314e+03 9.531250000000e-04 9.067304510808e-06 -5.732989397796e-03 2.355078675049e-03 -1.980635751107e-03
409 3 5.225413460866e-03 1.542411019265e-03 1.228124206840e-02 -2.638290336225e+01 9.037394647555e+00 1.589598366593e+01 -3.970184172277e+03 -5.647361455534e+03 -2.198270546131e+03 9.531250000000e-04 9.067304510808e-06 2.638319433289e-02 -9.037494318790e-03 -1.589615897888e-02
410 3 1.013447673607e-03 7.631957673077e-03 1.427236938979e-02 8.629694947315e+00 -1.081239983511e+00 -2.448071418310e+00 -1.122066144617e+03 -9.166868058922e+03 7.201198916914e+03 9.531250000000e-04 9.067304510808e-06 -8.629790122128e-03 1.081251908245e-03 2.448098417497e-03
411 3 9.599783463815e-03 4.405719602243e-03 2.110298440270e-03 -1.401168189015e+01 1.654726251429e+01 1.593191571148e+00 -3.776194189073e+03 -1.225444853070e+04 -2.214529372916e+03 9.531250000000e-04 9.067304510808e-06 1.401183642159e-02 -1.654744501004e-02 -1.593209142071e-03
412 3 6.031234514426e-03 2.951886592864e-03 1.182334319335e-02 2.694935634102e+01 5.579741843404e+00 1.330044418331e+01 1.212240210712e+04 4.805608266360e+03 -3.905405784094e+02 9.531250000000e-04 9.067304510808e-06 -2.694965355894e-02 -5.579803381024e-03 -1.330059087069e-02
413 3 1.421194703056e-02 3.441498863517e-03 1.190894859254e-02 5.893320418159e+00 -7.690473337854e+00 8.020155530958e+00 3.913192052692e+03 -3.990415467589e+03 -8.667446033243e+03 9.531250000000e-04 9.067304510808e-06 -5.893385414161e-03 7.690558154220e-03 -8.020243983308e-03
414 3 1.280467609448e-02 5.251369288372e-03 1.204885791877e-03 7.948182687136e+00 -6.892535717450e+00 3.829354607468e+00 6.922825098968e+03 7.988881045426e+03 2.732846170360e+03 9.531250000000e-04 9.067304510808e-06 -7.948270345716e-03 6.892611733555e-03 -3.829396840492e-03
415 3 1.137985961381e-02 7.711655350042e-03 1.610806158985e-03 5.596106061221e+00 -4.807981243087e+00 8.365108536985e-01 6.621924137842e+03 -1.597383416447e+04 8.052498215746e+03 9.531250000000e-04 9.067304510808e-06 -5.596167779317e-03 4.808034269146e-03 -8.365200793739e-04
416 3 1.911476993248e-03 4.214345653797e-04 2.168602322819e-03 -1.922538490019e+01 4.522333261880e+00 -1.791710301705e+01 9.629028713325e+02 6.650414659455e+03 6.890014183984e+03 9.531250000000e-04 9.067304510808e-06 1.922559693230e-02 -4.522383137597e-03 1.791730062043e-02
417 3 1.330048366055e-02 1.138838776704e-02 5.740657469330e-03 2.273934571255e+01 9.490395046777e+00 5.790991767814e+00 2.613142103032e+03 -2.431792746716e+03 3.826462451434e+03 9.531250000000e-04 9.067304510808e-06 -2.273959649928e-02 -9.490499714043e-03 -5.791055635258e-03
418 3 2.311447205256e-03 9.842660225685e-03 5.684691053785e-03 -1.065635531468e+01 8.692428023734e+00 3.949934791705e+00 7.100060818948e+03 1.346543046660e+03 8.367048089727e+03 9.531250000000e-04 9.067304510808e-06 1.065647284103e-02 -8.692523890415e-03 -3.949978354578e-03
419 3 7.415485580028e-03 3.025860355659e-04 1.018272737786e-03 -8.637346820675e+00 -5.246863679197e-01 -2.323429687135e+00 -6.376790310137e+03 -1.197349358864e+03 -1.001232443001e+03 9.531250000000e-04 9.067304510808e-06 8.637442079879e-03 5.246921545584e-04 2.323455311678e-03
420 3 5.186594077513e-03 6.774891795274e-03 6.739364884252e-03 2.265897395059e+01 8.204516881579e+00 4.123955189288e+00 -3.155104082685e+03 -4.465363471707e+03 -8.220145219846e+03 9.531250000000e-04 9.067304510808e-06 -2.265922385092e-02 -8.204607367206e-03 -4.124000671390e-03
421 3 1.160914709317e-02 3.417184771315e-04 2.809766317358e-03 1.566355560680e+00 -5.010103059588e+00 -1.341972379411e+01 1.982981841752e+03 3.737253497801e+03 -9.001963043811e+01 9.531250000000e-04 9.067304510808e-06 -1.566372835635e-03 5.010158314800e-03 1.341987179698e-02
422 3 1.981698072950e-03 8.692339749962e-03 6.085512639784e-03 -2.433597482019e+00 5.591692628864e+00 9.735005655761e-01 1.913283584151e+03 2.569078489205e+03 8.834727468368e+03 9.531250000000e-04 9.067304510808e-06 2.433624321576e-03 -5.591754298287e-03 -9.735113020778e-04
423 3 5.824353607914e-03 1.497846945217e-02 8.649828962173e-03 -1.781403876956e+01 1.725596050639e+01 -5.212354637026e+00 -1.059029931963e+03 -3.871038503819e+01 -1.460080079796e+03 9.531250000000e-04 9.067304510808e-06 1.781423523627e-02 -1.725615081819e-02 5.212412122821e-03
424 3 1.138226634703e-02 3.200739125796e-04 1.271278671597e-02 4.434690575941e+00 2.298641983107e+01 3.654300640003e+00 2.838245585907e+03 2.768509751170e+03 -9.126233208644e+03 9.531250000000e-04 9.067304510808e-06 -4.434739485068e-03 -2.298667334272e-02 -3.654340942399e-03
425 3 2.517448747920e-03 1.292395938213e-03 1.063546104805e-02 -9.679287372531e+00 1.967111177606e+01 1.186794418178e+00 -7.960785141137e+03 5.465440199835e+03 -4.862760570158e+03 9.531250000000e-04 9.067304510808e-06 9.679394123045e-03 -1.967132872398e-02 -1.186807507045e-03
426 3 9.305895758402e-03 5.233701047787e-03 1.345817340001e-02 -3.150621059935e-01 1.229366113875e+01 -2.012918215998e+00 2.822269891981e+03 7.008987926988e+03 -6.552626395327e+03 9.531250000000e-04 9.067304510808e-06 3.150655807370e-04 -1.229379672256e-02 2.012940415985e-03
427 3 7.639535378339e-03 1.054615360140e-02 2.838915765240e-03 6.587713678190e+00 8.220781469456e+00 -9.786170935163e+00 -1.489236277537e+03 -4.635025713448e+03 -8.908645226533e+02 9.531250000000e-04 9.067304510808e-06 -6.587786332487e-03 -8.220872134462e-03 9.786278864470e-03
428 3 6.503025536358e-03 6.259159441542e-03 1.101340162139e-03 -9.694129232018e+00 -1.213379256776e+01 9.893597035042e-01 1.206766232955e+04 -4.314255440886e+03 -1.250370966833e+03 9.531250000000e-04 9.067304510808e-06 9.694236146219e-03 1.213392638841e-02 -9.893706149125e-04
429 3 7.644900078959e-03 1.426735595962e-02 3.107681039294e-03 -1.009476202689e+01 -1.453724976087e+01 -1.413283962983e+00 7.965090111768e+03 1.377880625832e+02 -4.221241646900e+03 9.531250000000e-04 9.067304510808e-06 1.009487335957e-02 1.453741008867e-02 1.413299549749e-03
430 3 4.941826420739e-03 2.216151384778e-03 1.117396131500e-02 1.189075581454e+01 6.861681402665e+00 1.269184611250e+01 1.251770685925e+03 3.281276619619e+03 1.363585112092e+03 9.531250000000e-04 9.067304510808e-06 -1.189088695481e-02 -6.861757078485e-03 -1.269198608779e-02
431 3 3.349630150548e-03 4.190906680446e-03 1.180291463961e-02 -2.451245652206e+01 1.011542197337e+01 6.430090187283e+00 -8.988918908613e+03 -3.068082514533e+02 5.058160815853e+03 9.531250000000e-04 9.067304510808e-06 2.451272686400e-02 -1.011553353391e-02 -6.430161103188e-03
432 3 7.922994854389e-03 1.491276794805e-02 1.439379860424e-02 4.033954147000e+00 4.309056533139e+00 -1.412448754446e+00 4.865584130338e+03 -3.998802638130e+03 -2.969363166946e+03 9.531250000000e-04 9.067304510808e-06 -4.033998636502e-03 -4.309104056679e-03 1.412464332001e-03
433 3 4.784007247610e-03 1.240220528829e-02 1.433821846156e-02 7.388819219823e+00 8.640016085444e+00 -1.147303766381e+00 4.590385721470e+03 -1.032026812966e+04 -1.136130941469e+04 9.531250000000e-04 9.067304510808e-06 -7.388900709319e-03 -8.640111374086e-03 1.147316419716e-03
434 3 9.501129374005e-03 1.245621209087e-02 4.278150602472e-03 -3.173166157738e+00 1.863688190511e+01 -2.415149034344e+01 1.741914313824e+03 -5.480421678673e+03 4.673695921878e+03 9.531250000000e-04 9.067304510808e-06 3.173201153819e-03 -1.863708744676e-02 2.415175670437e-02
435 3 8.522151869223e-03 1.032279667070e-02 1.464018433645e-02 4.205041421374e+00 -7.927962367663e+00 -1.762507390664e+00 -3.321025431021e+03 -3.040164301837e+03 -2.066827835785e+03 9.531250000000e-04 9.067304510808e-06 -2.983898000721e-01 1.082231427295e+00 -3.146282849217e+00
436 3 9.958273249613e-03 2.195405435053e-03 1.196782897634e-03 -6.356578052499e+00 -2.150876902206e+01 2.707835778353e+00 6.279770440038e+03 -8.083405607647e+02 -8.042904954542e+03 9.531250000000e-04 9.067304510808e-06 6.356648157658e-03 2.150900623706e-02 -2.707865642417e-03
437 3 1.379789793222e-02 1.025435484707e-02 1.151988316517e-02 9.431165866591e+00 9.046643649596e+00 7.803823289110e+00 -6.550854704636e+03 1.628301822666e+03 -3.791374063752e+03 9.531250000000e-04 9.067304510808e-06 -9.431269880633e-03 -9.046743422835e-03 -7.803909355585e-03
438 3 1.320790966457e-02 2.601456333824e-03 1.366562034034e-03 1.427755851828e+00 7.919444436379e+00 7.161631333075e+00 6.716079896886e+03 -8.061490481932e+03 -3.469929118909e+03 9.531250000000e-04 9.067304510808e-06 -1.427771598201e-03 -7.919531778011e-03 -7.161710316970e-03
439 3 1.026216534568e-02 1.238644475732e-02 1.838542597426e-03 2.046558501442e+01 -6.725543511394e+00 1.559235836402e+01 4.192201739399e+03 1.378222100555e+02 5.801807105664e+03 9.531250000000e-04 9.067304510808e-06 -2.046581072440e-02 6.725617685782e-03 -1.559253032836e-02
440 3 1.059672087016e-02 1.539245155446e-02 6.838676758070e-03 -6.842056884549e+00 2.193061384464e+01 -2.687112891183e+01 -1.628888366008e+03 1.562197666834e+04 8.128739050929e+03 9.531250000000e-04 9.067304510808e-06 6.842132343935e-03 -2.193085571206e-02 2.687142526700e-02
441 3 8.556583321207e-03 1.069636105758e-02 5.921822120616e-03 -7.060205819554e+00 -5.123779575074e+00 2.299588403226e-01 -4.379469746909e+02 1.486487609262e+03 -6.523338645063e+03 9.531250000000e-04 9.067304510808e-06 7.060283684852e-03 5.123836083997e-03 -2.299613764829e-04
442 3 3.271732886021e-03 1.528905815851e-02 3.317387760977e-03 -8.151868454769e+00 -7.596408509278e-01 -5.753184033402e+00 1.070309293462e+04 7.384597481424e+02 -3.988418709788e+03 9.531250000000e-04 9.067304510808e-06 8.151958359749e-03 7.596492288226e-04 5.753247483874e-03
443 3 1.019046789138e-02 8.248986259319e-03 5.160700375293e-03 -2.390893994083e+01 -1.238819140960e+01 1.795116889581e+00 3.094399425201e+03 5.178521041393e+03 -2.561516290547e+02 9.531250000000e-04 9.067304510808e-06 2.390920362673e-02 1.238832803596e-02 -1.795136687490e-03
444 3 8.360293689687e-03 5.381506116295e-03 1.071477669034e-03 -3.184542005635e+00 -4.214053151618e+00 -6.901629696151e+00 8.420697881262e+02 3.387154500507e+03 -9.593538209258e+02 9.531250000000e-04 9.067304510808e-06 3.184577127177e-03 4.214099627388e-03 6.901705812552e-03
445 3 3.285129813848e-03 5.429341662766e-03 1.183777451633e-02 -5.442866339096e+00 2.563765666264e+00 -3.349831046037e+00 -4.061468117976e+03 -1.797933018190e+03 -8.739436167497e+03 9.531250000000e-04 9.067304510808e-06 5.442926367150e-03 -2.563793941414e-03 3.349867990512e-03
446 3 2.066692661851e-03 5.946909687623e-03 3.207334266060e-03 3.856860481509e+00 1.871915950542e+01 -1.242528011452e+01 -1.182088729769e+04 -5.920381618316e+03 -7.671592023945e+03 9.531250000000e-04 9.067304510808e-06 -3.856903017888e-03 -1.871936595449e-02 1.242541714992e-02
447 3 1.288645555569e-02 1.307337142213e-02 7.316854223609e-03 -1.069471501267e+01 8.994863940240e+00 1.219842966917e+00 2.990281187919e+02 3.083879649094e+03 -5.117398417342e+03 9.531250000000e-04 9.067304510808e-06 1.069483296209e-02 -8.994963142414e-03 -1.219856420269e-03
448 3 7.789258526809e-03 1.419533362579e-02 5.756251368494e-03 4.228716285745e+00 -2.798908839725e-01 -2.464812851973e+01 5.346064686733e+02 -2.376516124508e+02 8.275676593543e+03 9.531250000000e-04 9.067304510808e-06 -4.228762923232e-03 2.798939708212e-04 2.464840035796e-02
449 3 7.216287005939e-03 9.672651039827e-03 2.866825968149e-03 1.988952026209e-01 -3.142414742784e-01 1.829259157841e+01 -1.005553319165e+03 -7.141492475507e+02 2.150171994403e+03 9.531250000000e-04 9.067304510808e-06 -1.988973961879e-04 3.142449399714e-04 -1.829279332297e-02
450 3 1.307614181825e-02 1.434290150821e-02 8.297048705200e-04 6.763811239508e+00 4.436331533083e+00 -1.961256880974e+00 1.083223091215e+04 2.800731361861e+02 -1.061301498007e+03 9.531250000000e-04 9.067304510808e-06 -4.398423933663e-01 -9.910438674646e-01 2.156910305377e+00
451 3 2.083812601774e-03 1.318400631583e-02 1.306481036942e-03 -1.063520573390e-01 -7.705982525707e+00 -2.785982324768e+01 -4.563625343439e+03 1.019847645331e+04 6.845580576015e+03 9.531250000000e-04 9.067304510808e-06 1.063532302701e-04 7.706067513120e-03 2.786013050692e-02
452 3 7.896489328208e-03 3.638162442904e-03 1.783934145049e-03 -5.024337774297e+00 -8.355706393624e+00 7.942035273893e-02 -2.146889781011e+02 -8.166650833718e+03 -2.185751058933e+03 9.531250000000e-04 9.067304510808e-06 5.024393186500e-03 8.355798546684e-03 -7.942122864674e-05
453 3 1.233304314417e-02 6.190606839035e-03 5.519643637848e-03 1.221919301761e+01 1.753927489123e+01 6.205205710494e+00 4.429339632905e+03 1.481239163814e+04 4.652680315270e+03 9.531250000000e-04 9.067304510808e-06 -1.221932778013e-02 -1.753946832764e-02 -6.205274146203e-03
454 3 1.098359353239e-02 7.138829704391e-03 1.120038524605e-02 5.305617473248e+00 9.970039646951e-01 1.286276822561e+01 -4.051461958498e+03 6.793503258959e+03 -2.041802358018e+03 9.531250000000e-04 9.067304510808e-06 -5.305675987617e-03 -9.970149604101e-04 -1.286291008597e-02
455 3 6.245982746815e-03 3.483504941394e-03 1.174536125147e-02 -9.889436437749e+00 -6.756033054818e+00 -9.572935131343e+00 3.311341444362e+03 3.287642391884e+03 -3.373292865744e+03 9.531250000000e-04 9.067304510808e-06 9.889545505945e-03 6.756107565469e-03 9.573040708923e-03
456 3 6.765204312328e-03 4.710331487164e-03 7.373827006718e-03 -1.207282180263e+01 -3.842374915643e-01 -1.185728825019e+01 -2.296404093190e+03 1.070435924966e+04 -1.898140689712e+03 9.531250000000e-04 9.067304510808e-06 1.207295495085e-02 3.842417292264e-04 1.185741902135e-02
457 3 3.184991750063e-03 3.710841860407e-03 2.388791610922e-03 -1.912664913103e+01 1.526260445227e+01 -5.726026512617e+00 -6.130465666558e+03 2.642479863175e+03 -1.243775896936e+04 9.531250000000e-04 9.067304510808e-06 1.912686007420e-02 -1.526277277984e-02 5.726089663575e-03
458 3 6.130312669572e-03 3.276850301403e-03 5.653774472437e-03 5.037219345026e+00 -1.516614472659e+01 7.356246143010e+00 9.343712416524e+03 5.118659797037e+03 1.605088330240e+04 9.531250000000e-04 9.067304510808e-06 -5.037274899297e-03 1.516631199032e-02 -7.356327273265e-03
459 3 3.098334929711e-03 1.330337912885e-02 9.575124146817e-03 -1.767684914806e+01 1.241256441042e+01 -6.358640092845e+00 6.962523433147e+03 4.280387644902e+03 -5.145166624022e+02 9.531250000000e-04 9.067304510808e-06 1.767704410174e-02 -1.241270130558e-02 6.358710220744e-03
460 3 7.310783660520e-03 5.771583049198e-03 2.912445543628e-03 1.201911191128e+01 -1.286667743892e+01 -3.752537783050e+00 7.491249386123e+03 -3.024221438544e+03 -6.025331872957e+03 9.531250000000e-04 9.067304510808e-06 -1.201924446715e-02 1.286681934239e-02 3.752579168879e-03
461 3 1.382783641025e-02 6.361709342458e-03 1.238949055631e-02 -5.857257281117e+00 -2.750977283212e+00 -1.710833844392e+00 1.316035461197e+04 -3.905344595580e+03 -5.289603429580e+03 9.531250000000e-04 9.067304510808e-06 5.857321879387e-03 2.751007623073e-03 1.710852712763e-03
462 3 9.126742392819e-03 1.042789755615e-02 1.178200308454e-02 -2.564336898083e+01 -1.526328011809e+01 1.567585595530e+00 -9.312257009682e+02 2.690986974358e+03 7.766597156654e+03 9.531250000000e-04 9.067304510808e-06 2.564365179532e-02 1.526344845310e-02 -1.567602884052e-03
463 3 8.290160892190e-03 1.047457747053e-02 8.878276713863e-03 2.544623366081e+00 8.591100070902e+00 -1.395970117053e+01 1.312178220172e+03 1.044715863685e+04 -6.745225966973e+03 9.531250000000e-04 9.067304510808e-06 -2.544651430115e-03 -8.591194820061e-03 1.395985512869e-02
464 3 6.168839974096e-03 5.491731975626e-03 1.317906966175e-02 -1.762396020555e+00 -8.319437260221e-01 -7.667489177123e+00 1.486862295232e+04 1.665377706555e+03 -6.639159905499e+03 9.531250000000e-04 9.067304510808e-06 1.762415457594e-03 8.319529013278e-04 7.667573740002e-03
465 3 3.609177727614e-03 2.103101075779e-04 7.477210117353e-03 1.409581773741e+01 -1.970393428978e+00 -1.300394187609e+01 -5.039253278319e+03 4.198806044706e+03 -4.756773791239e+03 9.531250000000e-04 9.067304510808e-06 -1.409597319677e-02 1.970415159969e-03 1.300408529341e-02
466 3 1.358207475315e-02 1.130715365979e-02 1.082422559762e-02 -2.130860129124e+01 2.227838176995e+00 8.907660664694e+00 -3.726109302184e+03 -1.624149295257e+03 -7.738549228142e+03 9.531250000000e-04 9.067304510808e-06 2.130883629864e-02 -2.227862747282e-03 -8.907758905124e-03
467 3 1.169090161343e-02 1.306634244720e-03 9.849902744110e-03 1.544235677790e+01 -1.752990437503e+01 -5.941605484203e+00 -3.469785135029e+03 -1.311227377699e+03 -8.239941625465e+02 9.531250000000e-04 9.067304510808e-06 -1.544252708791e-02 1.753009770810e-02 5.941671012730e-03
468 3 9.491213669005e-03 1.223851712027e-02 1.325173203850e-03 -2.161231857649e+00 -1.340752802231e+01 -1.559201002576e+00 2.007301983751e+03 -4.352993389385e+03 1.014906275106e+03 9.531250000000e-04 9.067304510808e-06 2.161255693351e-03 1.340767589068e-02 1.559218198626e-03
469 3 3.376626736564e-05 8.771475321810e-03 1.291973391323e-02 9.021036821589e+00 1.296221549022e+01 -8.604294932667e+00 -5.465509065600e+03 7.460947327021e+03 1.447002039446e+02 9.531250000000e-04 9.067304510808e-06 -9.021136312417e-03 -1.296235844735e-02 8.604389827350e-03
470 3 1.668571869880e-03 6.688734972507e-03 3.603983172905e-03 -2.488855538740e+00 -1.640037019534e+00 5.100444460726e+00 2.110215828022e+03 3.482001215461e+03 3.566958927858e+03 9.531250000000e-04 9.067304510808e-06 2.488882987725e-03 1.640055107104e-03 -5.100500712291e-03
471 3 7.239665033220e-03 1.204191386347e-02 9.976409270794e-03 -2.283072937232e+01 1.537032091321e+01 -1.335723756424e+01 3.628248170880e+02 -4.912298484218e+03 7.035423378168e+03 9.531250000000e-04 9.067304510808e-06 2.283098116690e-02 -1.537049042876e-02 1.335738487798e-02
472 3 9.134749038611e-03 7.103789239667e-03 5.013072637269e-03 -3.077186745344e+00 -1.353644741088e+01 -5.170833887596e+00 -1.199397962137e+03 -2.665610657483e+03 -5.492971464840e+03 9.531250000000e-04 9.067304510808e-06 3.077220682891e-03 1.353659670107e-02 5.170890915469e-03
473 3 3.328234997403e-03 2.621579731954e-03 6.793235996975e-03 -2.941250825578e+00 3.541868776139e-01 -1.986789012937e+01 -4.688305806637e+03 -6.993901404498e+03 1.167712736731e+04 9.531250000000e-04 9.067304510808e-06 2.941283263920e-03 -3.541907838551e-04 1.986810924751e-02
474 3 1.028042081937e-02 4.270832981754e-04 2.940469139235e-03 5.363554832935e+00 7.663856614773e+00 9.331768829044e+00 8.021963317499e+02 2.351812505958e+03 -1.522362809580e+03 9.531250000000e-04 9.067304510808e-06 -5.363613986281e-03 -7.663941137589e-03 -9.331871746860e-03
475 3 1.013188295335e-02 1.321949528085e-02 1.411144140653e-02 -5.817169040939e+00 -9.656206999692e+00 1.014644991018e+01 6.658146252765e+02 2.259591466495e+03 -2.157289416232e+03 9.531250000000e-04 9.067304510808e-06 5.817233197085e-03 9.656313495657e-03 -1.014656181291e-02
476 3 1.507702118815e-02 1.040059720160e-02 3.338279024296e-03 -1.374888151635e+01 8.324759569336e+00 -2.059857952351e+00 -2.324983596046e+03 -7.588035560972e+03 1.236426859816e+04 9.531250000000e-04 9.067304510808e-06 1.374903314943e-02 -8.324851381091e-03 2.059880670025e-03
477 3 5.490967801864e-03 6.532664876683e-03 1.154990196479e-03 6.603693818783e+00 -2.849414620025e+01 5.685486090482e+00 1.961237032008e+04 -1.399564365776e+04 2.308353290541e+03 9.531250000000e-04 9.067304510808e-06 -6.603766649321e-03 2.849446045528e-02 -5.685548794329e-03
478 3 7.203392897762e-03 4.454501480951e-03 5.597863914788e-03 2.833153149273e+00 -1.314685293294e+01 1.868059776217e+00 -8.195523547384e+03 2.139222585645e+03 -7.024101117179e+03 9.531250000000e-04 9.067304510808e-06 -2.833184395433e-03 1.314699792639e-02 -1.868080378596e-03
479 3 1.409762048856e-02 5.694399763966e-03 1.730871896808e-03 -3.489243923439e+00 -9.067712450609e+00 -1.064269704043e+01 -5.235949916600e+03 -2.833882154254e+03 -2.280598928643e+03 9.531250000000e-04 9.067304510808e-06 3.489282405464e-03 9.067812456211e-03 1.064281441616e-02
480 3 1.197423997957e-02 9.712048588747e-03 1.248660029047e-02 6.258451308670e+00 -9.675379198810e+00 -1.047230626461e+01 -3.611936826365e+03 -7.998249557799e+03 9.043241706978e+03 9.531250000000e-04 9.067304510808e-06 -6.258520331612e-03 9.675485906221e-03 1.047242176114e-02
481 3 1.280024188070e-03 9.214929500117e-03 4.734301983329e-03 -4.220159254139e+00 -1.397730307351e+01 6.776084200132e+00 -2.993490221299e+03 -1.611730853852e+03 -6.257894858752e+03 9.531250000000e-04 9.067304510808e-06 4.220205797253e-03 1.397745722580e-02 -6.776158931921e-03
482 3 7.569346695832e-03 1.032706126118e-02 8.171825871556e-03 2.525817423250e+01 -4.750666378344e+00 1.545369250264e+00 -5.916609224224e+02 -1.681053495658e+03 3.876397984561e+03 9.531250000000e-04 9.067304510808e-06 -2.525845279878e-02 4.750718772292e-03 -1.545386293766e-03
483 3 4.829543285612e-03 1.445142354708e-02 1.453631763300e-02 4.433018410093e+00 2.140378107976e+01 -5.012622000933e-02 5.727102963986e+03 -5.564892132191e+03 -4.281390290926e+03 9.531250000000e-04 9.067304510808e-06 3.020644706485e-02 -7.476829730267e-01 -1.454158960978e+00
484 3 1.438542871870e-02 3.670090777199e-03 9.202649500115e-03 9.521076098936e+00 1.706231642925e+01 7.527826172176e+00 -2.362888061245e+03 7.607449988750e+03 -4.845958747210e+03 9.531250000000e-04 9.067304510808e-06 -9.521181104575e-03 -1.706250460540e-02 -7.527909194746e-03
485 3 1.075708862600e-02 7.572031714068e-03 3.867554543833e-03 3.554374250716e+00 9.816761472039e+00 -6.805195195719e+00 2.276329761135e+03 -8.409697747266e+02 -1.255468936308e+04 9.531250000000e-04 9.067304510808e-06 -3.554413451048e-03 -9.816869738721e-03 6.805270248567e-03
486 3 7.256403872369e-03 1.301810999885e-02 1.185647913023e-02 8.427173164057e+00 5.388815700752e+00 -7.646735599188e+00 6.825427281412e+03 -5.255943555361e+03 3.769680465786e+03 9.531250000000e-04 9.067304510808e-06 -8.427266105306e-03 -5.388875132693e-03 7.646819933181e-03
487 3 6.023932188202e-03 1.394202408705e-02 3.880870299969e-03 -1.095406582671e+00 4.093431766142e+00 -1.597554826269e+00 1.683014574997e+03 2.553477253998e+03 -3.996284097279e+03 9.531250000000e-04 9.067304510808e-06 1.095418663644e-03 -4.093476911608e-03 1.597572445314e-03
488 3 5.031338626827e-03 2.911009844888e-03 8.998651292213e-04 1.004215856267e+01 1.198661324464e+01 5.197585432037e+00 -1.237927194304e+04 7.027312500234e+03 1.630169949026e+03 9.531250000000e-04 9.067304510808e-06 -4.321061469687e-01 -3.451159740188e-02 -8.505266574604e-01
489 3 1.318792447777e-02 1.327903110812e-02 1.029174555584e-03 -6.658039222021e+00 -6.421950630076e+00 2.577036553615e+00 6.807792408344e+03 -7.078341030488e+03 -4.232325318865e+03 9.531250000000e-04 9.067304510808e-06 6.658112651921e-03 6.422021456213e-03 -2.577064975126e-03
490 3 2.758159340545e-03 1.532649220619e-02 1.418670561958e-02 -1.102754314017e+01 1.904093079649e+01 -1.336163429440e+00 -7.065441720516e+03 3.645274855334e+03 3.027114230177e+03 9.531250000000e-04 9.067304510808e-06 1.102766476027e-02 -1.904114079430e-02 1.336178165663e-03
491 3 6.822894586659e-04 1.505229138075e-02 1.287444132376e-03 1.419133858150e+01 6.290098218306e+00 2.506579157660e+00 2.662627626543e+03 4.124901139114e+03 2.123799388281e+03 9.531250000000e-04 9.067304510808e-06 -1.419149509433e-02 -6.290167590274e-03 -2.506606802114e-03
492 3 1.010194085758e-02 1.612679474423e-03 1.214743157047e-02 -2.032304762563e+01 1.273590494842e+01 6.002780043237e+00 -3.253744596004e+03 4.444965723541e+03 3.558956659405e+03 9.531250000000e-04 9.067304510808e-06 2.032327176359e-02 -1.273604540963e-02 -6.002846246443e-03
493 3 1.517397811049e-02 1.344536239290e-03 1.431254748581e-02 -2.099376920760e+01 -5.699370141810e+00 2.831558715052e+00 -2.089455899650e+03 2.414255990781e+03 1.185060863770e+03 9.531250000000e-04 9.067304510808e-06 -2.060493703169e+01 -3.818268027873e+00 1.021988777301e+00
494 3 7.375072057915e-03 9.000685940320e-03 1.100110574939e-02 4.618666729215e+00 -4.561514543572e-01 1.521902630294e+01 -1.025734886368e+04 -6.672520448154e+03 -7.313797616706e+03 9.531250000000e-04 9.067304510808e-06 -4.618717667371e-03 4.561564851410e-04 -1.521919414989e-02
495 3 9.587051784618e-03 1.401630289386e-03 8.845789151690e-03 3.059709295955e+00 -1.464203676633e+01 -4.779905033555e-01 -4.407234906183e+03 -2.486011584709e+03 -4.681365339682e+03 9.531250000000e-04 9.067304510808e-06 -3.059743040747e-03 1.464219824980e-02 4.779957749968e-04
496 3 6.842593578616e-03 5.620217984286e-03 8.799557959469e-03 1.969309017392e+01 1.004962276542e+01 1.281066851949e+01 4.261448888383e+03 -3.113966254774e+03 3.576284333090e+03 9.531250000000e-04 9.067304510808e-06 -1.969330736424e-02 -1.004973360027e-02 -1.281080980525e-02
497 3 1.110186553293e-02 2.467307112251e-03 1.060500165643e-02 -5.308406032760e+00 4.442780048659e+00 -1.269561142755e+01 3.872878258243e+03 -5.921664437449e+03 -2.317928863566e+03 9.531250000000e-04 9.067304510808e-06 5.308464577883e-03 -4.442829047003e-03 1.269575144437e-02
498 3 1.500530217869e-02 9.966759972248e-03 7.284351367729e-03 -1.252427132506e+01 -7.680763485826e+00 4.852216396639e-01 -4.380230474434e+03 2.646679632609e+03 2.403719196152e+03 9.531250000000e-04 9.067304510808e-06 1.252440945222e-02 7.680848195104e-03 -4.852269910557e-04
499 3 9.822311610306e-03 1.166504775576e-02 1.555190791530e-03 -7.924194224407e+00 9.451489185790e+00 -2.198618970160e+00 1.297660363780e+04 -4.769542654152e+03 2.789917819144e+03 9.531250000000e-04 9.067304510808e-06 7.924281618423e-03 -9.451593423973e-03 2.198643218196e-03
500 3 1.336305916921e-02 1.211755867150e-02 1.970787440691e-03 -1.294850046053e+01 -1.578744879981e+00 -1.049584439841e+01 -2.882952378714e+03 -2.121315741401e+03 6.400083306104e+02 9.531250000000e-04 9.067304510808e-06 1.294864326640e-02 1.578762291575e-03 1.049596015453e-02
