LAMMPS data file via write_data, version 22 Jul 2025, timestep = 200001, units = si

500 atoms
3 atom types

0 0.0153706345204829 xlo xhi
0 0.0153706345204829 ylo yhi
0 0.0153706345204829 zlo zhi

Atoms # sphere

469 3 0.0025 2499.999999999723 0.005603306398343586 0.004026158780579797 0.0037022725414665968 -2 0 0
340 2 0.002 2499.999999999919 0.004423570724167973 0.0014883877922503448 0.0008885017567068315 -5 -6 0
81 1 0.0015 2500.000000000352 0.0020239224258430484 0.006128181562926595 0.0007239433073098591 4 -4 0
113 2 0.002 2499.999999999919 0.006394795746788084 0.005246417916269949 0.0052242621871065025 2 0 0
435 3 0.0025 2499.999999999723 0.002770412766519241 0.003595041447819797 0.0060301142553718995 -4 -1 0
431 3 0.0025 2499.999999999723 0.006128052798928662 0.0012257928825494212 0.006124599123449979 -1 7 0
355 2 0.002 2499.999999999919 0.0029051299927238105 0.0014853531121245612 0.006606655449953333 1 -4 0
404 3 0.0025 2499.999999999723 0.00037082073732938993 0.0060330088007759216 0.00209247961472429 5 9 0
110 2 0.002 2499.999999999919 0.005894987076370018 0.007104435686157938 0.0011487888590178432 0 -8 0
229 2 0.002 2499.999999999919 0.006487875443762871 0.004825318938004493 0.0070320496938166095 0 1 0
339 2 0.002 2499.999999999919 0.001986408334206254 0.007137382461530353 0.0030605426510288106 2 -2 0
53 1 0.0015 2500.000000000352 0.0011724278373972138 0.0013755718034423622 0.006733128742308101 -4 10 0
313 2 0.002 2499.999999999919 0.0035553051617091633 0.003096625732919768 0.0012533676720117993 -2 -2 0
297 2 0.002 2499.999999999919 0.003297539934962734 0.007203644176547004 0.004368789243060813 1 2 0
353 2 0.002 2499.999999999919 0.004546893344535168 0.0025174413774012388 0.006736263765256945 -1 1 0
411 3 0.0025 2499.999999999723 0.006401393801900711 0.00704229072008614 0.007471391595655813 0 -1 0
403 3 0.0025 2499.999999999723 0.004011409766743359 0.0021680532712726013 0.004482146137898097 -1 0 0
147 2 0.002 2499.999999999919 0.004224193676935857 0.00038789727796788835 0.005728743053288131 -4 -3 0
210 2 0.002 2499.999999999919 0.0031000480343579707 0.005291550315760911 0.007193830250618771 2 -2 0
275 2 0.002 2499.999999999919 0.0024756198048890266 0.0015017873781939851 0.0010105013700947702 -3 -3 0
99 1 0.0015 2500.000000000352 0.0054700466612234025 0.0011978987505668888 0.00339892071441459 2 -4 0
154 2 0.002 2499.999999999919 0.004871688616237171 0.002467820944439602 0.002463153492970891 -6 -2 0
1 1 0.0015 2500.000000000352 0.0060753885604163975 0.006792255285777198 0.005391220009373468 2 1 0
266 2 0.002 2499.999999999919 0.0012431226345818631 0.005371732477135163 0.006646805624958352 -6 -1 0
127 2 0.002 2499.999999999919 0.0006170851432824382 0.0064494079086678865 0.004228727936491665 -1 7 0
291 2 0.002 2499.999999999919 0.0006747415395523264 0.0008994145223022359 0.0030683768496031767 -1 0 0
78 1 0.0015 2500.000000000352 0.001059859648414583 0.0006621962441777525 0.0006668003029642492 -3 3 0
144 2 0.002 2499.999999999919 0.0021873762659338253 0.0023384107969435285 0.003208563596630275 -2 -4 0
465 3 0.0025 2499.999999999723 0.004368745495333393 0.006333612444474021 0.005941343671949254 -4 4 0
45 1 0.0015 2500.000000000352 0.00485586508192012 0.004436363331458126 0.0006828195942800093 1 -4 0
161 2 0.002 2499.999999999919 0.007410971385289527 0.007635093382330727 0.005606978378852974 -2 0 0
148 2 0.002 2499.999999999919 0.0029273653040616334 0.0053604518929217335 0.003963003704463406 6 -4 0
241 2 0.002 2499.999999999919 0.0018227798920476598 0.0019737386506292606 0.0050422752904565795 1 5 0
307 2 0.002 2499.999999999919 0.005669750172449329 0.005301096573104298 0.0019373019998241818 4 0 0
343 2 0.002 2499.999999999919 0.007345622933217183 0.0003480863448256911 0.0008840983249841319 3 -2 0
196 2 0.002 2499.999999999919 0.003530040927763521 0.0037730487784709507 0.0030791768757270055 -2 0 0
485 3 0.0025 2499.999999999723 0.0038761197698690257 0.0063825941571478756 0.002316482827501947 -1 -9 0
498 3 0.0025 2499.999999999723 0.0016840421620283289 0.003927802100552788 0.001844346425046841 -2 0 0
15 1 0.0015 2500.000000000352 0.0023463876237955483 0.006700942650703914 0.006755623028771003 2 -1 0
236 2 0.002 2499.999999999919 0.006748102781222067 0.00048461890675798947 0.004213668442835722 0 6 0
443 3 0.0025 2499.999999999723 0.0025850682219506526 0.0002951566176787456 0.003990216517778822 -1 4 0
64 1 0.0015 2500.000000000352 0.005699116623682956 0.0004627171534100646 0.0011051962673870198 0 1 0
98 1 0.0015 2500.000000000352 0.005657937212409469 0.0028535051539793363 0.0052245017359807844 4 -1 0
50 1 0.0015 2500.000000000352 0.0009160770403253502 0.005127793176004273 0.0006092017825564407 -2 6 0
382 2 0.002 2499.999999999919 0.004874007186239869 0.004264764351865444 0.006091491699375192 1 -2 0
430 3 0.0025 2499.999999999723 0.0005249630330051446 0.003254972609955255 0.00672988155302353 2 -1 0
393 2 0.002 2499.999999999919 0.003270496874356787 0.004967053847365303 0.0008874584129513754 -2 0 0
121 2 0.002 2499.999999999919 0.007174183418456194 0.006606229988741842 0.003976605907644951 -1 -3 0
235 2 0.002 2499.999999999919 0.006584722513492218 0.001497763092552099 0.0021282716205527396 -6 -2 0
124 2 0.002 2499.999999999919 0.005282231039270344 0.006182881100466916 0.003960783681766042 2 0 0
103 2 0.002 2499.999999999919 0.0001741131557060981 0.002833283111933852 0.003208174233571352 -1 3 0
85 1 0.0015 2500.000000000352 0.0016238472170177704 0.006628293766721003 0.005556753814736523 3 -3 0
219 2 0.002 2499.999999999919 0.004350313177786912 0.00015772253079300927 0.002723200290579519 -4 1 0
59 1 0.0015 2500.000000000352 0.0040975618869130035 0.007254332049539004 0.0006550283958016405 0 6 0
418 3 0.0025 2499.999999999723 0.001132435465118165 0.004341411259506203 0.00445949301564654 -1 0 0
82 1 0.0015 2500.000000000352 0.007166740432851808 0.005631951380698663 0.002578925356053299 0 1 0
13 1 0.0015 2500.000000000352 0.00668483685926382 0.005740639923659512 0.0006688701486675375 0 -2 0
254 2 0.002 2499.999999999919 0.007059661339265032 0.0024375324137218602 0.0036921065868282844 4 4 0
123 2 0.002 2499.999999999919 0.0007926395850675504 0.00036927760849751436 0.005364812474412099 2 -6 0
395 2 0.002 2499.999999999919 0.000569228204264155 0.002038788550219196 0.0014916915763363845 1 2 0
470 3 0.0025 2499.999999999723 0.006372737996742543 0.0034116864984809325 0.001210194006160631 -1 -3 0
8 1 0.0015 2500.000000000352 0.005883241046751822 0.007316656977790908 0.0028905420171088467 -3 0 0
487 3 0.0025 2499.999999999723 0.006833030562329404 0.002860567819038902 0.007685089109991862 7 -1 0
77 1 0.0015 2500.000000000352 0.0072027908242558135 0.006558574530004894 0.013061816384642657 0 10 0
335 2 0.002 2499.999999999919 0.0019204532969545275 0.007377308403011673 0.008245912485954536 6 1 0
402 3 0.0025 2499.999999999723 0.0073910694908112485 0.0030362460492327657 0.012002229403989506 -2 0 0
10 1 0.0015 2500.000000000352 0.0028505093672755643 0.0031814627677690787 0.013160017518314396 0 -4 0
57 1 0.0015 2500.000000000352 0.006116969572061523 0.004646750594834429 0.008724076361654915 1 1 0
101 2 0.002 2499.999999999919 0.0033211658409005107 0.004053055389502136 0.01001904293347752 0 1 0
171 2 0.002 2499.999999999919 8.137017796980342e-05 0.003297561328691842 0.011012967048029298 1 6 0
222 2 0.002 2499.999999999919 0.00486797649572597 0.006604905452709079 0.011412376033297712 -5 10 0
449 3 0.0025 2499.999999999723 0.0006451465724203333 0.004464082882589158 0.01279292375205974 4 2 0
243 2 0.002 2499.999999999919 0.0009278697794152618 0.0013822109453641475 0.01206711583462265 4 4 0
370 2 0.002 2499.999999999919 0.005322025583627861 8.41596529302873e-06 0.009603835328604468 2 -2 0
300 2 0.002 2499.999999999919 0.005638933100181609 0.0011709357471203115 0.014417588667264423 3 3 0
67 1 0.0015 2500.000000000352 0.0017127223709499674 0.004126782027907539 0.014643197656623442 -7 6 0
234 2 0.002 2499.999999999919 0.004485444364486809 0.006804443481221111 0.014375812346982556 -4 0 0
346 2 0.002 2499.999999999919 0.0072679553671941835 0.004643909006535488 0.010515464780825714 4 -2 0
27 1 0.0015 2500.000000000352 0.006515762239161379 0.006534299597317332 0.011746294239579543 -8 -2 0
380 2 0.002 2499.999999999919 0.0039380030569062885 0.0029757918236563694 0.011577609379111151 -3 3 0
172 2 0.002 2499.999999999919 0.006662010561741994 0.0013192226306328629 0.009046817252354395 -10 5 0
37 1 0.0015 2500.000000000352 0.002507622942294329 0.002256786809916015 0.014669231072298226 -5 0 0
459 3 0.0025 2499.999999999723 0.0013595987183385695 0.0033651883312836753 0.00922807620013972 -1 1 0
320 2 0.002 2499.999999999919 0.005711402014009297 0.007420130863344911 0.01296959063357184 -1 -2 0
12 1 0.0015 2500.000000000352 0.005852556590021171 0.0019760427033749138 0.012950095340693012 -5 -1 0
36 1 0.0015 2500.000000000352 0.004936328152135144 0.00364971410535334 0.009793198557595821 -5 2 0
183 2 0.002 2499.999999999919 0.007043370955764456 0.004892681068740269 0.013124923904264733 4 0 0
421 3 0.0025 2499.999999999723 0.004296873205733742 0.0009579486658258977 0.01249460183726602 -2 0 0
369 2 0.002 2499.999999999919 0.0028428492775636046 0.005485433676656431 0.01435500376888484 -4 2 0
483 3 0.0025 2499.999999999723 0.0009022917703492602 0.0009138545300183024 0.014238093694921938 0 1 0
301 2 0.002 2499.999999999919 0.0039507520776978205 0.0042892767578675065 0.013356593240439411 -3 -6 0
160 2 0.002 2499.999999999919 0.004846961315456744 0.0019478230279130516 0.008610285302864338 -2 2 0
176 2 0.002 2499.999999999919 0.00012450129142115355 0.004877249417922904 0.008136456618319965 -1 0 0
184 2 0.002 2499.999999999919 0.0041541839333407915 0.002472357760828551 0.014148799658303797 -6 5 0
261 2 0.002 2499.999999999919 0.0018405382222934418 0.005489235488275785 0.008807994800466555 -2 3 0
181 2 0.002 2499.999999999919 0.0007791326710406192 0.005709028992998294 0.014504510447094332 0 -3 0
389 2 0.002 2499.999999999919 0.002421450883161346 0.001670323591092677 0.013084267227489135 -1 3 0
480 3 0.0025 2499.999999999723 0.0057069306002739805 0.001748117119528748 0.010861253126605897 0 5 0
238 2 0.002 2499.999999999919 0.004486975512811235 0.005696772751722434 0.009731615667190009 -1 -1 0
371 2 0.002 2499.999999999919 0.0033552134353510123 0.0021730085203281353 0.00989557617324914 0 -4 0
311 2 0.002 2499.999999999919 0.001966844689502506 0.0071724405951744995 0.01440620474786349 4 1 0
330 2 0.002 2499.999999999919 0.005586395329458486 0.003591895856368946 0.012781669975698351 1 2 0
375 2 0.002 2499.999999999919 0.00317724354662349 0.0029001129312091613 0.008077266372997868 3 -6 0
32 1 0.0015 2500.000000000352 0.007385525088810526 0.0011959407698477992 0.01322499474938312 -4 5 0
209 2 0.002 2499.999999999919 0.001999407662540181 0.0013583825071239715 0.008301705820943112 -6 -1 0
312 2 0.002 2499.999999999919 0.005264251021646274 0.005580928598364375 0.013074380699994597 2 2 0
304 2 0.002 2499.999999999919 0.0028158104538715274 0.006764732561242935 0.009898416164975898 -3 -1 0
76 1 0.0015 2500.000000000352 0.005087168193702499 0.0036485949984473858 0.008303600044098136 -5 1 0
49 1 0.0015 2500.000000000352 0.0028460494294200215 0.0016546553707725694 0.011424653751354943 -3 4 0
119 2 0.002 2499.999999999919 0.0048089099491875785 0.004700897871921736 0.011398777741408541 4 1 0
492 3 0.0025 2499.999999999723 0.002711484870088842 0.004983731626152567 0.011803615590524869 4 -3 0
292 2 0.002 2499.999999999919 0.005510938691115714 0.0042901606258103605 0.014494402823368162 8 1 0
29 1 0.0015 2500.000000000352 0.003492952713434162 0.004777649234223275 0.008643590305426775 7 1 0
232 2 0.002 2499.999999999919 0.00041471581318411126 0.0030197373328524025 0.014435020824710558 4 1 0
73 1 0.0015 2500.000000000352 0.003147508803333628 0.0038241873741531656 0.014706341446165094 1 3 0
249 2 0.002 2499.999999999919 0.003777149439465252 0.000514191167732781 0.014487836318356574 -1 -5 0
2 1 0.0015 2500.000000000352 0.0014902442632132517 0.005814905139914299 0.010489431520949685 1 -5 0
215 2 0.002 2499.999999999919 0.0019519256012091454 0.0029944542012492687 0.011718158139058719 1 -3 0
251 2 0.002 2499.999999999919 0.004865769577755893 0.00536556847373863 0.007863754042671355 2 -1 0
217 2 0.002 2499.999999999919 0.006381358486910809 0.006162019726094881 0.009596311096564922 -3 5 0
7 1 0.0015 2500.000000000352 0.005980273751766166 0.003644132222085512 0.010766076473539768 -1 2 0
437 3 0.0025 2499.999999999723 0.0016717702326452264 0.007004800834879224 0.012284173029704543 1 -4 0
89 1 0.0015 2500.000000000352 3.965555277332649e-05 0.006256226027357611 0.012851961414393253 -3 0 0
90 1 0.0015 2500.000000000352 0.006169296512954303 0.00041496151639665963 0.012823863947389737 -7 7 0
267 2 0.002 2499.999999999919 0.004517276357851523 0.007670292938084308 0.009861009135120164 4 -3 0
193 2 0.002 2499.999999999919 0.003745125883271917 0.00040627216381851144 0.008010386634518047 -6 1 0
34 1 0.0015 2500.000000000352 0.007397417850008693 0.004216039638684118 0.014656723008482052 0 3 0
381 2 0.002 2499.999999999919 0.0038180629931700823 0.006937359284739152 0.008196846970549761 -2 1 0
156 2 0.002 2499.999999999919 0.006375007771271991 0.006237608783531827 0.014475365435472247 -3 -2 0
448 3 0.0025 2499.999999999723 0.000781022327650368 0.0076272900321257804 0.010126530892444724 2 1 0
117 2 0.002 2499.999999999919 0.0003564497791515179 0.0006460386822220429 0.009025291814699896 1 5 0
493 3 0.0025 2499.999999999723 0.002415419747365892 0.0002775065628091126 0.010188590394310934 0 1 0
344 2 0.002 2499.999999999919 0.004249521576070094 0.01285531355527835 0.005608094417543949 4 -6 0
6 1 0.0015 2500.000000000352 0.005742378336694834 0.008654937745343422 0.0024450749603762 2 0 0
284 2 0.002 2499.999999999919 0.0019046264752402195 0.01527007410718106 0.0019502076421380663 7 -9 0
84 1 0.0015 2500.000000000352 0.001508561056852795 0.011463780636198366 0.00229875906594162 0 -4 0
273 2 0.002 2499.999999999919 0.00163877617527417 0.00913126324599101 0.007462354903745208 -4 -4 0
278 2 0.002 2499.999999999919 0.006936010442700014 0.010157830004942981 0.0041944215645570585 0 -1 0
207 2 0.002 2499.999999999919 0.0004863758455017147 0.012346985927716273 0.005074763028741807 1 -4 0
407 3 0.0025 2499.999999999723 0.00486633900329566 0.010299113367594887 0.0033428965516126116 0 2 0
398 2 0.002 2499.999999999919 0.005051842752917046 0.01351538427393457 0.002533662524782833 -2 -3 0
201 2 0.002 2499.999999999919 0.003930275735278991 0.013996864380328745 0.004017479519725865 0 5 0
74 1 0.0015 2500.000000000352 0.0005213430810243602 0.007889657679608236 0.0031524683519625197 4 -6 0
152 2 0.002 2499.999999999919 0.0035149975673464994 0.010972336916634483 0.004947704972193688 -3 -3 0
165 2 0.002 2499.999999999919 0.004659993918504946 0.011154481930222197 0.006391498254176598 8 -2 0
19 1 0.0015 2500.000000000352 0.0024112488148636648 0.009867864824207312 0.005691150435042135 0 -1 0
166 2 0.002 2499.999999999919 0.005906170748984549 0.012264403293192226 0.0009409836863082211 -6 0 0
17 1 0.0015 2500.000000000352 0.0038486481015295873 0.00994930596630069 0.0006196883820953064 1 6 0
477 3 0.0025 2499.999999999723 0.0015741344142955972 0.007995940909040891 0.001168566982818896 -1 2 0
358 2 0.002 2499.999999999919 0.00648719509295736 0.01334653726428154 0.007315199238338005 2 2 0
220 2 0.002 2499.999999999919 0.004320763079722185 0.011314952279727633 0.0014991696975632655 2 -1 0
472 3 0.0025 2499.999999999723 0.00245443200966806 0.009871802123575569 0.002800994369218694 5 -1 0
69 1 0.0015 2500.000000000352 0.004396553905501682 0.013090449676947686 0.0009752344016440088 -6 -3 0
347 2 0.002 2499.999999999919 0.0016706605847209796 0.01256749361896732 0.0008436178365923546 1 -5 0
112 2 0.002 2499.999999999919 0.005929491602459444 0.014191150732267179 0.0009428274729200432 -4 0 0
424 3 0.0025 2499.999999999723 0.0034445086161187287 0.008451460711948126 0.006515102685237972 3 5 0
396 2 0.002 2499.999999999919 0.0006224828847919635 0.010755228939305866 0.0009701547294825205 -2 3 0
145 2 0.002 2499.999999999919 0.007578948606109412 0.009440184876817902 0.0061255397762945505 2 1 0
399 2 0.002 2499.999999999919 0.005704099692827417 0.014503852493803017 0.005941823779394886 -2 1 0
428 3 0.0025 2499.999999999723 0.0021661066804745375 0.01323091919631307 0.0028983436842022 2 -1 0
149 2 0.002 2499.999999999919 0.00159164995838481 0.01093547016329193 0.006676663167095807 -1 0 0
321 2 0.002 2499.999999999919 0.006206479972059014 0.011940004539779586 0.0037953981326978026 -2 -2 0
189 2 0.002 2499.999999999919 0.0042561046486130644 0.014970996922012694 0.0008541711508784439 -1 -1 0
204 2 0.002 2499.999999999919 0.0034177260770724693 0.009131774092255214 0.004528024258831578 2 -3 0
170 2 0.002 2499.999999999919 0.0064997085419874635 0.010950722424999773 0.006024585571345045 1 2 0
22 1 0.0015 2500.000000000352 0.00401914888261481 0.009485677057583833 0.0018673012720618633 7 -1 0
348 2 0.002 2499.999999999919 0.004165547142521884 0.008305683358702496 0.003014981844969591 -5 2 0
475 3 0.0025 2499.999999999723 0.0014391119008006965 0.00837452404295372 0.004809999164126858 0 -2 0
323 2 0.002 2499.999999999919 0.006171764201623397 0.012711436311306666 0.005535465393590785 2 -4 0
276 2 0.002 2499.999999999919 0.002449196186655104 0.012621884345266213 0.00489685946066847 2 -4 0
256 2 0.002 2499.999999999919 0.0016372394405669082 0.01087830249560718 0.004521825946692223 -5 2 0
349 2 0.002 2499.999999999919 0.005697069835800984 0.009392104462000322 0.0067877027377711095 1 2 0
120 2 0.002 2499.999999999919 0.0050720549036700965 0.008789562041719297 0.0009009685860337609 1 -4 0
363 2 0.002 2499.999999999919 0.003022604710579459 0.014345839430562501 0.005685639126428809 -4 -2 0
140 2 0.002 2499.999999999919 0.001268820774261328 0.013847348464231793 0.005948324943100675 -5 -1 0
354 2 0.002 2499.999999999919 0.0007914930352309454 0.01449388240102006 0.003871646913208136 -1 4 0
173 2 0.002 2499.999999999919 0.002883627942397363 0.01390185805612378 0.0010825865553957172 0 -2 0
444 3 0.0025 2499.999999999723 0.005727865018986182 0.008441311011975955 0.004534024251033996 -3 1 0
367 2 0.002 2499.999999999919 0.00022982629712943806 0.008046828371828357 0.006666807145671896 6 2 0
51 1 0.0015 2500.000000000352 0.004592397007463917 0.009721650266230536 0.0055503609304026254 3 -3 0
80 1 0.0015 2500.000000000352 0.0007923537698275303 0.011903934245359857 0.0034981049565548173 -1 3 0
361 2 0.002 2499.999999999919 0.002497625865017142 0.010849745779180766 0.0009116206181368196 -4 2 0
137 2 0.002 2499.999999999919 0.003975809765838185 0.01219729082738804 0.003530089868907009 3 -5 0
58 1 0.0015 2500.000000000352 0.0060833612566768775 0.010408846496368786 0.0007499999711428037 -1 3 0
60 1 0.0015 2500.000000000352 0.0023648041053505363 0.012377702845629442 0.006507277814890853 -2 -1 0
295 2 0.002 2499.999999999919 0.007068869017061649 0.009487631134656244 0.0019123821182899996 2 -3 0
387 2 0.002 2499.999999999919 0.006320033934349017 0.013918486904824801 0.004061775736855212 4 -3 0
257 2 0.002 2499.999999999919 0.00028536363593546364 0.012598401009181474 0.0020808565263856047 2 1 0
179 2 0.002 2499.999999999919 0.007000693545906799 0.01297803241206019 0.0024238390266658493 4 -1 0
18 1 0.0015 2500.000000000352 0.005280981533069383 0.007884099959815783 0.006308854618141633 -2 -4 0
352 2 0.002 2499.999999999919 0.00623218510363621 0.015057069138406074 0.002564015478194034 -1 -1 0
62 1 0.0015 2500.000000000352 0.0030792352878381453 0.014275159422172338 0.007411781810772316 4 3 0
282 2 0.002 2499.999999999919 0.00020938021239619596 0.015031245813516274 0.0070523881783830416 -1 -5 0
92 1 0.0015 2500.000000000352 0.005152420209253498 0.015198020507263823 0.004226249863244285 0 -3 0
125 2 0.002 2499.999999999919 0.007570726310918073 0.014922874870822186 0.005767115413437911 3 1 0
350 2 0.002 2499.999999999919 0.007667049432315432 0.011135207453675904 0.0026686479700360807 -3 -5 0
130 2 0.002 2499.999999999919 0.0023805981130587827 0.015230044825509928 0.012374117242229126 4 1 0
150 2 0.002 2499.999999999919 0.004568126479636193 0.008766216902890756 0.00831549715093755 2 1 0
230 2 0.002 2499.999999999919 0.005612654386405634 0.012442328212989332 0.008776622599885191 -1 2 0
114 2 0.002 2499.999999999919 0.002924144202771163 0.013566297018881728 0.014437630100492578 2 0 0
434 3 0.0025 2499.999999999723 0.0013541073234921489 0.013466263052773505 0.010050912242370386 -2 -6 0
102 2 0.002 2499.999999999919 0.006518798027886376 0.00839051088388181 0.014456846088491918 -6 -1 0
202 2 0.002 2499.999999999919 0.007135810927686283 0.015319346367208731 0.014426894348106284 5 2 0
468 3 0.0025 2499.999999999723 0.00023512147714633766 0.011444943076100797 0.008919051398371961 -3 -2 0
299 2 0.002 2499.999999999919 0.000735238099395219 0.012173454556091864 0.014450182223677915 2 4 0
116 2 0.002 2499.999999999919 0.006208561785931069 0.013853666057157094 0.013594408491231115 3 -2 0
252 2 0.002 2499.999999999919 0.000433958863580139 0.01507688538284497 0.01107978122845742 1 -1 0
392 2 0.002 2499.999999999919 0.002371468856038515 0.011180479826887066 0.009314653753958185 5 0 0
197 2 0.002 2499.999999999919 0.004354104995096656 0.010305579262139385 0.012129370299261706 0 -4 0
61 1 0.0015 2500.000000000352 0.0015676596463266128 0.008772019219341896 0.011575806660646582 -2 -2 0
174 2 0.002 2499.999999999919 0.003179553565778887 0.010279298792617495 0.007793094054584433 4 -4 0
135 2 0.002 2499.999999999919 0.0033858429382465152 0.013885945372415404 0.009346990925959076 -1 6 0
47 1 0.0015 2500.000000000352 0.00424379652427923 0.011789802800911032 0.014643076970952124 -8 0 0
319 2 0.002 2499.999999999919 0.0033931081358727837 0.008393021143378922 0.014469766427800415 -3 -1 0
317 2 0.002 2499.999999999919 0.007357521528301213 0.012662911203020467 0.012463509973850321 -2 -6 0
192 2 0.002 2499.999999999919 0.002059430967127914 0.013342365931723409 0.012648203019409865 6 -3 0
466 3 0.0025 2499.999999999723 0.007434574374339796 0.014889250193698179 0.009990363329310196 -2 4 0
264 2 0.002 2499.999999999919 0.0011899800758504394 0.00998191112849045 0.010518127296014111 -6 3 0
497 3 0.0025 2499.999999999723 0.0065171106026635115 0.008423111856759357 0.009419103546668858 -1 1 0
458 3 0.0025 2499.999999999723 0.006756709618512503 0.010733653053158801 0.014293627239039697 -4 5 0
450 3 0.0025 2499.999999999723 0.004142404593911388 0.01007964140174385 0.010010162190366132 0 -1 0
318 2 0.002 2499.999999999919 0.0032809557133681986 0.01202958373508063 0.013236119304482125 -2 3 0
384 2 0.002 2499.999999999919 0.0017199274621304613 0.011691344824309419 0.011095699841351897 -4 5 0
66 1 0.0015 2500.000000000352 0.0034727658421756734 0.01427053419930535 0.01098441875757918 1 -1 0
463 3 0.0025 2499.999999999723 0.006357586444857284 0.011030055511437991 0.010236048008100298 5 5 0
467 3 0.0025 2499.999999999723 0.00721158755380651 0.010346907951676997 0.008071941240373118 0 2 0
456 3 0.0025 2499.999999999723 0.003509161235084891 0.008374892695956414 0.011621830818760484 1 -3 0
442 3 0.0025 2499.999999999723 0.004715095805437243 0.012808807921457027 0.010710095623556574 -4 1 0
63 1 0.0015 2500.000000000352 0.000979624855374262 0.008505089222599722 0.014652626595472298 -1 -1 0
30 1 0.0015 2500.000000000352 0.0034338923513635364 0.009475529394251012 0.013224590213842162 0 -2 0
294 2 0.002 2499.999999999919 0.0029664623386402326 0.010562301729873276 0.014436696724546736 3 -2 0
163 2 0.002 2499.999999999919 0.0016992588501237508 0.014785824347748734 0.008321676455121989 -1 3 0
447 3 0.0025 2499.999999999723 0.004187225431154897 0.01399540739115679 0.012757641375132679 -4 -3 0
490 3 0.0025 2499.999999999723 0.005397906519453944 0.011966311166069523 0.012838858517903888 -5 1 0
142 2 0.002 2499.999999999919 0.005886737931145997 0.008523576548485456 0.011441179525612166 1 0 0
259 2 0.002 2499.999999999919 0.005068740845093494 0.009180435920186053 0.013511575851835982 2 -4 0
242 2 0.002 2499.999999999919 0.007252054567904043 0.014620356255885555 0.01215259969110942 2 -3 0
258 2 0.002 2499.999999999919 0.0011349985333795182 0.014156708626574293 0.014408904047698333 -7 1 0
83 1 0.0015 2500.000000000352 0.00482808736635993 0.010435083704415487 0.014646400227820166 2 0 0
141 2 0.002 2499.999999999919 0.004918337886662436 0.014211018585622855 0.008143375847597691 -5 -3 0
223 2 0.002 2499.999999999919 0.006306371515790072 0.010119708030680007 0.012287266687338103 -3 1 0
260 2 0.002 2499.999999999919 0.0018404740912001147 0.008912142199823034 0.0132559468396066 5 -3 0
178 2 0.002 2499.999999999919 0.0010597019592994165 0.010175772961926247 0.01444072089104999 1 -2 0
199 2 0.002 2499.999999999919 0.007409193782876009 0.012751179199429159 0.009215718400321314 2 3 0
374 2 0.002 2499.999999999919 0.0009967640201203984 0.011249998516176857 0.012821402736476585 -1 -4 0
306 2 0.002 2499.999999999919 0.002466223913889684 0.01025004748083555 0.012032300708851786 -3 -1 0
360 2 0.002 2499.999999999919 0.0023311651527014843 0.009003780712807436 0.009285034983494355 6 -1 0
86 1 0.0015 2500.000000000352 0.002854411025336855 0.012948164025669328 0.011107916026675296 1 -1 0
87 1 0.0015 2500.000000000352 0.006469630153273164 0.013537755260823844 0.010942185058229036 -4 0 0
225 2 0.002 2499.999999999919 0.005064211789806928 0.010646540007420718 0.008143765247958241 2 -5 0
341 2 0.002 2499.999999999919 0.0016113106887314045 0.012897270301351873 0.007943031707693237 4 -4 0
461 3 0.0025 2499.999999999723 0.0037207293676007145 0.012429156700670074 0.007796075586884689 -1 -7 0
383 2 0.002 2499.999999999919 0.006596814073872469 0.01522463403046519 0.007793648917379365 2 1 0
167 2 0.002 2499.999999999919 0.012388525259912261 0.0015683327996899746 0.006840373568033025 3 -2 0
208 2 0.002 2499.999999999919 0.01462037362916342 0.004486158391455878 0.005466272391216109 -2 -8 0
338 2 0.002 2499.999999999919 0.01351492949728152 0.0023788860506969776 0.004176856618484805 3 -1 0
246 2 0.002 2499.999999999919 0.011863999621523055 0.0053291162668665905 0.00589606705873792 -2 -1 0
390 2 0.002 2499.999999999919 0.014169386699239894 0.0012432451355594188 0.0012065899698447426 5 2 0
5 1 0.0015 2500.000000000352 0.01060951788094821 0.0024941185132812778 0.006421105952365753 -6 -5 0
194 2 0.002 2499.999999999919 0.008610768073784355 0.0008400029850738185 0.00473937943609304 -3 0 0
471 3 0.0025 2499.999999999723 0.008022505090234585 0.004371021553318592 0.004081553833300747 1 1 0
325 2 0.002 2499.999999999919 0.01299791732335386 0.0008059229407606811 0.005214461781716666 -2 -3 0
26 1 0.0015 2500.000000000352 0.009501379482521378 0.004685817378909134 0.005446049204508889 -4 7 0
427 3 0.0025 2499.999999999723 0.014731149263177772 0.0038821026009814514 0.0014076559930867186 -3 -2 0
3 1 0.0015 2500.000000000352 0.014029387129741638 0.004247243412803626 0.006884838574854744 3 -3 0
377 2 0.002 2499.999999999919 0.012029069005827274 0.0033622457837020957 0.005399711394371808 4 -1 0
417 3 0.0025 2499.999999999723 0.008310058220346707 0.004874651090956401 0.0011430100105225877 0 0 0
212 2 0.002 2499.999999999919 0.00976742060527294 0.0033740596782668554 0.0011585046483813632 1 -1 0
397 2 0.002 2499.999999999919 0.014865028115155113 0.0014274302898836676 0.007193059426917064 3 1 0
315 2 0.002 2499.999999999919 0.009626444093742857 0.0053854296713644716 0.00705509796097206 -1 4 0
305 2 0.002 2499.999999999919 0.009786094715948799 0.002998368953995363 0.004704152226592574 1 4 0
200 2 0.002 2499.999999999919 0.00915529379691461 0.0016722409834482824 0.0030907501593112285 4 5 0
368 2 0.002 2499.999999999919 0.007708914947615077 0.0025642624681562693 0.00542668150568495 1 2 0
265 2 0.002 2499.999999999919 0.014564972241601727 0.000488317121210879 0.004197752678465357 -2 1 0
175 2 0.002 2499.999999999919 0.014970190358494074 0.006363195757330859 0.005888924301310129 -3 -3 0
391 2 0.002 2499.999999999919 0.010652720490570642 0.001002758705414407 0.00727347247760007 -2 2 0
91 1 0.0015 2500.000000000352 0.010926768488235978 0.002194839578917893 0.001066323726850716 1 2 0
97 1 0.0015 2500.000000000352 0.013605229163533138 0.0026772952167084577 0.0006266199522291959 2 2 0
405 3 0.0025 2499.999999999723 0.010447537393809487 0.004912753667359307 0.0037242927754898413 -4 3 0
182 2 0.002 2499.999999999919 0.011582856560806074 0.002365777628490639 0.003757516837469238 -2 -2 0
107 2 0.002 2499.999999999919 0.010707143199575851 0.0006073390162935432 0.00350099855356759 -4 1 0
233 2 0.002 2499.999999999919 0.012238957017493678 0.0011301770775744336 0.0009415563255038628 -2 2 0
460 3 0.0025 2499.999999999723 0.01025302943765716 0.0003860066865993284 0.0012037833128723358 -3 7 0
277 2 0.002 2499.999999999919 0.008208594680877845 0.0031155707264462085 0.0023148608818045675 3 -2 0
474 3 0.0025 2499.999999999723 0.01285232393504152 0.0007232529434722269 0.00293194363828461 0 6 0
285 2 0.002 2499.999999999919 0.008587780522031255 0.0018331909823831008 0.0009486013792035008 1 3 0
271 2 0.002 2499.999999999919 0.013068349101202248 0.006763739076325316 0.006301536532992777 -4 3 0
394 2 0.002 2499.999999999919 0.012984230062860074 0.002908094411391789 0.0023801579274084065 2 2 0
52 1 0.0015 2500.000000000352 0.013449206082856142 0.00405203499014411 0.0043368929321973716 -1 2 0
115 2 0.002 2499.999999999919 0.01379652103773763 0.0027346010076780493 0.006105400191418022 0 -3 0
326 2 0.002 2499.999999999919 0.014632730872856098 0.005210432844311683 0.0037609449935224115 0 -13 0
302 2 0.002 2499.999999999919 0.008194133581008694 0.0011842992949344473 0.0065769430710489974 -1 4 0
499 3 0.0025 2499.999999999723 0.011641915072165266 0.004335719052471326 0.0013648069856289152 -1 2 0
342 2 0.002 2499.999999999919 0.011898773020333497 0.0061634438911815324 0.002594808329047194 0 9 0
247 2 0.002 2499.999999999919 0.013204382341129015 0.005844531776910052 0.0009639475443673932 2 -9 0
155 2 0.002 2499.999999999919 0.008735754394871585 0.006093484396312612 0.002894695044424613 4 5 0
476 3 0.0025 2499.999999999723 0.014024885386197929 0.007279458455752276 0.003249900054180866 -1 -2 0
309 2 0.002 2499.999999999919 0.007914585868883299 0.005918398830915739 0.006274482351818846 3 0 0
188 2 0.002 2499.999999999919 0.013273936508721834 0.004862818624879232 0.002596584829135871 4 7 0
23 1 0.0015 2500.000000000352 0.008917968203185763 0.0060095832729494 0.004568969312185244 12 -3 0
496 3 0.0025 2499.999999999723 0.010189267025082757 0.006320236084395348 0.0013159850693236401 8 2 0
337 2 0.002 2499.999999999919 0.010430021306614612 0.0012058228251766126 0.005334433083433689 -2 1 0
14 1 0.0015 2500.000000000352 0.012196562466776086 0.0027269726519807205 0.0006099301732851902 -3 -1 0
288 2 0.002 2499.999999999919 0.008312122643246147 0.004036793652923324 0.006516995212396492 2 5 0
224 2 0.002 2499.999999999919 0.011043887672475734 0.004021588471625419 0.006975637234460279 -3 -1 0
16 1 0.0015 2500.000000000352 0.010584245441849471 0.0032384443294449713 0.0026646227422269008 -1 4 0
372 2 0.002 2499.999999999919 0.010280337237498837 0.00631211982411795 0.005463775120563681 2 -4 0
131 2 0.002 2499.999999999919 0.015263224117421936 0.0020893598874453744 0.0050048026751526985 -6 0 0
376 2 0.002 2499.999999999919 0.012758244668944516 0.00557857431341432 0.00426020882497735 3 -6 0
373 2 0.002 2499.999999999919 0.014364036568507512 0.0073525620427481635 0.0010538243351039629 -7 -3 0
378 2 0.002 2499.999999999919 0.012097349395138046 0.007379691062567587 0.0042539805699186506 4 4 0
262 2 0.002 2499.999999999919 0.00785695051068905 0.00702791694859839 0.0009833001431233217 4 1 0
412 3 0.0025 2499.999999999723 0.011201339415749065 0.006841136503052955 0.00750121329544636 1 4 0
272 2 0.002 2499.999999999919 0.012803199670808401 0.003452801443519823 0.0076191956271832685 -1 5 0
109 2 0.002 2499.999999999919 0.01424645325770996 0.0059121071282921 0.014063185438481693 1 -1 0
481 3 0.0025 2499.999999999723 0.00920567225223071 0.004584170366338813 0.013063169455715685 5 0 0
414 3 0.0025 2499.999999999723 0.009140993995827469 0.002251737784201708 0.00806007327662249 0 -1 0
180 2 0.002 2499.999999999919 0.01365378401565475 0.0027750021738481767 0.014400390596589778 -2 1 0
56 1 0.0015 2500.000000000352 0.008175255130409209 0.00546382825009896 0.014511741434204984 5 7 0
426 3 0.0025 2499.999999999723 0.00953074088684157 0.0022339574876978152 0.01252375654432646 1 -5 0
385 2 0.002 2499.999999999919 0.01280917302767754 0.00254779932424384 0.00931363636892452 -6 -2 0
413 3 0.0025 2499.999999999723 0.009829698177183833 0.007454020733967843 0.011305210378941818 1 2 0
410 3 0.0025 2499.999999999723 0.012315190479619986 0.007043230176241895 0.014235605694401895 4 -3 0
198 2 0.002 2499.999999999919 0.012649504896523037 0.006053933233634472 0.012396192549207806 -2 -1 0
72 1 0.0015 2500.000000000352 0.014446286187421914 0.0035146073228640973 0.007982042390057783 0 5 0
158 2 0.002 2499.999999999919 0.012674328994757685 0.004818738999197288 0.014381929751221111 1 3 0
248 2 0.002 2499.999999999919 0.014936152023358686 0.0025824331034126086 0.012766634714257635 4 2 0
31 1 0.0015 2500.000000000352 0.009244984562971943 0.003746428056983489 0.008969945042973645 0 -3 0
40 1 0.0015 2500.000000000352 0.013796737063279546 0.0014989689414467823 0.013244899291053132 1 -2 0
357 2 0.002 2499.999999999919 0.007866556996581326 0.0016056031278102454 0.01047933987725954 -2 -6 0
75 1 0.0015 2500.000000000352 0.008873043305961824 0.00376237998255638 0.014720526294893784 -6 5 0
143 2 0.002 2499.999999999919 0.010071423938331972 0.0026429109851085703 0.01450003977146566 -3 -3 0
42 1 0.0015 2500.000000000352 0.0078773386596789 0.006733204872896269 0.008529200454974451 0 3 0
255 2 0.002 2499.999999999919 0.011687296319689575 0.004227439705019575 0.012778540069715554 3 1 0
429 3 0.0025 2499.999999999723 0.01406025490528559 0.0043598797887624266 0.009685274124115175 -2 -4 0
488 3 0.0025 2499.999999999723 0.01329191416869254 0.002179918523347662 0.011359171474177936 1 2 0
134 2 0.002 2499.999999999919 0.01512897540806863 0.0013889448691226972 0.010693314798571753 1 4 0
94 1 0.0015 2500.000000000352 0.013100019761363308 0.006961607898517425 0.008551215702714263 -6 -5 0
274 2 0.002 2499.999999999919 0.008892856841008016 0.0008020931231349349 0.014260990431124733 4 5 0
296 2 0.002 2499.999999999919 0.010700420978498573 0.0062179549195610145 0.009733154273668769 2 -4 0
95 1 0.0015 2500.000000000352 0.011443405516114875 0.0036547571491705607 0.014631312704338775 -2 -6 0
290 2 0.002 2499.999999999919 0.010668696255665433 0.005583363573410596 0.01180223681993008 3 -3 0
159 2 0.002 2499.999999999919 0.01181911495190563 0.0011434305340691977 0.010167239832641723 -3 0 0
446 3 0.0025 2499.999999999723 0.014261781450554123 0.007500984803798185 0.012061062140939806 -7 7 0
195 2 0.002 2499.999999999919 0.012832466890662695 0.00040602776838016163 0.012375994301958472 0 2 0
419 3 0.0025 2499.999999999723 0.01255939256481452 0.007039649235545807 0.01043846258486526 0 0 0
359 2 0.002 2499.999999999919 0.010759987724410579 0.005284442527417004 0.01442716732118111 -5 -4 0
400 2 0.002 2499.999999999919 0.010527976248471693 0.004666157725976107 0.008703985409233068 2 1 0
24 1 0.0015 2500.000000000352 0.011268764482444573 0.006942499075893938 0.012560743635704964 -1 -1 0
333 2 0.002 2499.999999999919 0.011215700205033274 0.0025874582375926118 0.008273099640684994 -5 -1 0
221 2 0.002 2499.999999999919 0.008076566045232093 0.00585839061153623 0.011762511928815608 2 0 0
157 2 0.002 2499.999999999919 0.0147526377951338 0.002336962923736598 0.009083253831708228 -2 -4 0
96 1 0.0015 2500.000000000352 0.009257306632762882 0.0007929677798704049 0.010752392855067188 -5 7 0
328 2 0.002 2499.999999999919 0.01035148673194911 0.0038245565457705336 0.011290436020955457 -3 7 0
227 2 0.002 2499.999999999919 0.01305385870657875 0.0006909713029729331 0.014468686477997664 3 -3 0
68 1 0.0015 2500.000000000352 0.013521898988547663 0.0019365218264686228 0.007975252883661849 0 -1 0
231 2 0.002 2499.999999999919 0.008744957470610933 0.0033630849397620747 0.01044074902711323 3 3 0
433 3 0.0025 2499.999999999723 0.011836598635470767 0.0021041367178831942 0.013321189439333131 -3 0 0
280 2 0.002 2499.999999999919 0.00911780163186983 0.005386166665107282 0.010276322103771902 3 0 0
440 3 0.0025 2499.999999999723 0.013769156152581362 0.004340471579935462 0.012072227544973087 -1 -2 0
263 2 0.002 2499.999999999919 0.01520757251095628 0.005731534961636739 0.011047790990493401 -1 -2 0
177 2 0.002 2499.999999999919 0.01525588141517126 0.006844201776837986 0.008168078490827733 -6 4 0
454 3 0.0025 2499.999999999723 0.008013053304286904 0.004948863430729892 0.008509151742169535 0 0 0
169 2 0.002 2499.999999999919 0.010201062125277946 0.00215463900676323 0.009970232401130093 1 -1 0
100 1 0.0015 2500.000000000352 0.008731779118990767 7.180685430878262e-05 0.012596548472359352 -1 0 0
240 2 0.002 2499.999999999919 0.012259444434998223 0.005554260513203647 0.008899903964297169 -2 1 0
138 2 0.002 2499.999999999919 0.008039388479225513 0.0070277761132746955 0.010162976663363745 1 5 0
269 2 0.002 2499.999999999919 0.013637351617002521 0.0008262289645855693 0.009668000936637023 3 2 0
70 1 0.0015 2500.000000000352 0.011203645267317418 0.002254119006434019 0.011427745867582838 -4 2 0
185 2 0.002 2499.999999999919 0.014782999027977115 0.00014637280287282308 0.012736912679579793 -6 -1 0
71 1 0.0015 2500.000000000352 0.012027548137736188 0.003954443816038994 0.00898643274262186 -5 5 0
168 2 0.002 2499.999999999919 0.012112158229111564 0.0038110252304636287 0.010661937657722755 1 1 0
268 2 0.002 2499.999999999919 0.010818004795594638 0.00045910568102977035 0.01439940654877097 6 6 0
213 2 0.002 2499.999999999919 0.013418968891273727 0.0002402237951516531 0.007870822312011826 2 0 0
20 1 0.0015 2500.000000000352 0.014557356499507556 0.004248185563366271 0.014401515568052697 1 2 0
451 3 0.0025 2499.999999999723 0.010727543566415785 0.0003630645944583474 0.011873909906021746 -1 3 0
187 2 0.002 2499.999999999919 0.00802256054589782 0.007185776185640117 0.014408106024581624 -3 0 0
432 3 0.0025 2499.999999999723 0.009491827109250735 0.0001302178785397606 0.00894487747378516 4 3 0
500 3 0.0025 2499.999999999723 0.01002123851984995 0.007624109639286555 0.013830026933978334 4 5 0
366 2 0.002 2499.999999999919 0.013764662516451023 0.005638929946254345 0.007721321685238802 -3 5 0
365 2 0.002 2499.999999999919 0.007701054923527709 0.002526350486651681 0.014317217635310754 -1 2 0
441 3 0.0025 2499.999999999723 0.009998798723236503 0.007708240134858875 0.0035633299684584476 -1 4 0
455 3 0.0025 2499.999999999723 0.01148762898145931 0.014073273456580989 0.002781182319079788 -1 -4 0
237 2 0.002 2499.999999999919 0.007957544533015266 0.011918765627834435 0.0009471919411590881 -2 2 0
281 2 0.002 2499.999999999919 0.008088204254902047 0.013361655818559762 0.004576423430737164 -1 -2 0
128 2 0.002 2499.999999999919 0.007703798294760955 0.013826774068989247 0.000887620296226269 -4 -5 0
270 2 0.002 2499.999999999919 0.008239071635528814 0.011572245777892735 0.0062890441780154935 -3 -8 0
324 2 0.002 2499.999999999919 0.013989991358899775 0.012614479673031462 0.0057797188116933 -2 -4 0
286 2 0.002 2499.999999999919 0.013510843967404191 0.014354865478285978 0.006452739822800954 -1 1 0
478 3 0.0025 2499.999999999723 0.011627220216006946 0.011311443415531688 0.002470776899561302 8 -2 0
118 2 0.002 2499.999999999919 0.013146623359434123 0.009143769554182203 0.003989267510028219 2 -2 0
489 3 0.0025 2499.999999999723 0.015207134081945737 0.014748673217616838 0.0015242051526052954 1 2 0
146 2 0.002 2499.999999999919 0.010537942607135349 0.010530340400010088 0.005854745500356995 5 -3 0
48 1 0.0015 2500.000000000352 0.011815060763543444 0.01099188852799945 0.006963612276721307 4 2 0
438 3 0.0025 2499.999999999723 0.012222478531487647 0.007806857176349778 0.0012033925893218836 -1 -4 0
425 3 0.0025 2499.999999999723 0.013447573228953933 0.00996214588082273 0.006439655771884907 -2 -3 0
364 2 0.002 2499.999999999919 0.013836893034759145 0.014120770971981717 0.003113998501694468 1 0 0
218 2 0.002 2499.999999999919 0.008724654442391226 0.009552812806418983 0.003505796756970772 -6 -1 0
423 3 0.0025 2499.999999999723 0.009923985721276386 0.008669664032249213 0.0011796986056929269 -4 4 0
452 3 0.0025 2499.999999999723 0.015062941179443458 0.010004870939691898 0.0047530420136259076 -5 -7 0
206 2 0.002 2499.999999999919 0.015216136995651153 0.00971987669542621 0.007665408858697921 -1 7 0
331 2 0.002 2499.999999999919 0.011922323105865202 0.010544722226637536 0.004524249708150917 1 -1 0
303 2 0.002 2499.999999999919 0.012111673096005186 0.013111346145552517 0.005834704548380055 4 3 0
287 2 0.002 2499.999999999919 0.01173447097556799 0.012902001675850715 0.0009952122770183602 0 -6 0
164 2 0.002 2499.999999999919 0.009469800881160185 0.01510267206887131 0.006464985226801412 0 0 0
205 2 0.002 2499.999999999919 0.011634050682561825 0.00996873711328372 0.0008815186414422396 -2 -2 0
132 2 0.002 2499.999999999919 0.015003379085734677 0.009214155611442551 0.0027339864111559867 -1 3 0
136 2 0.002 2499.999999999919 0.014146143620125371 0.008073654137907399 0.005327443210119319 -1 3 0
25 1 0.0015 2500.000000000352 0.00895925013482687 0.012132001401967426 0.002327930329739059 3 -6 0
129 2 0.002 2499.999999999919 0.013169690883901703 0.009568220464034988 0.0020856802976378917 -3 1 0
329 2 0.002 2499.999999999919 0.014683100045175479 0.01411562492179048 0.00492413536287827 5 -2 0
21 1 0.0015 2500.000000000352 0.008118141228204355 0.010179988885862157 0.0007207158483467755 0 -5 0
486 3 0.0025 2499.999999999723 0.009370735186251346 0.008241794767403936 0.0058330938370012185 3 -2 0
133 2 0.002 2499.999999999919 0.015321897784746592 0.013097928650866028 0.007022460768738482 1 -4 0
39 1 0.0015 2500.000000000352 0.009263196013167614 0.014749445576638714 0.004304337882506964 1 2 0
250 2 0.002 2499.999999999919 0.009392285958876746 0.010678879169984716 0.0017309223562468911 5 -5 0
41 1 0.0015 2500.000000000352 0.011914171682163875 0.015159574227349232 0.004379851324302049 -6 2 0
334 2 0.002 2499.999999999919 0.011210999868117383 0.012517257260839862 0.0042489597729272665 2 -5 0
379 2 0.002 2499.999999999919 0.013793641612670311 0.008101259952860018 0.007467353417368864 0 -2 0
253 2 0.002 2499.999999999919 0.007943177964084626 0.007917062102402336 0.0027330981779380746 0 2 0
298 2 0.002 2499.999999999919 0.012767606926814385 0.014690257997949803 0.0009550293946670056 -6 3 0
310 2 0.002 2499.999999999919 0.010496759821032747 0.014047918728992184 0.005155205060682163 2 4 0
422 3 0.0025 2499.999999999723 0.013312773755681254 0.012129714216391039 0.0038754279913361315 1 4 0
388 2 0.002 2499.999999999919 0.014107866118502791 0.01074548921564424 0.0009557191734182614 0 -8 0
214 2 0.002 2499.999999999919 0.015073743277912745 0.009053704975671489 0.0008666518560329192 0 5 0
457 3 0.0025 2499.999999999723 0.008438999240340816 0.01497954907311526 0.0025920521173998876 0 -4 0
415 3 0.0025 2499.999999999723 0.013785629364361531 0.012814356845035749 0.0011544177951060578 -2 0 0
139 2 0.002 2499.999999999919 0.008297120624969246 0.011445773112181845 0.004430953061865505 2 2 0
332 2 0.002 2499.999999999919 0.009540353505664281 0.013277584848805861 0.0033714065558942364 5 -2 0
190 2 0.002 2499.999999999919 0.010069309310679063 0.010927826317685017 0.003930224421723146 0 1 0
356 2 0.002 2499.999999999919 0.008535083577417543 0.013422702508543063 0.006386115588652451 2 3 0
216 2 0.002 2499.999999999919 0.01511642490563075 0.011275507229055005 0.006526114438697678 -5 1 0
408 3 0.0025 2499.999999999723 0.009738326857767259 0.013395375348960981 0.001148015137071266 5 -1 0
79 1 0.0015 2500.000000000352 0.012611274191082487 0.013876270347880406 0.0044002530596344396 3 -6 0
226 2 0.002 2499.999999999919 0.014851882734805269 0.011078747691335915 0.0028516717582504746 -4 1 0
203 2 0.002 2499.999999999919 0.011440347034308152 0.009144718925989765 0.0028119253545817575 7 -3 0
239 2 0.002 2499.999999999919 0.00986433316387763 0.012280034371275582 0.005610228697427388 3 -2 0
479 3 0.0025 2499.999999999723 0.011631327710573909 0.008661327458996879 0.0059158157661957115 0 -1 0
4 1 0.0015 2500.000000000352 0.00799383377472127 0.008717518063066263 0.0007052444687026571 0 3 0
279 2 0.002 2499.999999999919 0.011712531610722242 0.015112764630497074 0.006222705458562957 0 1 0
495 3 0.0025 2499.999999999723 0.010602958454499357 0.013460204417349598 0.007360347913796788 -6 2 0
28 1 0.0015 2500.000000000352 0.008729994803335443 0.009899827910861518 0.014677106630374184 0 7 0
436 3 0.0025 2499.999999999723 0.013068170462126872 0.010906816677535552 0.010600455913088717 0 0 0
494 3 0.0025 2499.999999999723 0.015330244284136716 0.013288134186813504 0.012281872388860129 3 -3 0
293 2 0.002 2499.999999999919 0.012069094488944283 0.010871946084083983 0.008739888721618055 -7 -3 0
245 2 0.002 2499.999999999919 0.013337370196668615 0.014394647331420297 0.013533102792495562 0 3 0
104 2 0.002 2499.999999999919 0.009759386915217853 0.009236300656212523 0.012428673404864709 -1 1 0
126 2 0.002 2499.999999999919 0.0082722607685811 0.013124833012548656 0.010895794468341567 3 1 0
327 2 0.002 2499.999999999919 0.012700687135149455 0.010865200005629377 0.012679658660577802 7 0 0
88 1 0.0015 2500.000000000352 0.008802338436182073 0.013923039310753824 0.012246920609409833 3 -1 0
44 1 0.0015 2500.000000000352 0.014223496332816773 0.012113523234153222 0.014778830371810788 -6 0 0
406 3 0.0025 2499.999999999723 0.008268201957857891 0.013430218134704732 0.014229416266999946 3 -3 0
401 3 0.0025 2499.999999999723 0.012620442154413155 0.012468540091063667 0.0140297748543917 1 -5 0
409 3 0.0025 2499.999999999723 0.010611250966074464 0.009658046782329375 0.00784207995278708 2 -1 0
211 2 0.002 2499.999999999919 0.01417085428964097 0.007971781211941757 0.009352349791047501 -2 1 0
43 1 0.0015 2500.000000000352 0.011423409140866559 0.00923475659093091 0.012949553059916394 -7 -7 0
453 3 0.0025 2499.999999999723 0.008636296846038394 0.008383205802079394 0.008176771542234446 -4 -1 0
484 3 0.0025 2499.999999999723 0.013296629590932143 0.009079055810891187 0.013566293224977818 2 0 0
54 1 0.0015 2500.000000000352 0.011665448549642231 0.015248238307126113 0.007946055182196488 1 0 0
473 3 0.0025 2499.999999999723 0.008084880441839783 0.009621785138342604 0.011120493817799301 6 5 0
38 1 0.0015 2500.000000000352 0.010479029684038197 0.014051341355932343 0.01476261616870526 -1 -6 0
464 3 0.0025 2499.999999999723 0.014782288807283299 0.014063839722018334 0.008822673593976227 -2 -4 0
439 3 0.0025 2499.999999999723 0.013624438404876912 0.014437244935628715 0.01093735868797006 0 -8 0
105 2 0.002 2499.999999999919 0.01177099869001557 0.010489062988456867 0.01440326873839739 -1 -4 0
186 2 0.002 2499.999999999919 0.00996248216301986 0.01442188308360693 0.013308117083191549 2 -10 0
316 2 0.002 2499.999999999919 0.015053908190866255 0.010834296047705614 0.011489296088044703 5 -6 0
228 2 0.002 2499.999999999919 0.014775491963655928 0.009659210316344754 0.009934369890728753 -5 4 0
11 1 0.0015 2500.000000000352 0.013860208513146071 0.010514664788111104 0.008822409128050119 -3 0 0
351 2 0.002 2499.999999999919 0.008171387127907603 0.014063385512691312 0.008086682055537715 -1 -1 0
9 1 0.0015 2500.000000000352 0.01077194565401682 0.00914808868244258 0.014686952505571508 -2 -1 0
93 1 0.0015 2500.000000000352 0.01481405404726056 0.015139489006002125 0.014705966751796818 -5 -2 0
491 3 0.0025 2499.999999999723 0.012457362652556052 0.013780448511025044 0.008875136909043933 0 1 0
289 2 0.002 2499.999999999919 0.011931931790056107 0.01396589211568797 0.01230148080807593 -1 -4 0
191 2 0.002 2499.999999999919 0.013314347516360285 0.012597694214349437 0.011986864841795232 -3 2 0
462 3 0.0025 2499.999999999723 0.00873986884596499 0.010982306345374278 0.013048210873886539 0 -5 0
111 2 0.002 2499.999999999919 0.014493754677428736 0.01255851427096933 0.010369335268927048 -3 2 0
308 2 0.002 2499.999999999919 0.01026423843426929 0.013671737623761102 0.011358878445762548 1 -3 0
106 2 0.002 2499.999999999919 0.010573558164606894 0.01092704403845548 0.010002501156214453 -4 -3 0
151 2 0.002 2499.999999999919 0.014556125897626443 0.010562407258068096 0.014437275803625164 1 3 0
122 2 0.002 2499.999999999919 0.01151044395836065 0.012055999660319705 0.011741621156451491 5 -2 0
362 2 0.002 2499.999999999919 0.009652566389784099 0.011906452825746422 0.011431705191829766 2 5 0
416 3 0.0025 2499.999999999723 0.009256509316803198 0.011604875964073526 0.008121561728938565 -2 -4 0
33 1 0.0015 2500.000000000352 0.009379429298815542 0.009164827253150978 0.009777446873026707 -3 -4 0
244 2 0.002 2499.999999999919 0.010540529603525868 0.012817542754373518 0.009505700085207373 3 -7 0
314 2 0.002 2499.999999999919 0.008119734025409168 0.00890938239863732 0.013456420440435865 -5 -3 0
108 2 0.002 2499.999999999919 0.014867635658923154 0.007749388875738204 0.014364461450606245 0 0 0
283 2 0.002 2499.999999999919 0.011124287466380615 0.014756006792262305 0.010051596407162768 0 3 0
345 2 0.002 2499.999999999919 0.014770548069139525 0.013547148333486605 0.014368454331809458 2 -2 0
420 3 0.0025 2499.999999999723 0.010321290047527512 0.01222220249721727 0.014240885706116873 4 -2 0
386 2 0.002 2499.999999999919 0.008516589453094461 0.01144157866646436 0.010070462443572318 1 2 0
55 1 0.0015 2500.000000000352 0.010647619824028584 0.010476941752786198 0.013144847503572523 0 1 0
46 1 0.0015 2500.000000000352 0.01255251137941994 0.012752742536660713 0.010489850670578294 -1 -4 0
65 1 0.0015 2500.000000000352 0.00912126560582709 0.013748440963125488 0.009601354167665208 4 -1 0
162 2 0.002 2499.999999999919 0.012579061793237308 0.009010818773561701 0.008955945133020757 0 -5 0
35 1 0.0015 2500.000000000352 0.011701511822047109 0.01438595580732942 0.014029876629230387 -8 0 0
445 3 0.0025 2499.999999999723 0.013472209690557999 0.012035431675852883 0.007703150047936442 -1 1 0
482 3 0.0025 2499.999999999723 0.011489746701221177 0.009159351886964578 0.010917347748600741 4 4 0
336 2 0.002 2499.999999999919 0.010553394703026246 0.008042619359959084 0.009276855202605336 3 0 0
153 2 0.002 2499.999999999919 0.015352225831472886 0.0093072968220357 0.012791848601045036 -2 0 0
322 2 0.002 2499.999999999919 0.007721826316241795 0.0077119226209495335 0.011986059535679112 -3 -2 0

Velocities

469 -2.1932367637539882e-12 3.0814812012382104e-12 -1.0974303361886397e-12 8.407310211544636e-10 1.7568244472670072e-09 1.3168547705673208e-09
340 -8.560806675070886e-13 5.757922654376766e-13 2.7069448430707263e-13 -1.0406551527677759e-10 -3.277746158111565e-10 7.845487856608207e-10
81 -2.4355732049544824e-12 8.736483700962815e-13 2.725046865078894e-13 2.3184489027269167e-09 1.8379028672484315e-09 5.417360495843218e-10
113 -2.0639736350555494e-12 3.3163366271931366e-12 -2.1540588264828537e-12 3.2170831289315636e-10 1.4010813181574279e-09 2.146160497500494e-09
435 6.109941252514882e-13 3.2560390112198533e-12 -2.0164086675402743e-12 -1.526743216125873e-09 9.375056800997112e-10 4.4413868435706287e-10
431 -2.1670826844224725e-12 5.094328657715245e-12 2.080170028135072e-12 -1.6918486167400336e-09 1.255696008995351e-09 1.1905413863924336e-09
355 1.0883732791741919e-12 3.553007406554349e-12 -7.796905115800343e-13 9.361764071058434e-10 9.491430895219816e-10 -5.163524300113321e-10
404 -9.395898207333603e-13 2.172784062865418e-12 1.0886172802564932e-13 -5.414884418198392e-10 -1.3596160019046428e-09 1.5641841064558487e-09
110 -9.683846336337098e-13 2.1688631462435433e-12 -1.459441529018606e-12 -3.871116517189129e-10 3.2029112464503765e-09 -3.1775565238673774e-10
229 -2.1649071629275674e-12 7.1851015717613095e-12 7.728897576088206e-13 -4.501737501522072e-09 -2.1600933032312722e-09 -1.1193630666278427e-09
339 -5.38272275221978e-12 6.326705447764683e-12 3.2514003967061384e-12 -1.529731440926224e-09 -1.8125566071784753e-09 -5.876388940774771e-10
53 5.523619732844172e-13 4.798937011127341e-12 2.1696855051847386e-12 -1.890067127972395e-09 2.4014621255811498e-09 -1.0648541251733195e-09
313 -5.860073374971124e-13 1.5175950103861818e-12 3.737968648237965e-13 6.516868839096945e-10 -4.818423872442196e-10 -1.0998606629215227e-09
297 -5.4495970623511956e-12 6.418214671895004e-12 2.1685301324175954e-12 3.1164538428336925e-10 2.3587217649011964e-09 1.701704247215164e-09
353 1.7668962986736928e-12 4.111220994107096e-12 -1.1625833784669753e-12 -2.4929702059586183e-09 2.1816008386139805e-10 -7.651649191028015e-10
411 1.3810277222188755e-11 6.886788474594085e-12 2.1492007471040074e-12 -4.571538446775837e-09 1.3669467281149978e-08 1.2925717938704246e-08
403 -6.152449298819502e-13 3.2530980998294514e-12 9.886826134129498e-14 -6.418761477007231e-10 7.518114602716395e-10 8.894614177528414e-10
147 -2.1466007778035455e-12 3.4097333937307204e-12 1.970574400649483e-12 -1.1082137892223751e-09 -2.934214888439536e-09 -1.0177519647331754e-09
210 -2.88728065445086e-13 2.971119987521876e-12 -1.159668523713166e-12 3.022034438912477e-09 1.422316445346795e-09 1.6213730075797813e-09
275 -1.0836212464383387e-12 1.5667889663522555e-12 2.70808904889262e-13 -7.330662776374912e-10 4.5858703636416584e-10 3.853872508055458e-10
99 -2.16795033156638e-12 3.1787727402183273e-12 -1.085282224810532e-12 7.632220424392858e-10 -1.6791738712952521e-09 -6.064223674874868e-10
154 -1.749719932934792e-12 2.1246855819464533e-12 -2.5373942249511183e-13 -9.89753049461412e-10 4.766178696886476e-10 6.415636191063727e-10
1 -1.4816800233406042e-12 4.864838356305632e-12 -9.130809886664272e-13 -1.4430192991764372e-10 2.481079908570891e-09 -3.128632033513364e-09
266 -4.858234492233785e-13 2.167110305148975e-12 -1.9005160862537916e-12 -1.3001331881683228e-09 -2.1309647536833374e-09 3.240131312158456e-11
127 -3.915753739508246e-12 4.491953218629342e-12 2.167761229669893e-12 1.1063896750806065e-09 -4.422198499552888e-10 2.737359031457138e-09
291 3.2793041975805906e-13 1.4634272344189182e-12 1.0872008518455195e-12 -7.063843766613423e-10 4.4300819463142106e-10 1.4119889169998272e-09
78 -4.891287517877472e-13 9.450917527136857e-13 8.264405404762117e-13 -1.4871438429214345e-09 -4.939831050461079e-10 -8.254848750805144e-11
144 -2.9739822288369744e-13 1.821803614463297e-12 1.0974933463829776e-12 -6.095270616983783e-10 -5.478079300924672e-10 6.32401460315968e-10
465 -2.1686835133453265e-12 6.3523699465287025e-12 -2.2909357753905253e-13 6.440571956235758e-10 -4.4866952257388745e-11 7.5338340384607e-10
45 -2.164582562766362e-12 2.604332653800185e-12 2.6608027828873276e-13 -1.5552625366406895e-10 1.9514649111178345e-09 -1.3916306569372491e-09
161 1.5863906050253912e-12 6.506510085147167e-12 -1.8083206751550234e-12 -1.7929784258960015e-09 -3.887528275570323e-09 3.329152180215581e-10
148 -1.9914929259643994e-12 2.1703057919880137e-12 1.0717387384203102e-12 -4.5748500565806484e-11 -1.6246044770180053e-09 1.0730138155903062e-09
241 5.379775178954295e-13 3.2514369328546163e-12 2.1720690490972542e-12 -8.75516059273813e-10 1.4294990689258376e-09 -1.2016306306793652e-10
307 -2.168601641592484e-12 2.742869608639405e-12 -5.417428243454135e-13 -3.717318659038154e-10 -1.6108154577444572e-09 -1.6603180126681816e-09
343 -5.020463759788664e-13 4.220027118082612e-13 2.7073805063571875e-13 -4.082750934140658e-10 -4.645256733726826e-10 -8.997434733668794e-10
196 -1.1195181847390793e-12 2.4889586054037015e-12 9.04353847790668e-13 1.276265081380751e-10 -8.304174243064553e-11 -3.7670404899548887e-10
485 -3.2380054934782036e-12 4.154669064973652e-12 1.083966856806726e-12 9.127192172929609e-10 1.8631790388625196e-09 1.3457913494718342e-09
498 -4.879260241902355e-13 2.1654247539230553e-12 4.75266806976021e-13 2.4439166513024134e-10 2.0033354948063086e-11 1.6233357943487366e-10
15 -1.0837809611026274e-12 3.784935895279128e-12 -1.6867349700423e-12 -4.2994151561235785e-09 -3.698684646803164e-09 -5.161943305887632e-10
236 -2.1682141523407286e-12 3.2100097930400262e-12 -1.2368330606166996e-12 3.9377997252119965e-10 8.087347322927728e-10 1.1189645979630134e-10
443 2.732554493734907e-13 2.692624212669782e-12 5.727372813269226e-13 9.031117088059202e-10 1.341757164938845e-10 2.218788285428387e-11
64 3.9405729312302805e-14 1.2181341087781801e-12 -2.917097541527156e-13 1.2387645406901548e-09 -1.9024324186420347e-10 5.813833000717033e-10
98 -2.0154364779738518e-12 4.8511173513151446e-12 -2.1352242995313896e-12 -2.863115450352945e-09 -1.8978699324021165e-09 -1.8925098788298848e-09
50 1.1864572080780128e-14 1.5268394037656776e-12 8.140900682334245e-13 -1.458942859197833e-09 5.134081809312958e-10 -1.054572687708887e-09
382 1.4173673063363452e-12 6.304949863337296e-12 -1.81770533032754e-12 1.946105287289101e-09 -2.00068294667849e-09 2.142346512756759e-09
430 8.172657874887313e-15 3.518601185954099e-12 9.232888532522962e-13 -1.527163488869847e-09 9.276090423676566e-10 6.072758274535333e-10
393 -1.0847861043376982e-12 2.16844835638148e-12 4.3890924824770836e-13 -1.5937875508225134e-09 -1.1606766645230962e-09 1.6765428236329506e-09
121 2.1677068006805956e-12 2.208668158173099e-12 -1.8477978563005505e-12 -1.1839249844785414e-09 1.7121463206868394e-09 2.1872229042199533e-10
235 -1.3375519738663363e-12 1.6268024506419175e-12 1.4393817171690697e-13 -3.335010657830883e-10 -1.1854428041818237e-10 5.30124872876052e-10
124 -1.2624066037563224e-12 4.184893743270979e-12 -9.92047715843617e-13 -1.532343586544211e-09 -4.443239895688239e-10 -3.070159526529359e-09
103 9.922788596957219e-13 2.967026036833575e-12 7.531983088463941e-13 -1.4899916842281846e-09 1.4295561994888286e-09 1.2735915539324258e-09
85 -2.449152000858903e-12 2.7946883007498282e-12 -1.2244134082536192e-12 3.664249210532085e-09 5.7267429053091675e-09 1.211188419366873e-09
219 -1.1793948116866963e-12 3.3444587904946157e-12 -9.582780585135146e-13 -1.0508907344578734e-09 1.629301933592628e-09 1.1379027774054334e-09
59 5.373319436488217e-13 2.1401110280848817e-12 -3.539111327326953e-13 -2.866917964292404e-09 5.613504060013777e-10 -1.955660863387338e-08
418 -5.421598274535446e-13 2.1685510964028802e-12 -7.228563173243236e-13 1.2110026968069001e-09 2.574420702127854e-10 2.3648194504664076e-10
82 -1.3730307783545875e-12 7.69586442896561e-13 3.560190695616526e-14 -9.384532949649357e-10 1.3067080231192751e-09 -1.373647018333929e-09
13 -6.640984692564098e-13 1.3730197388545135e-12 -7.674810278519917e-13 -1.9458365361446558e-09 -2.664020283966805e-10 1.2479438207654715e-09
254 -2.1740003678401286e-12 4.453695627208563e-12 -1.0782837133802812e-12 -2.879005440906981e-09 -1.1488978255689005e-09 -2.4807079121381176e-10
123 6.851380154413731e-13 3.42644750152215e-12 2.1688320928875054e-12 5.198475525481527e-10 -1.7588656047896204e-09 6.332479861155642e-10
395 -2.576753501342449e-13 1.0832963260209448e-12 1.9596423085233315e-13 -8.057121237113462e-11 7.326821095733209e-11 -2.751167851172376e-10
470 -2.16803155033934e-12 1.2279224250673105e-12 -2.4905962473795726e-13 -2.8657052910620985e-10 -5.439256463512405e-10 2.328684037141417e-12
8 1.373162923652289e-12 7.828786979734427e-12 3.164981239325245e-12 6.365389621375136e-09 -9.378394897328106e-09 9.19846268864051e-09
487 -7.805184042976525e-13 7.53309958134212e-12 1.247949209491475e-12 2.397527496438255e-09 4.305885264024722e-09 2.634699305237189e-09
77 2.168824723852134e-12 3.325419235405484e-12 -3.168665827639184e-12 1.6542307528775763e-09 6.889582461781476e-10 -1.7591734711686423e-10
335 -1.9422373157287187e-12 6.529778502613545e-12 -4.2050196336840055e-13 8.194625320794352e-10 3.6367869761468802e-09 3.4092995683259454e-09
402 2.168082164395223e-12 7.320687115545836e-12 -4.3335065745004825e-12 -4.866681578724495e-10 -4.4701475572827807e-10 1.0014936428053908e-09
10 1.078897104207301e-12 4.138244799830809e-12 -1.9622588886690275e-12 -3.0707047679527943e-09 -4.957448980333802e-10 -5.842058050033605e-10
57 -2.16727587784084e-12 1.0232189821087528e-11 -3.244705011731434e-12 2.167643298020929e-09 -2.6714232859074696e-09 1.464900520248079e-09
101 3.15655820972776e-12 2.6092142986351843e-12 -4.3002485920498875e-12 -2.4189177747526993e-09 -1.0080566218892908e-09 -1.8647775561689876e-09
171 2.8024483118239946e-12 5.4283328220188215e-12 -1.005326890784467e-12 1.3809376406022988e-10 -5.968032015618971e-10 4.5005163969880077e-10
222 4.016236670945155e-12 6.499575880786512e-12 -4.339767406274968e-12 3.564732396586017e-10 -1.2863042965776266e-09 -1.0270404203871092e-09
449 2.8989536251563924e-12 2.4570507230722818e-12 -3.8645644822033965e-12 5.680363621399402e-10 1.335016191914957e-09 -2.2990962851671181e-10
243 2.697441536645992e-12 3.5570720879324857e-12 -4.331114557595235e-12 1.6314278588658006e-09 4.0465375669828547e-10 -2.204413313626736e-09
370 6.414215264854571e-12 4.304239592720139e-12 2.730553083932948e-12 -2.8944918024057412e-09 -1.5548696790953155e-09 -9.931167246749875e-10
300 -2.1676268001250556e-12 9.157382844446113e-12 1.884204963584392e-12 9.121554285067212e-09 2.795946040044707e-09 7.872736219567901e-09
67 -5.584238623198267e-13 6.505527086765155e-12 4.1477941024427856e-13 8.438151254168076e-09 1.971391685412137e-09 1.058022257750764e-08
234 2.170679213264216e-12 2.1669059747060954e-12 -4.337417498517156e-12 2.5404673616911474e-09 -1.232678739690615e-09 7.277466711916079e-10
346 2.1689850248144292e-12 7.389878110854387e-12 -4.331797896997064e-12 3.5631721989700416e-10 1.7564850456419188e-09 -8.154359834671181e-10
27 2.167832141904732e-12 5.594779851921797e-12 -4.293325825827735e-12 2.519231622227892e-09 2.605714035901599e-10 8.546086651682913e-10
380 2.2231319061739197e-12 5.4150770836803016e-12 -1.9616600067391604e-12 -1.2742846656726772e-09 1.031222080211293e-10 1.7108197396262672e-09
172 5.5402714401058716e-12 3.8055457846236625e-12 1.7671306705456792e-13 -6.268571735435577e-10 -9.004169238251767e-10 9.276954543071905e-10
37 -1.5786172323183116e-12 9.608904806501751e-13 -1.8090255826503254e-12 1.0799952193898767e-09 2.7417889035451856e-09 9.419359801544573e-09
459 2.6576843199954318e-12 5.2523199383202004e-12 -2.3542149204476777e-12 -4.433052319236083e-10 1.0226211323334242e-09 -4.1514080410169457e-10
320 3.1810916674453016e-12 5.169807401356363e-12 -4.339434199916063e-12 -9.391268344288342e-10 -8.472668276081697e-11 -1.1379873741270927e-09
12 2.1680955086740395e-12 7.9791124616802e-12 4.336293650472397e-12 -1.2615836711164423e-08 -1.995650073611536e-08 6.316300112742407e-09
36 2.1715589756940343e-12 5.458770509411754e-12 -4.15876496894801e-12 6.482256048830219e-09 4.580330143275861e-10 5.426328005302132e-09
183 2.1678657887179145e-12 5.40083166423185e-12 -4.33305293502541e-12 -8.789377017576144e-11 -8.53988515488152e-11 -5.619939961021133e-10
421 6.505522061295825e-12 3.4546837180931256e-12 -2.5234594877414345e-12 3.058173092276413e-09 2.2873545802866587e-09 -1.391917861443557e-09
369 3.302150922325273e-12 6.503850952216171e-12 -3.911431923559295e-13 -3.023485717309697e-09 7.745964997909093e-09 3.1621540918418034e-09
483 1.2200248579317608e-12 8.964029253235992e-13 -3.4845198535701217e-12 -3.9844191751940145e-10 -3.0673200633811857e-10 -7.535125678814675e-10
301 2.1685775050571765e-12 6.052298265518348e-12 -4.137355121025646e-12 -2.1257076398668906e-10 4.118329137439584e-10 4.1470749702831073e-10
160 2.16887855394762e-12 6.061319494589767e-12 -1.3910269891578627e-12 9.37001103621125e-10 3.4086181328630916e-10 -1.6955440606082507e-09
176 1.1509343971086761e-12 5.099914068619309e-12 -2.108148890234336e-12 -2.442903091083614e-09 2.535641033565325e-09 6.337825407300281e-10
184 -2.168280060600873e-12 4.742285830172722e-12 2.15547619157259e-12 -3.1652637110676636e-09 -8.826948434104564e-09 -1.5486583403495909e-09
261 2.0115493816066103e-12 6.503021374132295e-12 -3.0424261420949663e-12 6.612366968417795e-10 -1.5533327899523274e-09 3.019388085029822e-10
181 2.224616209169567e-12 2.1686939638717946e-12 -1.8938084929864556e-13 1.208541414566954e-09 -1.2886870149999856e-09 4.949015114827719e-10
389 3.2501836745063435e-12 2.7064827295500127e-12 -1.2816340705965634e-12 1.007889093799117e-09 -2.999512629971026e-09 2.4778786576849137e-09
480 4.6186540869776175e-12 4.499744854677773e-12 -3.164600000621911e-12 -1.7438541394569913e-09 -5.748049094987579e-10 9.372153224416294e-10
238 2.0597509210345964e-12 6.4939278124055555e-12 -4.335605836462067e-12 2.5246583902482053e-10 2.57112194223026e-09 -4.820682865609058e-10
371 3.715317642086536e-12 5.089454583357284e-12 -1.1761523345509457e-12 1.502697878526838e-10 7.30273106184241e-10 2.113085040499451e-09
311 1.0834033460755952e-12 2.1670743249620002e-12 -1.6444244055251568e-12 -1.6509324572386467e-09 -7.519802613071369e-10 1.03811306736222e-09
330 8.566404239279979e-13 7.08879505618804e-12 -4.337386428878235e-12 1.216717964273107e-09 1.916532523045018e-10 -8.773748489293498e-10
375 2.0826174782849697e-12 5.463676291336546e-12 -1.5293262971713608e-12 -4.852598821565572e-10 -4.470175416561765e-10 2.034651454800186e-09
32 6.254348466373168e-10 1.7089317505927969e-09 -3.1111894040084057e-09 0.13469860120225824 0.6727752911158988 -0.648324202328303
209 3.3126159375909177e-12 4.5649112467030565e-12 1.0197343212383392e-12 -1.209789565776974e-09 1.7059317462673475e-09 -1.0035880944902077e-09
312 2.1642185391371247e-12 5.569153146983543e-12 -4.336940180509004e-12 1.1199700764034133e-09 3.146202818481949e-10 -3.908763472585804e-10
304 1.2715138660380624e-12 6.503675013671867e-12 -1.7865841632783158e-12 8.516928650123975e-10 7.995682562794137e-10 8.479755837809887e-10
76 1.2388978648956264e-12 7.60417777104682e-12 -3.509973497436037e-12 -4.015506395396981e-09 6.748727354956978e-10 3.73232145894903e-09
49 5.4234468304928315e-12 4.5073446495635955e-12 3.8690392324270984e-14 -1.3961537143759999e-09 -4.788599355923886e-10 2.21621101550982e-09
119 2.166212364682193e-12 6.501613953921804e-12 -4.337139861688909e-12 -1.074285842022007e-09 -4.2835944330265947e-10 -9.631736970445522e-10
492 1.1084351069478338e-12 4.6874724163844e-12 -4.335939201897884e-12 1.4449577699792645e-11 -2.3848382565215206e-10 1.931783012641911e-09
292 1.6540508689086665e-12 2.9734539833777425e-12 -4.336578543373737e-12 3.1127962042955393e-09 -1.11648008066216e-09 -1.6710642905171768e-09
29 2.640978671456119e-12 1.39500329348141e-12 -4.335588859228764e-12 1.0953291341586253e-09 -2.486039521014651e-10 7.340379960375773e-09
232 2.705558673423563e-12 1.1604202413060486e-12 -4.314801211631723e-12 9.912764773297573e-10 -2.1907154829937666e-09 -6.971146374415312e-10
73 -6.610047558960571e-13 5.347946060411721e-12 -4.202053172776837e-12 7.218004710603399e-09 7.400544803714769e-10 -1.166083679323278e-08
249 4.7147448896911725e-12 -6.249403494614842e-13 -4.310184540792691e-12 -3.0981168489796536e-10 -5.083923439162117e-09 3.626216807624472e-09
2 6.748612925175003e-13 6.165441902448341e-12 -3.4088534531996686e-12 4.0800572267873855e-09 4.835487531647572e-10 -1.3643874570246821e-09
215 3.787837430440217e-12 3.25085560085209e-12 -3.6255758531984736e-12 -1.1488871596794596e-09 -2.008465007233636e-09 6.652247609020182e-10
251 -1.6372763773686278e-12 7.360609337967623e-12 -3.918825382260162e-12 -6.844626548558734e-10 2.404469956784716e-10 2.8096674498793093e-09
217 2.1680924776166232e-12 5.877571972381939e-12 -9.109821722436053e-12 -7.55441234569631e-09 5.098056433464402e-10 2.043441220679258e-10
7 2.1838876538104194e-12 5.427987272623333e-12 -4.254061031418922e-12 1.3609128744153416e-09 -2.0943234271345904e-10 1.906713913532838e-09
437 2.6782614466706953e-12 2.7849955746504013e-12 -4.090895232387103e-12 9.735524736910491e-10 4.495778690916795e-10 -1.9177017681799404e-09
89 2.459568906415833e-12 2.557921572800377e-12 -4.568250068168068e-14 3.1210433384617276e-09 5.2460976455698506e-09 9.068240130401395e-10
90 1.811090972544692e-11 1.475554121460547e-11 2.4599690486651622e-11 6.397193899123962e-08 -6.066900145786411e-08 3.694105156382739e-08
267 5.194930357392435e-12 6.501725362457888e-12 -4.337385149496274e-12 -3.8939620087079815e-10 2.2128450822447823e-09 -1.909941827122041e-09
193 5.8063839117310605e-12 4.185361836262218e-12 -3.936236662133564e-12 2.4154378676605904e-09 1.042936437355944e-09 7.439520294418279e-09
34 2.5038366063361026e-13 2.300188928556375e-12 -4.334811718489924e-12 2.6610699649558914e-09 -5.289172931470769e-12 -6.9525402837478094e-09
381 -1.0854186337046985e-12 7.499260302538297e-12 -4.33922316648293e-12 2.592524667909278e-10 1.1344081074266499e-09 -2.653067154871529e-09
156 2.056784112942277e-12 1.826849848369888e-12 -4.3188413127126e-12 1.7676450635766933e-09 -9.636237031642826e-10 -9.683267172065875e-10
448 4.087735683651149e-12 6.347663636504029e-12 4.332401017279722e-12 1.5164618467168973e-09 2.824558018094153e-09 -2.9106829322057848e-09
117 5.4691146924134235e-12 5.981958343230382e-12 2.610266399725628e-12 -2.0738224175910782e-09 -3.438760988903895e-10 2.9226464228230212e-09
493 4.911903469247775e-12 4.134695889535764e-12 9.664372626697294e-14 4.933204603926556e-10 1.751163826638179e-09 -6.309405633333621e-10
344 -2.1674839861044133e-12 2.9837000893524524e-12 -7.156648879148258e-13 2.093794858867555e-09 -7.965362907830758e-10 -4.2343616548546017e-10
6 -5.062508046963287e-12 4.3554728343213705e-12 2.298538447735195e-12 -8.656038226588995e-09 9.38248156868245e-10 2.8189396101841915e-09
284 4.1906494955310886e-14 3.3282916680239815e-12 7.928827606742405e-13 -4.40035409896184e-10 5.033501045046371e-10 7.299052064723033e-10
84 -3.959324110190595e-12 -9.582950679824602e-13 1.163690026566946e-12 -3.566936175550661e-10 -2.0392942995078098e-09 -5.220027832101955e-09
273 -5.208584131072397e-12 8.19049688648728e-12 1.821125045885874e-12 1.227591039167887e-10 -3.279160868029094e-09 -2.0978666744237757e-09
278 -3.282929437047358e-12 3.3400582941954467e-12 -7.742889496531098e-13 1.9402064109259065e-09 7.381121400410225e-10 -3.2052123588098997e-10
207 -1.034432579300404e-11 4.858280268934368e-12 -2.167507028466546e-12 -1.6597404647262001e-09 -5.754480408959583e-09 -7.86938206086855e-10
407 -4.730645758104361e-12 4.336310261854286e-12 3.2173197645703233e-12 -2.6950046859412777e-11 -7.25808002843201e-10 -7.549986113190628e-10
398 -2.1423548250780018e-12 4.221810585453637e-12 -9.14763747294279e-13 -1.0820248066502997e-09 -2.403952531841093e-09 1.5677419508425935e-09
201 -2.1606768833035034e-12 4.3375671598697535e-12 -1.3062065730700295e-12 -9.827981162645825e-10 2.8025394344874998e-09 -3.0939973929799877e-10
74 -5.080353855734442e-12 4.342117341995764e-12 3.810532931091387e-12 5.983452767443505e-09 -3.997124306153543e-09 3.3158771422053702e-09
152 -5.586415215710886e-12 4.338531031898935e-12 2.6342578219500955e-12 1.2591047104492331e-09 2.4700064854961234e-10 -4.428955281409718e-10
165 9.255176625831542e-13 3.8464828034206434e-12 -2.179210630051762e-12 -3.0206251385355607e-09 6.797978323008257e-09 1.1443506415772521e-09
19 -5.3295452935790405e-12 4.352896264993293e-12 6.394962449161477e-12 -1.8583133702821504e-10 5.653786514529901e-09 -1.8122322509375486e-09
166 -1.2451336282743147e-12 -1.27815985857052e-12 -1.8184299294891175e-13 1.0911402403774568e-09 -8.937634397444618e-10 2.3596614873643225e-09
17 -3.2527421348247983e-12 -2.1379161058034394e-12 1.9019620171442605e-12 3.496575932947776e-09 -3.736110400734553e-09 -1.6781992184544336e-09
477 -6.216920600130835e-13 3.0392272971312413e-12 5.427579740634444e-13 -1.8636544193045993e-09 -7.431703062506134e-10 -1.8227218707788463e-09
358 7.290602559674117e-12 4.33660558922815e-12 -2.729701977784521e-12 2.114363532039067e-09 6.525338184393176e-09 2.6615561479952063e-09
220 -2.2515843188321743e-12 -9.408128404649232e-13 1.5344449771758353e-12 -5.684996269835595e-09 -1.033203295187423e-10 -1.4419078205741424e-09
472 -7.562365855643107e-12 1.4673213925147615e-12 3.1430650355859317e-12 -6.428512880817675e-10 -1.9995214173618785e-09 3.157070178366337e-09
69 -2.156423778114714e-12 -3.0355510625993596e-12 1.0722115208784319e-13 -9.08604664170886e-09 5.777160742002521e-09 -1.2290030431255502e-09
347 -7.505756923940031e-13 2.3881539159678524e-12 2.718095160604474e-13 -1.5178318298234917e-09 -8.812078917872762e-10 3.2340448346492806e-10
112 -1.0588379540546469e-12 2.2954127907914888e-12 -2.6725391455979083e-13 -1.4210199358519556e-09 -5.400229526821746e-11 -1.6162227577635205e-09
424 -2.267788312715307e-12 4.385099048854616e-12 2.1704965059442024e-12 -6.01452834551987e-10 2.8207099116421468e-09 6.779930070157677e-10
396 -1.3546444548197406e-12 1.9363418461850976e-12 -7.01768224906583e-14 -1.9865454569150067e-10 -6.184363597896311e-10 4.154728026549399e-11
145 2.7374713535487664e-12 4.571694906473969e-12 -7.348025288029291e-12 -2.73674539290646e-11 7.39811600064313e-09 3.2606061987001874e-09
399 -1.262525484454268e-12 4.343098614261963e-12 2.291799640398296e-12 2.316936705515054e-09 1.815514998468355e-09 7.959911402684222e-10
428 -2.519595516366055e-12 2.862834506347968e-12 7.973047100732777e-13 -2.2765250656979483e-10 -7.238802802135502e-10 4.2614327409292003e-11
149 -1.1909707273593136e-11 4.340634004423799e-12 1.1551946735188353e-12 -4.682047776904051e-09 -5.648262759209362e-09 1.0242280345777017e-08
321 -1.44450844808999e-12 3.1122438930818765e-12 1.7526233694379907e-12 -2.812750253928007e-10 2.3545218358753534e-09 -2.084965374759877e-09
189 1.6377834229342175e-12 1.3796776981191829e-12 2.7081286428401176e-13 -6.667143478673487e-10 1.3635380917763894e-09 1.1993133346497897e-09
204 -7.549374330981859e-12 4.33626327244073e-12 2.165711577029028e-12 1.3507594085373205e-10 1.6565124232464094e-09 -1.751500397039434e-09
170 2.1660049040103686e-12 4.346755452040257e-12 -8.781767585501616e-13 7.668409770918543e-09 -9.33380722287578e-09 -8.499079521864754e-10
22 -6.3233391069578555e-12 6.974395203591254e-13 2.6524944947636587e-12 -5.859831837270097e-09 2.4897634646094454e-09 -1.6060761801708224e-09
348 -6.461970537003209e-12 4.336271027090731e-12 3.2607393728037233e-12 1.153661156594233e-10 -2.784087310062861e-09 1.4165997536852568e-10
475 -1.1095126183423044e-11 4.33573998797552e-12 6.797279311722786e-12 3.821333717524947e-09 3.315483219054167e-09 3.611153432110862e-09
323 1.3712521252021326e-12 4.339723239896029e-12 4.126424507301567e-13 -2.4296707943759715e-09 1.0827447925553753e-09 2.783729026799212e-09
276 -4.628000330102282e-12 4.334782967806506e-12 4.910809835123969e-13 -2.2390269721680232e-09 7.0214824970493e-10 -2.1647632514692147e-09
256 -1.1400052002848325e-11 4.3297435363565316e-12 6.490005266749918e-12 -4.302328528221631e-09 3.1562794083693336e-09 -1.7615035006288006e-09
349 2.2733519855066306e-12 4.339642994470162e-12 4.4107271055802166e-13 -9.420499793844765e-09 7.83471291679297e-09 1.779182148050428e-10
120 -2.540861799320162e-12 -1.8711764246869797e-12 1.2439966539694881e-12 2.1353070170921972e-09 -2.4668494426071625e-09 2.9391269904320716e-09
363 -2.9784288807942047e-12 4.3384216841963175e-12 -2.150324949257512e-12 1.5660010113092478e-10 -4.23489504757845e-09 -8.691757032616877e-11
140 -6.9391952123143725e-12 5.311434344455301e-12 -2.2306916961508017e-12 1.2057023908540834e-09 4.748733275071398e-09 -2.092954911949532e-09
354 -1.0889931608490282e-14 4.33656106101674e-12 2.4360194470574694e-12 -3.1988006980793377e-10 2.943465847342074e-09 -1.5063059924251977e-09
173 -2.436127869243601e-13 1.1341842230124505e-12 7.892905555005079e-13 6.343711420114211e-11 -9.348146010809898e-10 -2.3445524431341227e-09
444 -2.0433812199019264e-12 4.332041976793185e-12 2.0546084814994616e-12 -4.692024584982506e-10 5.997512875052413e-09 1.0040850229391182e-10
367 -6.802455909907088e-12 6.198982976096775e-12 -2.1682476460484488e-12 4.118780732000729e-10 -4.558115225283048e-10 1.8535420028558998e-09
51 -2.0080744680881742e-12 1.6957903302387115e-12 2.053126382932106e-12 4.416034475766076e-10 -1.8208035658675698e-09 -2.9704013333331048e-09
80 -4.805391243444949e-12 2.4507429104319957e-12 1.5077241773703641e-12 -2.0965679065401776e-09 -4.114492548311917e-09 -4.163329846110214e-09
361 -1.9934951614380115e-12 1.6886869457387312e-13 1.856618742246836e-12 2.853252326686052e-10 -1.7140060286934433e-09 -2.3568348510345473e-09
137 -3.6500439543364074e-12 4.330485163227857e-12 1.909322399499969e-12 -1.7877514440612959e-09 1.738031592430956e-10 -1.855939940786546e-10
58 -7.095604743837932e-10 2.3412896989002955e-10 1.4943802291274247e-09 -101.95405209573399 -308.98596446381356 -2105.120040878219
60 -5.287247174628662e-12 4.385905671083277e-12 1.1071499111506361e-12 2.8548129831234162e-09 2.0881977458995817e-09 -1.7202038989583033e-08
295 -2.0499631151997043e-12 3.1068041220074407e-12 -1.2710480256660876e-12 1.026455834576586e-10 -2.0032074624923374e-09 -2.8496486711427108e-09
387 -1.8459210557762326e-12 4.3296916489589036e-12 -1.900371707261147e-12 9.702878927267635e-10 1.6138705680885829e-09 -2.0188542571829697e-10
257 -1.5075821825545405e-12 2.2557676720171977e-12 -2.578399956784716e-13 1.0007924151790829e-09 -5.596198652337937e-11 1.0249800276625061e-09
179 -2.168553661060471e-12 9.651063876701127e-13 -7.450713231281284e-13 -1.4530241898000476e-09 7.447511419776252e-10 1.3172072610094424e-10
18 -1.7323569357142226e-12 3.887221585573057e-12 5.711840211734446e-12 4.392767505260533e-09 -7.863912955163276e-09 -5.066360770879e-09
352 -1.7485010046590977e-12 4.300327852589805e-12 -6.12546435732863e-13 -6.902669874310229e-10 -1.5900699716480169e-09 -9.642378331085315e-10
62 4.233963762912411e-13 3.134502135538764e-12 -2.1673103769403712e-12 2.1147506051488413e-09 1.0004446154542367e-08 -6.959800771191642e-09
282 2.578506281528655e-12 5.521695410304963e-12 2.4258075840927893e-12 -7.807700028322551e-10 4.731163526430024e-09 -3.829982625465712e-09
92 -1.9437352283551658e-12 4.327609387758695e-12 -2.0584983684134302e-12 4.886490268961205e-10 -2.708375625063458e-09 -4.1147029012369517e-10
125 -1.6970171964145004e-12 5.285979892968199e-12 3.2081819144945426e-13 -6.581512876732864e-10 1.0201797159599687e-09 1.0954898270256835e-09
350 -2.043710475381118e-12 3.2986115585330125e-12 -1.1487742946054716e-13 -1.1024220475691886e-10 -1.8578862246028318e-09 8.211108178002377e-10
130 4.7218134308808325e-12 4.334236500697438e-12 -2.338333468546014e-12 -2.0543262482546742e-10 -8.017953973292801e-10 -1.2920739873418037e-09
150 3.4594692776508202e-12 4.3486334547599585e-12 -4.3175800305751794e-12 -6.061380051024878e-10 2.019279088058464e-09 -3.0949368092704413e-09
230 1.0523517936963228e-11 4.337988764647261e-12 -4.335840217458177e-12 1.0965801548228263e-09 -2.812422281128814e-10 -8.245283040650868e-09
114 4.741049653990138e-12 3.1053737052171233e-12 -4.333855352235621e-12 2.373631533609454e-09 -4.3237484781413135e-09 1.6488279386565543e-10
434 4.574641037003509e-12 4.338567371214196e-12 4.011082850021259e-12 -1.4924627176618708e-09 1.1372828222445523e-09 -7.517584547216897e-10
102 2.169426156004809e-12 3.5545917921436647e-12 -2.095763817996885e-12 2.863160150642867e-09 -2.8392321047380945e-09 3.355040789330976e-11
202 -5.044304224273858e-14 1.3009201421094432e-11 -4.335835100810494e-12 -2.514545572077679e-08 1.585757798979625e-08 -4.607369978986775e-09
468 -3.2072918736721736e-12 4.79285847362237e-12 2.263427676168267e-12 1.7892575050915394e-09 4.983745314793067e-09 -5.356063541381695e-09
299 4.709626652447223e-13 4.339233710406739e-12 3.906126636495235e-12 3.42398441534023e-09 -1.3388181613018952e-09 -4.497386703203476e-09
116 2.16932653062747e-12 1.0298873670624807e-11 3.238703584678711e-12 1.5703694939962693e-08 -1.4949000605130565e-08 7.099983909352062e-09
252 6.559748923561526e-12 4.38394650105627e-12 1.842849311182009e-12 -2.2497579089908586e-09 2.9592045123908496e-10 5.20086805286956e-10
392 9.53855674186126e-13 4.381976630294532e-12 -1.5889320779389519e-12 -3.6971924991269425e-10 -1.7557398886605273e-09 7.3634362257401116e-09
197 5.841457305039338e-12 4.32945669500221e-12 -1.6933776189869605e-13 9.323118248852393e-10 -1.8366297201978205e-09 -4.908697444207757e-10
61 2.3281818596037888e-12 4.338816629807934e-12 -1.086180673798511e-12 2.043436043177886e-09 6.1489026032898335e-09 8.850721502269164e-10
174 3.871232543868431e-12 4.338762498940506e-12 -5.668296639951945e-13 -1.464723952527155e-10 4.009508410959201e-09 -4.291446481526445e-09
135 3.248889719079704e-12 5.3876669524751805e-12 -4.3371007727089914e-12 -1.8836175956706317e-10 5.74649539428262e-09 3.6659519137063624e-09
47 3.222416381080335e-12 2.996386386367419e-12 1.8240354845558624e-12 4.492871266825143e-09 -3.939459951615302e-09 -7.002043857359198e-09
319 1.3586402542559334e-12 4.106486264395118e-12 -1.1937988570638197e-12 2.7577845359634437e-09 -9.785410836809697e-10 -8.334523192302357e-10
317 2.165028382111167e-12 7.86186287678615e-12 -4.337411766274136e-12 -6.222775458736537e-09 -9.826826826979818e-09 8.022395892197225e-09
192 5.387723774544666e-12 3.0228222382225575e-12 -1.9798673236171917e-12 4.728453244890894e-10 9.862480429728413e-12 1.8094586664459138e-09
466 6.418269117314434e-12 4.337755934000841e-12 2.8228793410060634e-12 -2.389050667530669e-09 4.165476412062614e-09 -1.4378702295507564e-10
264 -1.7806260144762968e-12 4.34300656751867e-12 2.2160725493382645e-12 6.990371725683468e-10 -2.412357620575286e-09 1.3717686345916635e-09
497 8.358119928303272e-12 9.029290203459291e-12 -4.337318891903402e-12 -4.1115312584870833e-10 -4.281389022959342e-09 2.084265761804509e-09
458 3.4037773062995607e-12 4.720187105521224e-12 -4.338807744065989e-12 2.746169826885252e-09 -2.9994544522183993e-09 -8.48186270301988e-10
450 6.1661494978746685e-12 4.711759816867232e-12 -3.3116147870062554e-12 9.692231569753656e-10 1.1923498246688261e-09 -3.0589292886385453e-09
318 7.542862998483404e-12 4.333433015999045e-12 8.440408096533069e-13 -3.7099899211341163e-09 -5.23783138231581e-10 8.856719135099842e-10
384 2.866287230215708e-12 4.33553397307402e-12 3.5737936964986733e-12 9.964138037654548e-10 5.218018708428892e-09 -4.206924555661007e-09
66 3.694067888698257e-12 4.3360722733503795e-12 -4.345934096585048e-12 3.7946755630221565e-09 -3.4583118237685195e-09 2.110012272865268e-09
463 1.074356983450821e-11 4.310621796952286e-12 -4.297952516051963e-12 5.201111272321345e-10 -1.5240303902078265e-09 2.850106505838965e-09
467 1.518069979143613e-11 4.3375092517124866e-12 -4.989774826050307e-12 2.803795567263661e-10 3.297627203661229e-10 -1.1762367618783441e-08
456 5.305500853248959e-12 4.336945623886121e-12 -4.3309411788271676e-12 1.5609616942245589e-09 -8.72576266611772e-10 9.274294944382896e-10
442 6.490333315961901e-12 4.337527704026896e-12 -6.14723489390028e-12 2.871928144092323e-09 -3.804467909510745e-09 -8.493490989056045e-10
63 9.004290628495534e-13 3.0008988048321516e-12 -4.3352577798862906e-12 1.939213412163684e-09 -1.4001182839369925e-09 -1.1316861358882196e-09
30 3.5689451628456303e-12 4.336880839014849e-12 -6.001341284264616e-13 -1.7224020521535176e-09 -4.792532162206704e-11 -7.010267672741434e-10
294 2.8364024996826116e-12 4.33113693358682e-12 4.657723529595698e-13 3.886752019859082e-09 -3.0574458609159625e-09 -2.5615714647553718e-09
163 4.77700949502292e-12 4.333315224694742e-12 2.4767160925581595e-12 -5.53218937321684e-10 -8.690687178137929e-10 5.456758983458832e-11
447 4.957441249573551e-12 4.3345085995658605e-12 -4.337179301036638e-12 -1.375655369615568e-09 3.1707252105139706e-09 7.43315484791006e-10
490 6.498360755562615e-12 4.336996087913882e-12 -4.936161004220551e-12 -4.347690794418484e-09 4.622054124293486e-09 -4.297265123806204e-10
142 3.9180686682460325e-12 4.608879302949029e-12 -4.339388014404406e-12 2.850575513823729e-09 1.5271984542241121e-09 -2.0804646410732835e-09
259 4.53086975127181e-12 4.336797937502988e-12 -2.6507269192275966e-12 1.0672062343928155e-09 3.815401981487518e-10 8.346800556406098e-11
242 2.7957984723847445e-11 1.5672491115060984e-11 4.334758646809969e-12 1.6622446691670975e-09 1.7737395156981224e-08 -4.355478312527519e-08
258 8.709336171943171e-13 3.879116275688889e-12 -4.3335533396649855e-12 2.184838227846287e-09 1.98357672464703e-09 -3.3193540053952247e-11
83 2.1684071547771292e-12 1.5721409310955512e-12 -2.654753246764915e-12 1.498828828783783e-09 5.242676523173674e-10 5.132916594763606e-09
141 6.504387842779975e-12 4.335730860821447e-12 -3.701195991210893e-12 2.8919388255437177e-09 -7.56745795817704e-09 -7.491350743781831e-09
223 6.503511649827592e-12 4.337794704925013e-12 -4.097634765037296e-12 -1.3881781587040774e-09 1.8535535947940952e-09 1.5338405589632327e-09
260 3.770822457396354e-12 4.333554805419009e-12 -1.627275013771329e-12 -4.930315515889138e-10 -2.4813456377368884e-09 5.191908618736405e-10
178 5.401163065775467e-13 4.01178530348095e-12 -1.854439164048803e-12 1.8700423758721414e-09 1.4078023373823288e-10 1.3263969302078031e-09
199 1.0644154915493376e-11 -1.2915750351239378e-12 -4.312298013419452e-12 2.1090190798593915e-10 1.5633831107628336e-09 6.266467487281643e-09
374 3.79205869110341e-12 4.3389336701476936e-12 -1.1819197359355328e-12 3.783539290143156e-10 -4.250541244608247e-09 -2.6359211034690467e-10
306 3.2468208326188466e-12 4.339046157656037e-12 -9.062322450653831e-13 2.1194635562803008e-10 2.3748963677782515e-09 2.952893399299017e-10
360 4.415280592776668e-13 6.248080399796405e-12 -1.8327417468057442e-12 1.2905077995517498e-09 6.894736394821867e-09 1.6392705164668156e-09
86 6.712691747483322e-12 4.333308276779301e-12 -3.983118009113961e-12 2.375963532094815e-10 9.717540948508949e-09 4.6481799345111766e-10
87 1.016395146183692e-11 3.1114670424132943e-12 1.6119406485707033e-12 1.0831038377818133e-08 1.933586104274165e-09 -2.5389780300187183e-10
225 7.367829157088301e-12 8.307762991118241e-12 -3.725107502251756e-12 6.697067830180699e-10 -1.1180809528914018e-09 5.574989472451647e-09
341 7.981677453186152e-13 4.1297705650947654e-12 1.6028291330427284e-12 2.909554270236221e-09 4.6366223197822925e-10 -3.2920987418465132e-09
461 3.2570878575581284e-12 4.336823495269143e-12 -2.8574579829254455e-12 -3.675563188918889e-09 3.877144580553557e-09 5.087672833215526e-09
383 6.433004072135235e-12 4.334929033796623e-12 -1.081698295183663e-13 1.943146281583801e-09 5.674049127038835e-09 2.922678160001964e-09
167 4.332976092476638e-12 4.806852145601108e-12 5.788035753270545e-13 -2.537760837890563e-09 -2.7204150034917073e-09 -2.395853143934528e-09
208 -3.109535618969778e-12 2.23744884356814e-12 2.1641497125907646e-12 2.6184831571784337e-11 1.6464436365733828e-09 -6.168369473100728e-10
338 4.20619617569122e-12 3.2473218906594893e-12 1.2311348546848816e-12 -7.48185738874748e-10 -2.1526292166219617e-10 -1.1821545348036508e-09
246 -4.326986765673633e-12 2.1673688134376666e-12 -2.168813958234781e-12 3.6097940049960313e-09 -8.523411256212121e-10 -8.101583213895473e-09
390 1.7771395437651901e-12 1.5591464003674651e-12 7.087653963820781e-13 -3.7945975659420585e-10 -3.0499910089310836e-10 -6.197910573755358e-10
5 5.750006209800164e-13 7.58652210132735e-12 -2.1669652698112944e-12 3.4059074812767142e-09 1.2242552319217362e-10 4.612336098965516e-09
194 -1.3197796373355181e-12 3.977705137471953e-12 -2.1695316627069427e-12 -3.58455723083687e-09 -1.7901618956973552e-09 -5.669758353795634e-10
471 -1.070513456805875e-12 2.172917720593987e-12 -2.160162513097237e-12 -1.3118692739936686e-10 -1.4698923922478533e-09 -2.1571608601003566e-09
325 4.336631895572762e-12 3.321534161294616e-12 1.0332273489896483e-12 1.8241009526058456e-09 1.4118589021166586e-09 6.045629215496182e-10
26 2.8461277701560457e-12 2.1682831213918276e-12 2.0145550494750733e-12 6.1247958266507515e-09 -3.801061013549277e-09 -9.224043644158065e-09
427 1.2468036280888961e-12 1.4915982754404087e-12 -5.350986635080085e-13 -1.2108724204019828e-10 -1.065754501520333e-09 -1.4548004206072533e-10
3 1.8629290742187473e-13 2.9645009924393765e-12 -7.994013698302551e-13 -1.3950712938923112e-09 -2.2140771441715882e-12 4.9285009878706755e-09
377 -1.9116138405490378e-12 5.684550279445834e-13 1.8006718177807912e-12 1.7006020940655562e-09 -1.2836656224003609e-08 -1.1947157478788804e-08
417 -3.159067506867271e-13 -6.989213005918349e-13 -8.776028333631405e-13 3.5715808035281586e-10 2.9956295572482707e-10 -1.8556174089799112e-09
212 -3.8743014592333585e-12 9.560229040643308e-13 -1.8996364027316007e-13 -9.312090309018329e-10 -8.010507116139074e-10 8.319973929308202e-10
397 4.335112834058462e-12 5.961173870577918e-12 2.5411165443099336e-12 -3.9098219669635024e-10 -5.715064138566424e-10 2.04539297867544e-09
315 -4.335588641644429e-12 2.1643009596648224e-12 -7.148657387982055e-13 1.7340218356988168e-09 -5.154925256622329e-09 -3.4536355583988403e-09
305 4.4050306085939626e-10 -2.4025832155362154e-09 1.595670319189473e-09 -22.257670019969577 -60.720432507166784 34.440314892987935
200 -6.619645816325305e-13 1.938753531527357e-12 -2.3672665593405076e-12 1.3476848532912097e-09 5.13064006889141e-10 1.9806886448604796e-09
368 -3.760433636908374e-12 7.761169684837548e-12 -2.016953150134045e-12 4.325332770988652e-10 3.4723552850608744e-10 1.6279611496358583e-09
265 1.6820635782660258e-12 2.6505711220777384e-12 1.8909250000213458e-12 -2.3936934612719154e-09 -3.8687014644425063e-10 -1.3571687799361101e-09
175 -2.9076920779121932e-12 6.0154159481545406e-12 1.1235320733852499e-12 -3.456434053909498e-09 3.010362044638766e-11 1.3546433505999525e-09
391 1.1740149838026784e-12 8.98451650761715e-12 -4.971377527301593e-12 2.491138075690812e-09 -3.666607757755132e-09 -1.6597644831870892e-09
91 -5.674491467270014e-13 -7.581077711535615e-13 4.568615191234732e-13 -1.1803907459735963e-09 1.7433334522013155e-09 1.0926354526087528e-09
97 1.712213232075962e-12 1.0847724483695753e-12 2.709223166633975e-13 -1.2116944538734603e-09 1.8056551549879802e-09 4.091311690342738e-10
405 4.336441710652908e-12 2.1243527792088475e-12 1.0395163288909836e-12 -1.6716353656739427e-09 2.1329736615024417e-09 1.3816808470903783e-09
182 4.038152377313785e-12 3.252362872086347e-12 -1.1783241845192663e-12 -2.00019500802861e-09 -2.0052016959975023e-09 -5.832075956461475e-10
107 3.846918693930225e-12 2.7974258904915994e-12 -1.0827215206267419e-12 -8.100087565751723e-10 -1.4520584545395136e-09 8.170511438091999e-10
233 1.1142253776975876e-12 5.422713328623258e-13 2.712339408895177e-13 -6.760011451626248e-10 7.110165017596348e-10 1.8050517823818454e-09
460 -1.1270229282455678e-12 -2.389796427756831e-13 2.0436763565465718e-13 9.30310945201063e-10 -7.358414119353651e-10 -1.5001926736553772e-09
277 -2.4578979216427658e-12 1.0865883322137668e-12 -8.561996086193768e-13 -8.201356141911234e-10 8.626111460307963e-10 -3.495032118704926e-10
474 2.577120096408379e-12 2.36806892751768e-12 1.0838743908061426e-12 -2.2075823989488847e-10 7.1337614878518944e-12 -2.620877380696129e-10
285 -1.1858284459699633e-12 5.424148042393698e-13 2.7142488353979786e-13 -4.326269815320103e-10 -8.328759569628343e-10 1.5470782012959514e-09
271 -4.089794087020237e-12 -2.1507366545199853e-12 -2.16953260555122e-12 -7.213946879474744e-09 -4.5031284776911484e-09 4.446637062363257e-09
394 2.5472118835585695e-12 1.0854626140634259e-12 1.8357268300516967e-13 -1.345682317766993e-09 1.5483986000970454e-09 2.061114801658681e-09
52 2.880420682814821e-12 2.167956374013687e-12 1.060654273257436e-12 6.237009123761844e-10 -8.587521114551967e-09 3.6452295023724715e-09
115 4.327745751654389e-12 3.2504202303441647e-12 3.9235867527145024e-13 -1.5588828425261737e-10 9.168579473983668e-10 3.443937161584257e-10
326 -3.084435574248783e-12 2.168313308773247e-12 -1.0717272420111003e-12 -4.3089715420418357e-10 -1.370026180396157e-09 7.404746651377005e-11
302 -6.031579425439357e-14 9.219438881358046e-12 -2.170733426754064e-12 -1.974362370749984e-09 3.497187844485177e-09 5.28374643255491e-10
499 -9.188834547502066e-13 2.1667868285506284e-12 -5.233400504682693e-13 -2.0634061327322096e-10 7.956641142209768e-10 -1.0072249697486926e-09
342 -6.061075170029299e-13 2.1669122343841865e-12 -1.08002396484708e-12 4.863100909966286e-10 9.78843515014133e-11 1.3099174896611407e-09
247 7.748478812412807e-16 1.9738750469648853e-12 -9.827014627440028e-13 -5.532020775969593e-10 2.8999580034178135e-10 8.101222494034852e-10
155 2.274185437633566e-12 1.2955994902059069e-12 -3.504338662714521e-12 -4.1437155742044e-09 1.521584934523145e-09 2.615371420703009e-10
476 -4.336455084433858e-12 1.3478194572282492e-12 -3.92096487366331e-12 -7.707250854269707e-10 -3.486068538369393e-09 1.993692126990905e-09
309 3.0536320494194502e-12 6.5054238007705124e-12 -2.2393806161061804e-12 -3.63653455042424e-11 2.5732514250656658e-09 -2.2540741070550643e-09
188 1.928368043320344e-13 2.1687612173323423e-12 -1.0830666763795905e-12 -7.208241778035253e-11 -4.372219957435972e-10 -1.1220308669660482e-11
23 4.3066357621497055e-12 3.9815853081321026e-12 -2.1685358989328385e-12 3.882357833676316e-10 1.159586134132377e-09 -2.645594921779284e-09
496 2.042048040575437e-12 -9.410742766078648e-13 -1.6817832609618548e-12 -1.1367293851381922e-09 -1.3952114493827523e-09 8.429914005980642e-10
337 2.9156071271645878e-12 7.384885714082757e-12 -2.1680326115217078e-12 -3.5232696952992396e-09 1.6215949212853183e-09 1.0292461140414911e-09
14 -1.1967404082771439e-12 5.428014663190775e-13 -2.2839225374437424e-13 -3.8964529061518084e-10 -1.724403164924767e-09 7.409949648623545e-10
288 -4.336448204549766e-12 7.055807848641215e-12 -2.1676006966188748e-12 -1.9570933579200212e-09 -2.1094734902967574e-09 -2.794194061748132e-09
224 -4.335068581772449e-12 3.685217545333479e-12 -2.1658395669389397e-12 -6.525761815098415e-10 5.534957447878073e-09 3.037236898042093e-09
16 1.1595016220162563e-12 2.1261529454517525e-12 -6.467409254348607e-13 1.4490231891941445e-09 7.337838076043977e-09 1.3312418603295461e-09
372 2.518866474170081e-12 4.551368422325383e-12 -2.005167303845676e-12 -1.7813529046405529e-09 -1.5983329401463209e-09 2.66894481791279e-09
131 1.9444940077390758e-12 3.2524904073801852e-12 2.0542897693568672e-12 7.124998567148909e-10 -1.6202034142314e-09 -7.401943951935434e-11
376 -3.594408061559752e-13 2.138954495936579e-12 -2.167877258971132e-12 1.293428302871883e-11 -5.305358859909755e-10 -5.332224729301396e-10
373 2.0219748926395104e-13 2.161784674941992e-12 -6.192268480755007e-13 1.8733184230457517e-09 -6.474276138030148e-10 -1.4493822682374857e-09
378 4.337820859556097e-12 4.25246173661435e-13 -5.144884670129278e-12 -6.49748969218515e-09 1.0142711473223001e-08 -2.0509765722299847e-09
262 -2.5023013640946955e-12 2.130768526498582e-12 -1.6250095736888211e-12 -9.180467910620851e-10 -3.2104184878713866e-09 2.4382068789160093e-09
412 -4.3368268703190496e-12 2.167033499425104e-12 -8.682234649549923e-12 -1.2717011067724555e-08 5.94949442300941e-09 3.4837543651506523e-09
272 3.610052785096622e-12 5.0252585375321424e-12 -2.1683078877104533e-12 -2.3374467908551203e-09 -1.9760268587893404e-09 -4.711301668106492e-10
109 4.336175979788873e-12 2.1703783677926555e-12 -3.1861739033093504e-13 -2.7417179307018326e-09 -7.725644237140917e-10 -4.824327787570098e-10
481 4.336433455456709e-12 6.506912219871227e-12 -4.336696174442645e-12 -6.325278774283964e-10 9.062334019790677e-10 1.6724584294813527e-09
414 3.651148930971321e-12 8.057262064036533e-12 -4.337060020560096e-12 2.0595186583199976e-09 1.7861949934714785e-10 -2.052421549230038e-09
180 2.134618940044878e-12 9.611221994283215e-12 3.938469306138302e-12 1.0329655328304483e-08 -1.2999668216363846e-09 -3.330106436514108e-09
56 4.339303168183902e-12 2.170524415516764e-12 -2.4739398718510286e-12 2.031692867815283e-09 1.912416503939542e-09 2.090650542643771e-09
426 3.6282447274497303e-12 7.159432106156953e-12 -4.33474570906975e-12 1.0820119186681446e-09 5.697323921441177e-10 -1.0043073506111016e-09
385 2.9962839860005798e-12 6.323793238517249e-12 3.0843810014210615e-13 -1.01966942172635e-09 7.830011254708852e-11 3.6911870226498224e-10
413 3.995971808059037e-12 6.515555513151323e-12 -4.7132854821977434e-12 4.0176499079631305e-09 5.4542783735186306e-09 1.1862859810312414e-09
410 9.004971905133465e-13 2.110306204206073e-12 -4.336037533846633e-12 8.335793280283351e-10 -7.564137165853868e-10 2.007353013252883e-09
198 4.3332558391769525e-12 3.2376652243796193e-12 -4.335706311490283e-12 2.1727006526206516e-10 4.5045498349275854e-10 2.6412621382544893e-09
72 2.996894180510953e-12 5.356947926623319e-12 -4.810190813986497e-13 -5.801935090235839e-10 3.937889964529915e-10 -4.096262599711131e-11
158 1.5134674147539976e-12 3.97520865638859e-12 9.373658272237287e-14 3.4139078946566506e-09 7.501027204013569e-10 -2.9424120299411628e-09
248 4.337899958540494e-12 4.9179890900747915e-12 -3.4332133596361287e-12 1.5341377343183428e-09 1.632696321845249e-09 -1.2879689406132886e-10
31 1.958972964930418e-12 7.587225549553249e-12 -4.254731408231484e-12 -2.016773407760085e-09 -2.600394077220842e-10 7.697916692344925e-09
40 9.93268309965093e-13 1.1545452390195338e-11 4.545282402112397e-12 -1.9384737824434294e-08 -4.230791544051641e-09 -6.294839083992184e-09
357 4.3335714433920246e-12 6.609146418061037e-12 -3.752067234804794e-12 -1.072947720093866e-09 2.378470844896376e-09 2.8925026122488182e-09
75 1.1334897563529918e-12 4.441766517999021e-12 -4.312935908376288e-12 4.57436775729941e-09 -2.493109954352551e-09 -1.047263027131505e-08
143 9.83149792479033e-13 4.113361327385742e-12 -4.3368369682093046e-12 3.6324150558579184e-09 -1.2915854712401654e-09 7.123914527632531e-09
42 2.1749837444315916e-11 1.4550037743543327e-11 -4.796058583770791e-12 -3.535359224567526e-09 -1.357977666576559e-08 -2.58501675348507e-08
255 2.2669955347134714e-12 8.826274763142998e-12 -4.340031344277727e-12 2.0830701315158936e-09 -2.732534693226147e-09 9.660950172354217e-10
429 4.242219478556867e-12 6.3578079875290365e-12 -1.117553721884307e-13 5.348294018152834e-10 3.442105629399562e-10 -5.705012968649482e-10
488 4.336944800400908e-12 7.468230389174646e-12 2.1454614866277062e-12 -9.489516022740099e-10 9.396335513437773e-10 2.3913923132751357e-10
134 4.337118313605795e-12 6.514919399858504e-12 -1.7455721810664208e-13 -1.1876260928056572e-10 1.1169869919671971e-09 -1.749455808136893e-10
94 4.333594178110014e-12 5.7550079111785626e-12 -2.501433875895159e-13 1.24297084540715e-09 7.48173698519509e-10 -7.547804580221876e-09
274 -4.340280187930921e-12 2.0169732928843424e-11 -5.1826071251360084e-12 2.7520842177168192e-08 -1.4074268114554162e-08 1.2448833152503887e-08
296 -3.2700925486021594e-12 1.483448445472865e-11 -8.957305925705387e-12 -2.8080924940153346e-09 -3.4908945720291296e-10 1.2895570933424639e-09
95 -3.643559687404427e-12 4.762800350780101e-12 -1.643381859209263e-12 6.136824879345011e-09 4.909058279463732e-09 -3.5545544752324937e-09
290 4.311508766809473e-12 6.5050799775643394e-12 -7.011784334196149e-12 -3.6635605633610914e-09 -1.79780548094783e-09 -9.688845386756456e-10
159 4.334403920131467e-12 6.129856942606301e-12 1.065820788130629e-12 -9.692429923216395e-10 -2.1467540947228705e-09 1.5080784553603932e-09
446 4.1353401810099015e-12 2.167087875070603e-12 -3.896288027438539e-13 -2.4119677862294913e-09 -4.308485150823919e-09 -6.748560158705589e-10
195 3.951013805657436e-12 8.772550129678434e-12 4.5281034573576924e-12 2.2181604068939385e-09 -1.6604952856127011e-09 4.1551952962662944e-10
419 4.337305236480188e-12 7.879694286034869e-12 -4.3359566166498946e-12 2.5883264022394025e-09 9.327472727152829e-12 -7.586765529025273e-09
359 4.334732834858081e-12 6.469682497974582e-12 1.8616326542187923e-12 6.584257179561075e-09 -3.565136467689587e-09 5.200032543061707e-10
400 -2.2652057722775493e-12 8.92174892805361e-12 -4.339191966346743e-12 -4.953796928912574e-09 -2.412155376966586e-09 -1.2865992293670684e-09
24 4.316514707142117e-12 4.614143987855416e-12 -4.335862062166223e-12 4.505894424145582e-09 -5.4248405903095306e-09 -3.4341927169550483e-09
333 5.073601081600592e-13 5.349659798615616e-12 -2.829821086179515e-12 -1.6092274339156464e-10 -1.2858229972258498e-09 -1.0549645184198134e-10
221 4.3365585154422215e-12 6.505479709411669e-12 -4.234115297700513e-12 2.1192753095789516e-09 -2.007773907466133e-09 4.754901843184289e-10
157 3.887150233163342e-12 5.4211448144999785e-12 3.336118744786978e-13 -8.418513119302259e-10 6.183005375557961e-10 -1.1071839562477221e-10
96 4.335978752648463e-12 1.0151946790616804e-11 -7.456427159954413e-12 -9.889438455042052e-10 1.6343183109003486e-09 -5.344719433435282e-10
328 3.6261468155133354e-12 5.427231165612409e-12 -3.228258913005493e-12 -9.241388313367275e-10 -6.500756149210583e-10 -4.6141663406538765e-10
227 1.1729970970193432e-12 1.975858925110727e-11 6.665831437574443e-12 8.121312687364206e-09 -3.2012824521947776e-09 9.754478063629849e-09
68 2.635458435779969e-12 4.897185045491532e-12 2.2705130720926944e-12 -1.5541123384844087e-09 -3.031976501965681e-11 -3.2251282938977785e-10
231 2.7543437685646285e-12 6.793302033553743e-12 -4.336985746263452e-12 4.936888109769982e-10 -4.0062243363803094e-10 -1.063921953639728e-09
433 3.105550475694184e-12 1.145760249466237e-11 8.553674431299451e-13 -6.954159226649761e-09 -3.081518178443159e-09 1.7875234266968015e-09
280 4.335654588621698e-12 1.0978618290071488e-11 -4.33681676722718e-12 -2.054875490280207e-09 3.782015196515249e-09 5.84089014066519e-09
440 4.334509809761295e-12 6.504945616654706e-12 -1.6236669075380001e-12 -1.1713105290519047e-09 -2.896084756792814e-10 -1.5522773505985664e-09
263 4.33651518271206e-12 3.706465139693379e-12 -1.1988024872377019e-12 3.83769724190152e-09 3.24691525904827e-09 5.699562702809786e-10
177 4.122097728188941e-12 4.5827972805864946e-12 -4.337227293896604e-12 2.431877596866766e-09 1.177290969074874e-08 -2.2377416758563254e-09
454 -3.266896101970321e-12 8.041540558281965e-12 -3.5075293471918993e-12 6.606959137896721e-10 2.679099714637981e-09 -2.8381533869066363e-09
169 2.5122915057052324e-12 5.379635336684602e-12 -3.588040048292485e-12 -9.193984240045962e-10 -1.2360777513711863e-09 -1.286230446574023e-10
100 1.2166856721744512e-08 1.9921988072955124e-08 -2.782917705034981e-08 -850.3112948992039 -426.0978978138846 -299.71715385843885
240 -1.7205758995381248e-13 1.0840273628820596e-11 -3.2858638042682464e-12 -1.8456376903928844e-09 -3.4481664348579946e-09 -1.3004191434675205e-09
138 4.299552436772487e-12 8.095531905502698e-12 -4.33412924177074e-12 5.128290528081316e-09 -6.192368038769412e-09 -1.0615315625361946e-09
269 4.318424662420371e-12 6.0192622733181395e-12 4.335335349126737e-12 -3.2020151278925395e-09 5.690233312577161e-10 -7.153487940581793e-11
70 -1.107e-321 -1.1e-321 1.107e-321 -15.822197656655163 -2.199607153256719 9.698340140058473
185 4.335453327718638e-12 2.244653893785383e-12 7.792274377884514e-13 7.243120356383438e-09 -2.809345864047029e-09 3.9473581958196977e-10
71 6.846033996078947e-13 6.5315046481368355e-12 -1.2367154015362163e-12 2.3284531317178603e-10 1.4538598253252955e-09 1.9806062596425634e-09
168 1.9270976425085285e-12 6.5710937539874994e-12 -5.273300918891415e-13 -7.81266269754649e-10 -6.732292525129082e-10 1.6678089262953883e-09
268 -4.418210439090579e-12 1.5178787530836825e-11 -3.990432176174828e-12 1.4802746840938908e-08 5.960255710825608e-09 -1.4001480412401077e-08
213 8.43859477610557e-13 3.849731402426773e-12 4.33424171515975e-12 -2.371104197882923e-10 1.7888434635520894e-09 -2.205367820658532e-09
20 4.337354273629356e-12 2.5037148271516604e-12 2.8949334354026876e-12 -3.868015340522878e-09 1.7988014776608322e-08 -2.4362252128905665e-09
451 1.2057245020617424e-12 8.110223409427219e-12 -4.3367379457218295e-12 1.0029782281271472e-09 -4.626333153791902e-09 -1.0132638640424576e-09
187 3.479465887964542e-12 2.1682009288129643e-12 -9.162433956170077e-13 1.0736397735795305e-09 -1.3400280304202676e-09 1.7043826853914016e-10
432 4.326488809220837e-12 6.7795667999884665e-12 -4.338108757626173e-12 -2.3379839949876373e-09 1.2908982347071955e-09 3.1721927792051915e-09
500 4.3369937324337334e-12 2.103694323874698e-12 -2.4180369570199146e-12 2.878477416708622e-09 1.9555352231355748e-09 -1.8061771553565873e-09
366 -2.771784967697365e-12 6.109061337550048e-12 9.675193181480368e-13 5.3463296460960366e-11 1.749463342502955e-09 -7.021326742870126e-10
365 -1.6004909027897218e-10 4.655036002136308e-10 6.656382268226313e-10 5.8350414654375165 -46.84639934551792 -13.139350961003892
441 -3.1843684570896944e-12 -2.160985259308348e-12 -7.505943330528867e-12 3.5699213468639486e-09 -5.375379431642673e-09 1.4141733822220094e-09
455 2.5655395980573576e-12 4.3373679511231664e-12 -8.65774675005068e-13 5.389499631178045e-10 2.2033603165363337e-11 -9.26617425807247e-10
237 -7.14032559524215e-13 1.8792076949525693e-12 4.1264538615733776e-13 -1.5688119826288962e-09 -7.270906098371126e-10 2.5218644629868274e-09
281 -3.657320745381496e-12 3.6213725364892283e-12 -2.170424742313616e-12 -2.684788477847471e-09 -1.3944989699983856e-09 -1.1535804188137366e-09
128 -1.9681652337704637e-12 -3.855771198210633e-13 2.709246894978845e-13 7.283661533224436e-10 -1.1892900555132305e-09 -9.602738313241258e-10
270 4.946639603168334e-12 4.336911886554822e-12 2.120339548680224e-12 -2.921752515890298e-09 1.1516031841656254e-08 1.8637111435008828e-09
324 -6.205498763391972e-12 4.3334658147143735e-12 2.1677325235902277e-12 -1.4326780461476795e-09 -4.785256638698173e-09 7.402662878451441e-11
286 -4.3363528416561615e-12 4.336593190161724e-12 2.1607109812092173e-12 2.4201305112454246e-09 6.64545188476631e-10 -2.524775578022046e-09
478 -4.3366753953721715e-12 4.3358169040353895e-12 -5.390072045739278e-12 -1.424346154281796e-10 -1.3896558527286096e-09 -1.8499510248895264e-09
118 -1.301155586857437e-11 1.412952256313888e-12 -8.433559663366988e-12 -1.1872766155179637e-09 -1.0367818353229276e-08 3.042296320718773e-09
489 -1.1206844319150273e-12 2.737387541086873e-12 2.0170338376251143e-13 9.121546409127666e-10 -4.954894731560988e-10 -4.784659551256473e-10
146 1.171576464921043e-11 4.3398188556942234e-12 -1.0841311814333946e-11 -1.968114442846655e-09 2.6322392070640544e-08 -6.169118440733087e-10
48 -1.0213097382583634e-08 5.6296324858742014e-08 -8.44287282480119e-09 -2.93486128726246e-05 -1.4732793473765353e-05 -6.252345915476016e-05
438 -2.7708689976546745e-12 2.1677702628188166e-12 -1.6335554341906056e-12 -1.6443868813841409e-09 -4.2536598351766924e-10 1.6869400275677353e-09
425 -3.035784261285395e-11 4.3375834128588535e-12 2.3851937864053423e-11 1.4829755131033695e-08 1.7223329857475468e-08 2.4159369514896714e-08
364 -3.691947092291707e-12 4.334874962192131e-12 1.2490151621752473e-12 -2.0314871979815914e-10 7.963775251637033e-10 -4.599564990352378e-09
218 -2.1981266509456255e-12 2.7510917483469554e-12 -6.454706920228313e-12 1.4136117729008786e-10 -3.6073109103655776e-09 3.3011382002708114e-10
423 -3.6205826148217327e-13 -2.0800752313756862e-12 -5.419736016536377e-13 2.0456929663723953e-09 1.8124579871304697e-10 1.2670755974936826e-09
452 -2.2177139414966312e-11 1.2799023618729042e-11 5.553369830523285e-12 -6.304342610955749e-09 -9.633791258950178e-09 -5.8091996208649635e-09
206 -1.300989341171884e-11 1.0487952870183074e-11 1.4373899694601384e-12 1.0819122646008768e-09 4.241937359544226e-09 1.6270294517531871e-09
331 -8.429094355491328e-12 9.852844368318127e-13 -1.5122031929678793e-11 7.221434414482775e-09 -3.893340555042708e-09 -7.050721756395123e-09
303 -4.33615355215632e-12 2.4028622410874167e-12 9.957998540802974e-13 1.5561913738332878e-09 2.63815791815622e-09 3.162821394337252e-09
287 1.866552663740765e-13 4.340198825310579e-12 -2.6723566141640816e-12 1.0106852312948212e-09 4.663061626111696e-10 -2.1695973023576058e-09
164 4.336764966610983e-12 1.3010597076105007e-11 -9.961034578838027e-12 2.5992894249632387e-09 6.8090236177025775e-09 6.788648735178419e-09
205 -1.3432733582615731e-12 3.3164296816382662e-12 -3.0269812362450824e-13 -3.283109473967205e-09 -1.1262107971774094e-09 3.302750799988442e-09
132 -5.80267907920125e-12 4.336638512720308e-12 2.8761204455222814e-12 7.285442964261778e-10 -8.103241148120905e-09 1.9544919855970556e-09
136 -1.301006263340769e-11 4.339536968656355e-12 -2.1620023118394922e-12 6.20169321342788e-09 -3.5252710440960004e-10 1.337938788876298e-08
25 1.1633807417196966e-12 2.082650572215155e-12 1.0277752224014058e-12 9.033543913163241e-10 1.285628158246162e-09 -6.116116234593898e-09
129 -4.3327274907949585e-12 4.050950649620516e-12 -4.604971900624589e-12 1.4784599508221973e-09 3.082099697858022e-10 -1.908675515784414e-09
329 -2.68447939176404e-12 4.336537343432351e-12 4.315764766977503e-12 1.5515189533339803e-10 -3.243944077173416e-09 -1.1146709391638029e-10
21 2.0134409756880823e-12 6.323871897897617e-13 -5.881891793047995e-13 -5.594119325153775e-10 1.819470968244969e-09 -1.5494950674926524e-09
486 4.333915194134083e-12 7.58270055264749e-12 -1.5661325049946658e-11 -1.548064501736487e-08 1.3089284496154009e-08 -1.2038144533006113e-09
133 -4.3319908338667575e-12 7.568622795132167e-12 2.1704376950699725e-12 -1.0140314893079063e-09 1.7284750144730775e-09 -5.564371337060467e-10
39 7.145050930087672e-12 7.63318326364808e-12 -4.3513490917168096e-12 4.652229803766015e-09 9.757324642431242e-09 1.486487706470615e-08
250 -2.202381110508819e-12 -2.3637465437595943e-12 4.99987527026559e-13 -2.646798065177288e-11 -6.152793382275585e-09 -1.6868022263727382e-09
41 4.133054537549796e-12 4.336614131677752e-12 6.128612177318708e-13 4.2707014143499293e-10 7.220484350060813e-10 4.650817095205176e-11
334 -2.6580370012907456e-12 4.3369727440034675e-12 -2.1624537465238947e-12 1.4829563041054633e-09 -1.360302496301327e-09 -4.901139053891285e-09
379 2.2410186341063394e-12 3.820312416383042e-12 -1.0785503480004925e-12 2.3120642695417512e-09 6.3993408887226085e-09 -4.791164526036657e-09
253 -2.219963894310432e-12 1.019580552170641e-12 -4.853339583675874e-12 5.487944791992725e-10 6.440007550931079e-09 -6.417226223474578e-11
298 1.164401517765615e-12 -5.46296993941574e-14 -3.7055798598846373e-13 7.380547571650449e-10 1.5018521365005991e-09 -1.9800139549402383e-09
310 4.337367979395081e-12 8.230059496245656e-12 -5.2212235036015874e-12 -1.3015172511446408e-09 -9.874204035955715e-09 -9.668712646688537e-09
422 -4.326350533865717e-12 3.913001716084781e-12 -2.6447313092090883e-12 3.5274982387083505e-09 1.0447344853417765e-09 2.7681948320637924e-09
388 -2.3571658800081155e-12 2.303007472803275e-12 -1.3492474917368269e-12 -3.023772004898463e-10 -1.8068943783925778e-09 -7.622739333630596e-12
214 8.043996153801457e-13 2.6657944331796787e-12 4.377475864525438e-13 -1.6295474915785125e-09 1.3047776380812377e-09 1.6417204530649353e-09
457 -1.0156626296111184e-12 2.6472708979649277e-12 1.178915177650124e-13 -2.4116827057017122e-09 8.644718177918707e-10 -4.518586688067706e-10
415 -2.2911005263763366e-12 1.466003439126463e-12 -1.5115922488398815e-12 -4.0081527610139684e-10 -1.1332734031738686e-09 -1.9849581329600701e-10
139 -4.33556965210289e-12 2.1903269611654264e-12 1.6034080073676107e-12 6.645074859540099e-10 -1.0462994711297415e-09 -1.6373779818619425e-10
332 4.3363714177384064e-12 2.176120225224776e-12 9.202895881719852e-13 3.823481756487813e-10 2.1580174848225075e-09 3.5457862951533247e-09
190 -4.331018487315603e-12 4.336577707592276e-12 -5.2813003661569905e-12 3.5271805775864908e-09 5.669925967175366e-09 2.1421027431371955e-09
356 3.919827922171077e-12 5.216562415136459e-12 -3.851214142034841e-12 -3.719490131285192e-10 8.886113692967903e-09 -8.114882713987381e-10
216 -1.9999625391566053e-11 5.973635987079817e-12 2.1692219186498894e-12 1.3118057691728618e-09 7.742806831186734e-09 -1.254194732525512e-08
408 7.785759833188899e-13 1.6506267071224327e-12 2.1695177537185088e-14 -9.116516686120647e-10 1.2217416605551618e-09 3.058761806134312e-09
79 -2.0504793518170335e-12 2.208450431885221e-12 7.637568471113331e-13 -5.46814164521171e-10 -4.272788078975751e-09 -7.931765203601345e-09
226 -4.335728061504658e-12 4.328104486347196e-12 -1.3193214154506917e-12 -3.244128433631263e-09 -3.4958555202649417e-09 -3.282359549422604e-09
203 -4.286211513004422e-12 4.3395356351286245e-12 -2.8503884926148667e-12 -1.8794039979498365e-09 1.8545936016557451e-09 2.9907113404360157e-09
239 1.1261121550633078e-12 8.065842190888693e-12 -6.1944862115537325e-12 -2.2523849965184456e-09 -2.188095627426806e-09 5.713851085656524e-09
479 2.797288085825188e-12 -4.336542792474293e-12 -9.908435538836617e-12 9.611465554070218e-09 -2.1594938881681355e-08 -5.936634422431704e-09
4 -1.3476551881171993e-12 -3.0990855192160883e-13 -8.130086263914878e-13 7.379117774151991e-10 -1.5703650489923992e-09 -3.5011444612329815e-09
279 4.3378678698295266e-12 4.646898100289722e-12 1.6479114007103417e-12 -3.7099488563700187e-09 -2.666277111240773e-09 -1.1344140765158028e-09
495 2.538095949206126e-12 2.2273706939409523e-11 -2.4854604501337444e-12 -1.4273969092344044e-08 -2.579088786878289e-09 -1.303065699456376e-08
28 3.861594053545324e-12 4.328831150521819e-12 4.325570366038189e-12 3.841755829103815e-09 -4.521012625252218e-09 1.674570879516666e-09
436 -4.3372088957148975e-12 1.3010828967620594e-11 8.55244781385015e-12 9.769622764846056e-10 5.1138041610611095e-09 -3.5521152332675545e-09
494 4.336251339646792e-12 5.248602276255471e-12 9.826811810887742e-13 4.188356931293051e-09 1.922721756299314e-09 -3.3334666707969636e-09
293 2.1679043744001928e-11 1.0653737921078162e-11 -3.1085627744764583e-12 1.374217311088851e-08 -3.846325745151236e-08 4.4371659392899855e-08
245 3.9254386340670465e-12 7.487721432333876e-12 3.0212743971720115e-12 -3.6609707181617804e-09 9.852384869093265e-09 -7.55987138347666e-09
104 4.337842919150784e-12 4.330900326424447e-12 2.5654925354285225e-12 3.222148041511418e-10 1.9420127114323798e-10 1.1683639292557809e-09
126 7.881550396924539e-12 4.334789566890231e-12 -4.336206827604045e-12 3.1102011351042426e-09 8.568182120868197e-10 1.7836567696009674e-10
327 2.4224360516978113e-12 1.0588811658861389e-11 4.337505830787085e-12 2.0066672128867406e-09 -7.367319781651539e-10 -1.1572724092262053e-09
88 4.341080349032179e-12 -4.078807101273882e-12 -5.645324272495561e-12 3.753464687674992e-09 -2.3962544677037807e-09 1.482826244376176e-08
44 3.697045422219327e-16 3.549930077295841e-12 4.323844527396143e-12 3.4834392863870265e-09 2.6419649834052053e-09 -7.348007518226546e-09
406 -4.335620793270505e-12 1.0118960242919262e-11 1.5522071964715515e-12 7.529061335317263e-09 5.819060826242468e-09 1.9300077244208215e-09
401 3.1363215440944567e-13 1.1995867121212235e-11 4.8033296610791e-12 2.905917660232449e-10 -3.3452176446014577e-09 -7.024147478046114e-10
409 3.90317069349765e-11 1.756415543045072e-11 -2.1952470619570477e-11 -1.1257475393925274e-08 1.4171452282169895e-08 -4.132653355853062e-08
211 4.337343635101466e-12 4.3095500999536694e-12 2.855872022841529e-12 -1.8486010279793304e-09 -4.625532252491923e-09 6.6739207400007945e-09
43 4.340555560264357e-12 5.537937346999342e-12 1.553586017753129e-12 1.0248581685271345e-08 3.6597377856023524e-10 4.259536263216743e-09
453 2.1563709813973404e-11 2.287180490305003e-11 -4.517439584204698e-12 -2.339620326764933e-10 -3.268265582525147e-10 2.270213634100621e-08
484 3.6284345963021584e-13 4.337233522918878e-12 -3.445623119666239e-13 3.2577805552463443e-09 -2.3190361079464734e-10 -1.2253343898844624e-09
54 2.8697746139273803e-13 1.30067555659482e-11 4.320158231469165e-12 -1.093248441473708e-08 -5.118765029937746e-09 5.62251736032304e-09
473 4.958158932713029e-12 4.335693134902521e-12 -3.3859076877254344e-14 6.364675921644926e-10 -3.6596324976120103e-09 -1.96293216965429e-09
38 -8.685763475382727e-12 1.3005908514081587e-11 4.334067081421926e-12 1.6482263175663426e-08 1.306370253414644e-08 4.17403078479934e-09
464 4.333385055428049e-12 1.3007819935253834e-11 4.336296467272078e-12 8.465764880998944e-10 2.013535741578221e-09 -8.475770519218495e-09
439 4.336181549902868e-12 1.2969848218128398e-11 4.3367212876834306e-12 1.0915957295500109e-09 6.162365035934695e-10 -5.194188126992987e-10
105 -5.165336339304077e-13 4.334729618542786e-12 4.329968522515803e-12 2.601216284768665e-09 6.955135320688151e-10 2.2042694234113803e-09
186 -1.288353889300751e-11 1.5300129289425664e-11 -4.337172832762418e-12 -1.677033768398474e-08 -1.301924809651087e-08 4.3298269685582545e-09
316 4.329932175850057e-12 5.8309448148720355e-12 5.922846646258761e-13 -2.6639037985195583e-09 4.490128660161886e-09 -4.225674716234566e-09
228 -4.338220394383409e-12 4.337879270335753e-12 1.1315354249847784e-12 5.904932028556529e-10 2.0913345322221216e-09 1.081896821424245e-10
11 -6.135921714656788e-12 2.1682692994965184e-11 6.339054005364536e-12 2.1476233163027245e-08 3.691800429203996e-10 -1.0781162406455908e-08
351 7.802822634090828e-12 4.082416748524757e-12 -3.905551659212439e-12 1.9233185066939747e-09 -3.7129042092443033e-09 6.74849143078708e-11
9 4.264637670157104e-12 2.1914218199401186e-12 1.2591750704479733e-12 9.943923651566525e-10 -4.500142884864004e-09 4.0492980762940065e-09
93 1.6676912076197734e-12 4.337567936539078e-12 -4.332674236532174e-12 3.819647983643327e-09 -9.487112185551307e-10 -8.923662599773528e-10
491 4.335779064863207e-12 2.0950234263290486e-11 4.336446478956395e-12 8.379302315078957e-09 -2.5893547036086935e-09 6.940426893969566e-09
289 4.415950793318308e-13 9.389362871014695e-12 1.9129109555196966e-12 1.6544685416432612e-09 -8.312855382738554e-09 2.827989240768059e-09
191 4.3328242367478e-12 1.2039580209666217e-11 5.381661143606585e-12 -6.413304434517771e-10 1.7372060387457712e-09 -7.294496627482478e-10
462 4.336470346655974e-12 4.3356470828272886e-12 -4.336640285358502e-12 -5.429239998948459e-09 8.704864208104634e-10 9.035297916536554e-10
111 2.26025045924422e-12 1.1803306042268728e-11 4.336883706272511e-12 -2.0211334882146982e-09 -4.2104978633966463e-10 -7.506701272969492e-10
308 4.336375418273433e-12 8.678819711357464e-12 -3.358976921238716e-12 -1.669346312484622e-09 2.323827832221279e-09 1.4571270706401434e-09
106 5.829020131324403e-13 -2.795980248870638e-12 -1.2213569126379809e-11 -2.3419908417129456e-08 1.7925730640104083e-08 -6.934643187964688e-09
151 -1.72017423065384e-12 1.2037571147837748e-12 8.749588813834551e-13 6.019625721817024e-10 1.7594673867494293e-09 2.9432013525544817e-09
122 4.336518579201617e-12 9.77768923862509e-12 3.9496267212791325e-12 -2.185758914217407e-10 -4.072579074601312e-09 2.835258992672544e-09
362 6.795474490000999e-12 4.3422839012626005e-12 -4.337788828269172e-12 4.8725492351060236e-09 -3.5082705212937896e-09 3.1638313110584633e-09
416 2.168423647653117e-11 2.1397957752612993e-11 -4.334315244601265e-12 9.156476452797781e-09 1.308561306097467e-09 3.5208690868787984e-08
33 9.335278610043926e-12 2.0404755200349533e-11 1.2290617688960798e-12 2.3600224046938223e-08 -1.0600657103113863e-09 8.027450186722576e-09
244 1.3010214902525352e-11 6.1555249594825235e-12 -4.323947521055704e-12 3.217967707393932e-08 1.9311368780304577e-08 -1.1762544432309962e-08
314 4.339266499140913e-12 4.337555680318372e-12 3.2382554585005607e-13 1.2096929416213584e-09 4.5744150011155356e-10 -1.6597555006501938e-09
108 2.2914636242068756e-12 2.1711114706653277e-12 -3.668494063552505e-12 -3.5591650806720086e-11 2.2115221307839873e-09 2.285874109757789e-09
283 4.007914326417495e-12 7.468694159532893e-12 -1.1126953456318274e-12 1.6319567247739496e-10 -3.011053117929981e-09 -3.628707588933086e-09
345 3.8793701859926806e-12 4.338254337065354e-12 -1.225152292708758e-12 -5.83662608034585e-09 -1.5262521636084194e-09 1.3809389483714303e-09
420 -9.243860489727285e-14 1.0287231328482099e-11 -4.335959770685044e-12 3.092345410999079e-09 -2.860639511654312e-09 2.870761345114689e-09
386 1.3011354186443003e-11 3.0788169150152776e-12 -4.337399021190377e-12 -5.7466097230384605e-09 -4.726597579288153e-09 -1.402814426032486e-09
55 4.336986390745464e-12 4.33693637202434e-12 2.603997565780747e-12 -4.487355051219087e-09 -6.9687608242355806e-09 -3.956819099250497e-09
46 3.8725236926992254e-12 1.3035701853839459e-11 5.023294057119062e-12 -5.240306940844105e-09 -9.72724974476133e-10 -6.140067159541939e-09
65 1.3915185631260655e-11 7.315076330705841e-12 4.903982364184057e-12 -1.3182568025040998e-08 -2.572469079833334e-08 1.7064530302396556e-08
162 2.816395901417497e-11 1.3013455711817705e-11 -5.499104975911015e-12 3.7859725858062535e-09 -1.1137905419516506e-08 -2.8100460765526485e-08
35 -4.336370078441116e-12 1.3904118544051382e-11 2.528848345294986e-12 -2.8324464154965814e-08 -1.7276810347219156e-08 9.968671505918544e-09
445 -8.065011440211324e-13 2.1685316144466886e-11 1.0843632570831411e-11 -1.676336568829107e-08 1.3432617585235535e-08 -7.835556269049136e-09
482 2.2232696627108663e-12 1.300986403526354e-11 3.811564484188848e-13 2.9746106433533177e-09 -8.003256666126755e-09 5.797769818624147e-09
336 6.117846548591545e-12 2.1684032863804678e-11 -1.2084352676403044e-11 5.280518000933756e-09 -3.283007007737446e-10 -1.3629661539255012e-08
153 4.3328706152955395e-12 3.936815936617244e-12 -2.847989103816622e-12 -2.3524023786943245e-09 1.7644042224379527e-09 -4.395283901573976e-10
322 2.1675729345999297e-12 5.689341361489847e-12 -2.128600385982569e-12 2.9613567585152323e-10 -3.9976810777392655e-10 1.374420352379296e-10
