ITEM: TIMESTEP
200000
ITEM: NUMBER OF ATOMS
500
ITEM: BOX BOUNDS pp pp ff
0.0000000000000000e+00 1.5370634520482899e-02
0.0000000000000000e+00 1.5370634520482899e-02
0.0000000000000000e+00 1.5370634520482899e-02
ITEM: ATOMS id type x y z radius mass fx fy fz
1 1 0.00607539 0.00679226 0.00539122 0.00075 4.41786e-06 1.74995e-14 -3.48567e-14 -5.03307e-15
2 1 0.00149024 0.00581491 0.0104894 0.00075 4.41786e-06 4.44527e-14 -1.28279e-13 6.36832e-14
3 1 0.0140294 0.00424724 0.00688484 0.00075 4.41786e-06 -3.35093e-14 -5.6692e-14 3.97392e-14
4 1 0.00799383 0.00871752 0.000705244 0.00075 4.41786e-06 -3.14877e-14 7.44709e-15 2.99277e-15
5 1 0.0106095 0.00249412 0.00642111 0.00075 4.41786e-06 4.67059e-14 -3.33267e-15 9.59432e-15
6 1 0.00574238 0.00865494 0.00244507 0.00075 4.41786e-06 -1.56632e-14 8.8804e-15 -1.75847e-14
7 1 0.00598027 0.00364413 0.0107661 0.00075 4.41786e-06 -1.98964e-14 -1.32281e-14 -1.29002e-14
8 1 0.00588324 0.00731666 0.00289054 0.00075 4.41786e-06 -1.57181e-14 1.22368e-14 -7.788e-14
9 1 0.0107719 0.00914809 0.014687 0.00075 4.41786e-06 -6.8045e-15 2.39551e-15 1.46334e-14
10 1 0.00285051 0.00318146 0.01316 0.00075 4.41786e-06 -1.53893e-14 -4.59648e-14 -1.26892e-14
11 1 0.0138602 0.0105147 0.00882241 0.00075 4.41786e-06 -2.32291e-14 -6.8022e-14 1.90839e-14
12 1 0.00585256 0.00197604 0.0129501 0.00075 4.41786e-06 -8.93928e-15 5.65488e-16 -1.71722e-14
13 1 0.00668484 0.00574064 0.00066887 0.00075 4.41786e-06 2.4552e-14 -2.12239e-14 1.70277e-14
14 1 0.0121966 0.00272697 0.00060993 0.00075 4.41786e-06 7.9333e-15 1.50373e-14 9.57894e-15
15 1 0.00234639 0.00670094 0.00675562 0.00075 4.41786e-06 -2.36799e-15 -1.60584e-14 2.56301e-14
16 1 0.0105842 0.00323844 0.00266462 0.00075 4.41786e-06 -2.39489e-14 4.39027e-14 4.91437e-14
17 1 0.00384865 0.00994931 0.000619688 0.00075 4.41786e-06 5.0705e-15 5.97659e-14 -1.01177e-13
18 1 0.00528098 0.0078841 0.00630885 0.00075 4.41786e-06 2.06036e-14 7.21857e-14 -8.37077e-14
19 1 0.00241125 0.00986786 0.00569115 0.00075 4.41786e-06 -3.77231e-14 1.76748e-14 -4.27822e-14
20 1 0.0145574 0.00424819 0.0144015 0.00075 4.41786e-06 2.05179e-15 1.49271e-13 8.276e-14
21 1 0.00811814 0.01018 0.000720716 0.00075 4.41786e-06 4.61705e-15 1.96234e-14 -1.38569e-14
22 1 0.00401915 0.00948568 0.0018673 0.00075 4.41786e-06 -1.56843e-14 3.56166e-14 -8.35054e-14
23 1 0.00891797 0.00600958 0.00456897 0.00075 4.41786e-06 -2.66529e-14 -8.18535e-15 -1.18027e-14
24 1 0.0112688 0.0069425 0.0125607 0.00075 4.41786e-06 3.77237e-14 2.68418e-14 5.4196e-16
25 1 0.00895925 0.012132 0.00232793 0.00075 4.41786e-06 1.50484e-14 -6.4744e-15 3.15688e-15
26 1 0.00950138 0.00468582 0.00544605 0.00075 4.41786e-06 -6.56325e-14 -8.68754e-15 6.48785e-14
27 1 0.00651576 0.0065343 0.0117463 0.00075 4.41786e-06 -2.18923e-14 -5.40054e-14 7.84851e-15
28 1 0.00872999 0.00989983 0.0146771 0.00075 4.41786e-06 1.0639e-14 1.5328e-14 8.1544e-15
29 1 0.00349295 0.00477765 0.00864359 0.00075 4.41786e-06 9.52606e-14 -1.26799e-13 -2.54465e-14
30 1 0.00343389 0.00947553 0.0132246 0.00075 4.41786e-06 -2.74327e-14 4.79916e-14 -6.61663e-14
31 1 0.00924498 0.00374643 0.00896995 0.00075 4.41786e-06 1.13007e-14 -3.68697e-14 2.16766e-14
32 1 0.00738553 0.00119594 0.013225 0.00075 4.41786e-06 -2.39421e-13 -6.58027e-13 1.19758e-12
33 1 0.00937943 0.00916483 0.00977745 0.00075 4.41786e-06 -1.4771e-13 -7.18987e-14 -2.37828e-13
34 1 0.00739742 0.00421604 0.0146567 0.00075 4.41786e-06 -8.93895e-15 -5.48145e-14 3.58142e-14
35 1 0.0117015 0.014386 0.0140299 0.00075 4.41786e-06 1.79294e-14 2.53618e-13 7.33053e-14
36 1 0.00493633 0.00364971 0.0097932 0.00075 4.41786e-06 4.68762e-15 -2.60101e-14 2.83499e-14
37 1 0.00250762 0.00225679 0.0146692 0.00075 4.41786e-06 -1.33452e-14 3.4261e-15 -5.36984e-15
38 1 0.010479 0.0140513 0.0147626 0.00075 4.41786e-06 8.24162e-15 -2.16197e-14 -1.12212e-15
39 1 0.0092632 0.0147494 0.00430434 0.00075 4.41786e-06 4.39009e-14 -8.05274e-14 -8.30842e-15
40 1 0.0137967 0.00149897 0.0132449 0.00075 4.41786e-06 2.16631e-13 4.47584e-13 8.33417e-14
41 1 0.0119142 0.0151596 0.00437985 0.00075 4.41786e-06 -1.84963e-14 -5.24863e-15 4.48781e-14
42 1 0.00787734 0.0067332 0.0085292 0.00075 4.41786e-06 -5.33037e-14 -8.4298e-15 2.92896e-14
43 1 0.0114234 0.00923476 0.0129496 0.00075 4.41786e-06 8.90457e-15 -2.91037e-14 4.10083e-15
44 1 0.0142235 0.0121135 0.0147788 0.00075 4.41786e-06 3.60848e-14 2.21238e-13 3.8611e-16
45 1 0.00485587 0.00443636 0.00068282 0.00075 4.41786e-06 9.93681e-16 4.18852e-14 2.71903e-15
46 1 0.0125525 0.0127527 0.0104899 0.00075 4.41786e-06 3.06001e-15 4.78493e-16 4.31838e-14
47 1 0.0042438 0.0117898 0.0146431 0.00075 4.41786e-06 4.09721e-14 1.92801e-14 -7.98668e-15
48 1 0.0118151 0.0109919 0.00696361 0.00075 4.41786e-06 3.49734e-12 -1.92656e-11 2.88821e-12
49 1 0.00284605 0.00165466 0.0114247 0.00075 4.41786e-06 -1.38545e-14 -3.9052e-15 -1.39435e-14
50 1 0.000916077 0.00512779 0.000609202 0.00075 4.41786e-06 4.12981e-15 -2.27797e-14 -7.74215e-15
51 1 0.0045924 0.00972165 0.00555036 0.00075 4.41786e-06 6.18276e-14 4.02291e-14 -7.6121e-14
52 1 0.0134492 0.00405203 0.00433689 0.00075 4.41786e-06 1.23782e-15 -9.162e-15 6.132e-15
53 1 0.00117243 0.00137557 0.00673313 0.00075 4.41786e-06 1.35094e-14 -2.21671e-14 -6.84701e-15
54 1 0.0116654 0.0152482 0.00794606 0.00075 4.41786e-06 -1.47256e-13 -1.1176e-14 -4.30837e-15
55 1 0.0106476 0.0104769 0.0131448 0.00075 4.41786e-06 -1.4516e-14 6.12688e-15 8.09845e-15
56 1 0.00817526 0.00546383 0.0145117 0.00075 4.41786e-06 -3.15256e-15 -3.08592e-14 -1.96835e-14
57 1 0.00611697 0.00464675 0.00872408 0.00075 4.41786e-06 -3.73337e-15 -1.1117e-14 2.75334e-14
58 1 0.00608336 0.0104088 0.00075 0.00075 4.41786e-06 2.42049e-13 -7.98674e-14 -5.09771e-13
59 1 0.00409756 0.00725433 0.000655028 0.00075 4.41786e-06 -2.93338e-14 1.40417e-14 -9.75203e-15
60 1 0.0023648 0.0123777 0.00650728 0.00075 4.41786e-06 -4.2669e-14 -3.6401e-14 -6.28735e-14
61 1 0.00156766 0.00877202 0.0115758 0.00075 4.41786e-06 -8.12756e-14 3.60089e-15 3.62625e-14
62 1 0.00307924 0.0142752 0.00741178 0.00075 4.41786e-06 3.23083e-14 7.00192e-14 9.08518e-15
63 1 0.000979625 0.00850509 0.0146526 0.00075 4.41786e-06 1.81159e-14 1.91592e-14 -4.31874e-15
64 1 0.00569912 0.000462717 0.0011052 0.00075 4.41786e-06 -2.2674e-14 -1.86165e-15 -1.2086e-14
65 1 0.00912127 0.0137484 0.00960135 0.00075 4.41786e-06 -1.12653e-13 -6.8065e-14 1.22893e-13
66 1 0.00347277 0.0142705 0.0109844 0.00075 4.41786e-06 2.22773e-14 1.5753e-14 -1.72134e-14
67 1 0.00171272 0.00412678 0.0146432 0.00075 4.41786e-06 -5.61544e-15 1.617e-15 -1.65968e-14
68 1 0.0135219 0.00193652 0.00797525 0.00075 4.41786e-06 -1.92885e-14 -3.46189e-15 1.25847e-14
69 1 0.00439655 0.0130904 0.000975234 0.00075 4.41786e-06 3.47473e-15 5.83914e-14 2.58963e-14
70 1 0.0112036 0.00225412 0.0114277 0.00075 4.41786e-06 1.08694e-322 1.08694e-322 -1.08694e-322
71 1 0.0120275 0.00395444 0.00898643 0.00075 4.41786e-06 -3.2138e-14 -2.21869e-15 1.46301e-14
72 1 0.0144463 0.00351461 0.00798204 0.00075 4.41786e-06 -1.72143e-14 -2.27196e-14 5.01631e-14
73 1 0.00314751 0.00382419 0.0147063 0.00075 4.41786e-06 -1.87868e-14 7.54704e-15 -6.9587e-15
74 1 0.000521343 0.00788966 0.00315247 0.00075 4.41786e-06 2.9775e-14 2.5296e-14 -1.81143e-14
75 1 0.00887304 0.00376238 0.0147205 0.00075 4.41786e-06 -1.65913e-14 -1.71314e-14 9.69658e-15
76 1 0.00508717 0.00364859 0.0083036 0.00075 4.41786e-06 6.45497e-15 -3.31999e-15 -2.15176e-14
77 1 0.00720279 0.00655857 0.0130618 0.00075 4.41786e-06 1.63851e-14 1.45068e-15 4.8842e-14
78 1 0.00105986 0.000662196 0.0006668 0.00075 4.41786e-06 5.25863e-17 -6.9052e-14 -8.87739e-15
79 1 0.0126113 0.0138763 0.00440025 0.00075 4.41786e-06 4.32479e-14 -2.39422e-14 -8.31829e-15
80 1 0.000792354 0.0119039 0.0034981 0.00075 4.41786e-06 -8.95019e-14 -2.10118e-16 2.53224e-14
81 1 0.00202392 0.00612818 0.000723943 0.00075 4.41786e-06 -1.66231e-14 1.0076e-14 -2.67748e-15
82 1 0.00716674 0.00563195 0.00257893 0.00075 4.41786e-06 2.57836e-14 1.74313e-14 5.36043e-14
83 1 0.00482809 0.0104351 0.0146464 0.00075 4.41786e-06 -2.74875e-15 -8.84429e-15 -2.01713e-14
84 1 0.00150856 0.0114638 0.00229876 0.00075 4.41786e-06 3.54407e-14 -5.92524e-14 -1.4194e-14
85 1 0.00162385 0.00662829 0.00555675 0.00075 4.41786e-06 -1.20103e-14 2.8465e-15 8.22499e-15
86 1 0.00285441 0.0129482 0.0111079 0.00075 4.41786e-06 -8.35471e-14 -2.3591e-14 1.10687e-15
87 1 0.00646963 0.0135378 0.0109422 0.00075 4.41786e-06 -1.37238e-13 -4.43181e-14 -4.76116e-14
88 1 0.00880234 0.013923 0.0122469 0.00075 4.41786e-06 -1.40477e-13 9.45441e-14 1.36079e-14
89 1 3.96556e-05 0.00625623 0.012852 0.00075 4.41786e-06 -2.38906e-14 8.92004e-15 -4.72729e-15
90 1 0.0061693 0.000414962 0.0128239 0.00075 4.41786e-06 -1.1931e-13 4.85641e-14 -2.08607e-14
91 1 0.0109268 0.00219484 0.00106632 0.00075 4.41786e-06 8.48104e-16 2.46416e-14 2.80282e-14
92 1 0.00515242 0.015198 0.00422625 0.00075 4.41786e-06 -7.24164e-14 -1.62006e-14 1.38689e-14
93 1 0.0148141 0.0151395 0.014706 0.00075 4.41786e-06 8.80205e-14 5.35547e-14 3.33666e-14
94 1 0.0131 0.00696161 0.00855122 0.00075 4.41786e-06 -6.06926e-15 4.8279e-14 -4.74531e-14
95 1 0.0114434 0.00365476 0.0146313 0.00075 4.41786e-06 -7.29999e-14 5.30279e-14 -5.46587e-15
96 1 0.00925731 0.000792968 0.0107524 0.00075 4.41786e-06 -2.85106e-14 3.03156e-14 8.7052e-14
97 1 0.0136052 0.0026773 0.00062662 0.00075 4.41786e-06 -4.22468e-15 3.61395e-15 -4.48159e-15
98 1 0.00565794 0.00285351 0.0052245 0.00075 4.41786e-06 3.97165e-14 1.98957e-14 1.744e-14
99 1 0.00547005 0.0011979 0.00339892 0.00075 4.41786e-06 -1.15932e-14 6.32602e-16 -1.41268e-14
100 1 0.00873178 7.18069e-05 0.0125965 0.00075 4.41786e-06 -4.47537e-12 -7.32e-12 1.02245e-11
101 2 0.00332117 0.00405306 0.010019 0.001 1.0472e-05 2.52025e-14 -6.88868e-14 4.26894e-14
102 2 0.0065188 0.00839051 0.0144568 0.001 1.0472e-05 1.39776e-14 -1.77683e-14 1.93235e-14
103 2 0.000174113 0.00283328 0.00320817 0.001 1.0472e-05 -1.12401e-13 -3.61241e-14 -1.60556e-15
104 2 0.00975939 0.0092363 0.0124287 0.001 1.0472e-05 -1.46025e-14 -3.70603e-14 1.14324e-14
105 2 0.011771 0.0104891 0.0144033 0.001 1.0472e-05 5.79022e-14 1.66125e-14 -1.08838e-14
106 2 0.0105736 0.010927 0.0100025 0.001 1.0472e-05 1.13974e-14 -1.94338e-13 1.10226e-15
107 2 0.0107071 0.000607339 0.003501 0.001 1.0472e-05 -1.04826e-13 -3.73855e-14 2.73101e-14
108 2 0.0148676 0.00774939 0.0143645 0.001 1.0472e-05 6.15702e-14 -6.68605e-15 1.07307e-13
109 2 0.0142465 0.00591211 0.0140632 0.001 1.0472e-05 2.78453e-14 1.38161e-14 -7.8265e-14
110 2 0.00589499 0.00710444 0.00114879 0.001 1.0472e-05 -7.95816e-15 2.64528e-14 -5.8525e-14
111 2 0.0144938 0.0125585 0.0103693 0.001 1.0472e-05 -1.37872e-13 -1.05832e-13 -1.7758e-14
112 2 0.00592949 0.0141912 0.000942827 0.001 1.0472e-05 -4.1033e-14 -1.36461e-14 4.40582e-14
113 2 0.0063948 0.00524642 0.00522426 0.001 1.0472e-05 -1.03264e-13 -6.24698e-14 1.82743e-14
114 2 0.00292414 0.0135663 0.0144376 0.001 1.0472e-05 6.9614e-14 1.72073e-14 7.2904e-15
115 2 0.0137965 0.0027346 0.0061054 0.001 1.0472e-05 -2.15008e-14 -1.08539e-14 1.91657e-13
116 2 0.00620856 0.0138537 0.0135944 0.001 1.0472e-05 -3.06664e-14 -1.32207e-13 -4.7303e-14
117 2 0.00035645 0.000646039 0.00902529 0.001 1.0472e-05 -1.79684e-14 -8.74797e-14 7.60457e-15
118 2 0.0131466 0.00914377 0.00398927 0.001 1.0472e-05 2.81745e-14 -2.44593e-14 7.96862e-14
119 2 0.00480891 0.0047009 0.0113988 0.001 1.0472e-05 -1.35966e-14 -1.09282e-14 1.20376e-14
120 2 0.00507205 0.00878956 0.000900969 0.001 1.0472e-05 2.30591e-13 -5.27776e-14 -1.30992e-13
121 2 0.00717418 0.00660623 0.00397661 0.001 1.0472e-05 -6.80898e-15 1.23005e-14 5.39451e-14
122 2 0.0115104 0.012056 0.0117416 0.001 1.0472e-05 -2.78138e-14 -4.30029e-14 -4.4194e-14
123 2 0.00079264 0.000369278 0.00536481 0.001 1.0472e-05 -2.25027e-14 -3.28225e-14 2.69879e-14
124 2 0.00528223 0.00618288 0.00396078 0.001 1.0472e-05 -3.771e-14 1.40189e-13 -2.24782e-13
125 2 0.00757073 0.0149229 0.00576712 0.001 1.0472e-05 -1.86671e-13 -4.30187e-14 9.20813e-14
126 2 0.00827226 0.0131248 0.0108958 0.001 1.0472e-05 2.66566e-14 8.8216e-15 1.16266e-14
127 2 0.000617085 0.00644941 0.00422873 0.001 1.0472e-05 3.9906e-14 -5.46355e-15 3.03289e-14
128 2 0.0077038 0.0138268 0.00088762 0.001 1.0472e-05 3.88311e-14 -2.76374e-14 -2.67203e-15
129 2 0.0131697 0.00956822 0.00208568 0.001 1.0472e-05 1.17523e-14 9.91557e-14 -9.51417e-15
130 2 0.0023806 0.01523 0.0123741 0.001 1.0472e-05 -1.51672e-14 3.60298e-14 6.88818e-14
131 2 0.0152632 0.00208936 0.0050048 0.001 1.0472e-05 -7.4093e-14 -7.41952e-15 2.46224e-14
132 2 0.0150034 0.00921416 0.00273399 0.001 1.0472e-05 5.89698e-14 5.47643e-14 -8.7634e-14
133 2 0.0153219 0.0130979 0.00702246 0.001 1.0472e-05 6.16421e-14 1.03779e-13 5.44056e-15
134 2 0.015129 0.00138894 0.0106933 0.001 1.0472e-05 3.46495e-14 -2.26965e-13 1.36966e-14
135 2 0.00338584 0.0138859 0.00934699 0.001 1.0472e-05 -2.21564e-14 -5.90823e-14 -1.84843e-14
136 2 0.0141461 0.00807365 0.00532744 0.001 1.0472e-05 -2.00197e-15 1.69704e-14 -1.98752e-14
137 2 0.00397581 0.0121973 0.00353009 0.001 1.0472e-05 2.0661e-13 3.77055e-14 1.07605e-13
138 2 0.00803939 0.00702778 0.010163 0.001 1.0472e-05 6.61705e-15 3.44452e-14 1.74904e-14
139 2 0.00829712 0.0114458 0.00443095 0.001 1.0472e-05 2.27196e-14 -6.82445e-14 -1.40405e-13
140 2 0.00126882 0.0138473 0.00594832 0.001 1.0472e-05 -1.96725e-14 1.34768e-13 6.04847e-14
141 2 0.00491834 0.014211 0.00814338 0.001 1.0472e-05 -2.06577e-14 -4.67868e-14 1.11322e-13
142 2 0.00588674 0.00852358 0.0114412 0.001 1.0472e-05 3.01656e-14 1.94635e-14 4.5833e-14
143 2 0.0100714 0.00264291 0.0145 0.001 1.0472e-05 -2.14058e-13 3.2106e-13 -4.24444e-14
144 2 0.00218738 0.00233841 0.00320856 0.001 1.0472e-05 -9.6675e-14 3.78043e-14 7.01998e-14
145 2 0.00757895 0.00944018 0.00612554 0.001 1.0472e-05 -7.89209e-15 1.48482e-13 -1.01921e-13
146 2 0.0105379 0.0105303 0.00585475 0.001 1.0472e-05 -1.97218e-14 2.30417e-16 -5.34565e-15
147 2 0.00422419 0.000387897 0.00572874 0.001 1.0472e-05 -1.26884e-14 1.21565e-14 -1.111e-13
148 2 0.00292737 0.00536045 0.003963 0.001 1.0472e-05 6.41981e-16 2.10572e-14 -1.82993e-14
149 2 0.00159165 0.0109355 0.00667666 0.001 1.0472e-05 8.58767e-14 5.12454e-14 -5.31377e-14
150 2 0.00456813 0.00876622 0.0083155 0.001 1.0472e-05 -2.63739e-14 -1.77241e-13 -2.46771e-14
151 2 0.0145561 0.0105624 0.0144373 0.001 1.0472e-05 -3.67808e-15 2.33217e-14 -1.8153e-14
152 2 0.003515 0.0109723 0.0049477 0.001 1.0472e-05 2.36116e-13 3.62179e-14 -3.41908e-13
153 2 0.0153522 0.0093073 0.0127918 0.001 1.0472e-05 3.43259e-15 -3.78813e-14 1.38896e-13
154 2 0.00487169 0.00246782 0.00246315 0.001 1.0472e-05 -7.47432e-14 -6.32038e-14 -6.68445e-14
155 2 0.00873575 0.00609348 0.0028947 0.001 1.0472e-05 -9.14611e-14 -7.97365e-14 -5.92383e-14
156 2 0.00637501 0.00623761 0.0144754 0.001 1.0472e-05 -4.12706e-14 1.12694e-14 -5.3442e-15
157 2 0.0147526 0.00233696 0.00908325 0.001 1.0472e-05 -8.64335e-14 4.15421e-15 -1.31053e-14
158 2 0.0126743 0.00481874 0.0143819 0.001 1.0472e-05 -1.14374e-13 -1.70659e-13 -2.52068e-13
159 2 0.0118191 0.00114343 0.0101672 0.001 1.0472e-05 -4.48603e-14 -1.10254e-13 1.14786e-14
160 2 0.00484696 0.00194782 0.00861029 0.001 1.0472e-05 -6.39119e-15 -1.39495e-13 -1.87496e-14
161 2 0.00741097 0.00763509 0.00560698 0.001 1.0472e-05 2.79142e-13 -1.69994e-14 4.20566e-15
162 2 0.0125791 0.00901082 0.00895595 0.001 1.0472e-05 1.45412e-13 8.63638e-15 7.9128e-14
163 2 0.00169926 0.0147858 0.00832168 0.001 1.0472e-05 1.41885e-13 -7.78171e-14 1.3041e-13
164 2 0.0094698 0.0151027 0.00646499 0.001 1.0472e-05 2.94261e-15 1.23904e-14 -3.90165e-15
165 2 0.00465999 0.0111545 0.0063915 0.001 1.0472e-05 2.40423e-13 -3.63694e-14 -1.85156e-13
166 2 0.00590617 0.0122644 0.000940984 0.001 1.0472e-05 -1.37841e-13 -2.04115e-13 5.0637e-14
167 2 0.0123885 0.00156833 0.00684037 0.001 1.0472e-05 2.74139e-14 -4.52728e-14 1.15368e-13
168 2 0.0121122 0.00381103 0.0106619 0.001 1.0472e-05 2.33312e-14 -5.12214e-14 2.62208e-14
169 2 0.0102011 0.00215464 0.00997023 0.001 1.0472e-05 -1.26254e-13 4.5535e-14 -1.02549e-13
170 2 0.00649971 0.0109507 0.00602459 0.001 1.0472e-05 -2.59148e-14 -3.24206e-14 1.04826e-13
171 2 8.13702e-05 0.00329756 0.011013 0.001 1.0472e-05 5.20818e-15 -1.05946e-14 -3.55111e-14
172 2 0.00666201 0.00131922 0.00904682 0.001 1.0472e-05 -5.96545e-14 3.26068e-15 -8.69811e-14
173 2 0.00288363 0.0139019 0.00108259 0.001 1.0472e-05 1.5971e-14 -7.18795e-14 -5.3775e-14
174 2 0.00317955 0.0102793 0.00779309 0.001 1.0472e-05 -3.94125e-14 1.60173e-14 1.86491e-13
175 2 0.0149702 0.0063632 0.00588892 0.001 1.0472e-05 2.12803e-14 -1.15433e-14 7.64323e-14
176 2 0.000124501 0.00487725 0.00813646 0.001 1.0472e-05 -1.96899e-15 -4.37683e-14 -5.69232e-15
177 2 0.0152559 0.0068442 0.00816808 0.001 1.0472e-05 7.79229e-15 3.59291e-14 1.4721e-14
178 2 0.0010597 0.0101758 0.0144407 0.001 1.0472e-05 2.58285e-15 5.45632e-15 -4.37279e-14
179 2 0.00700069 0.012978 0.00242384 0.001 1.0472e-05 1.96555e-16 -1.03159e-13 6.49475e-14
180 2 0.0136538 0.002775 0.0144004 0.001 1.0472e-05 -1.65513e-13 1.39219e-12 5.57629e-14
181 2 0.000779133 0.00570903 0.0145045 0.001 1.0472e-05 6.97565e-15 1.09684e-14 4.8161e-14
182 2 0.0115829 0.00236578 0.00375752 0.001 1.0472e-05 -1.73733e-14 -2.05598e-15 2.07833e-14
183 2 0.00704337 0.00489268 0.0131249 0.001 1.0472e-05 -2.07429e-14 -2.48961e-14 -4.64238e-15
184 2 0.00415418 0.00247236 0.0141488 0.001 1.0472e-05 9.61499e-15 1.41503e-14 2.97493e-14
185 2 0.014783 0.000146373 0.0127369 0.001 1.0472e-05 1.7977e-14 2.08026e-13 3.85688e-13
186 2 0.00996248 0.0144219 0.0133081 0.001 1.0472e-05 9.05242e-14 4.56105e-14 7.92942e-14
187 2 0.00802256 0.00718578 0.0144081 0.001 1.0472e-05 -4.34415e-14 1.47913e-14 -3.13782e-14
188 2 0.0132739 0.00486282 0.00259658 0.001 1.0472e-05 5.32084e-14 1.90849e-14 1.27783e-15
189 2 0.0042561 0.014971 0.000854171 0.001 1.0472e-05 8.27243e-15 -7.87482e-15 1.34385e-15
190 2 0.0100693 0.0109278 0.00393022 0.001 1.0472e-05 1.89006e-15 -1.77895e-14 4.0414e-14
191 2 0.0133143 0.0125977 0.0119869 0.001 1.0472e-05 -6.70991e-14 1.87984e-13 1.8747e-13
192 2 0.00205943 0.0133424 0.0126482 0.001 1.0472e-05 -1.36613e-13 -1.68321e-13 1.52386e-13
193 2 0.00374513 0.000406272 0.00801039 0.001 1.0472e-05 -1.38941e-14 -6.60625e-14 -1.1598e-14
194 2 0.00861077 0.000840003 0.00473938 0.001 1.0472e-05 -1.7675e-14 -5.03032e-14 -4.61794e-14
195 2 0.0128325 0.000406028 0.012376 0.001 1.0472e-05 -5.19272e-15 4.40497e-13 -1.19935e-13
196 2 0.00353004 0.00377305 0.00307918 0.001 1.0472e-05 -5.35134e-14 -5.65292e-14 -4.87787e-14
197 2 0.0043541 0.0103056 0.0121294 0.001 1.0472e-05 -2.1917e-13 -3.37884e-14 -2.02745e-13
198 2 0.0126495 0.00605393 0.0123962 0.001 1.0472e-05 -9.46911e-15 8.99189e-15 2.15754e-14
199 2 0.00740919 0.0127512 0.00921572 0.001 1.0472e-05 -2.37473e-13 4.82748e-13 -3.38847e-13
200 2 0.00915529 0.00167224 0.00309075 0.001 1.0472e-05 -1.39467e-14 -1.04406e-13 2.22357e-14
201 2 0.00393028 0.0139969 0.00401748 0.001 1.0472e-05 -1.84546e-14 1.43284e-14 2.48514e-13
202 2 0.00713581 0.0153193 0.0144269 0.001 1.0472e-05 -1.42968e-13 9.47325e-15 2.65955e-14
203 2 0.0114403 0.00914472 0.00281193 0.001 1.0472e-05 -1.69387e-13 1.10372e-13 -1.90153e-13
204 2 0.00341773 0.00913177 0.00452802 0.001 1.0472e-05 -1.88381e-14 -3.42867e-14 -6.64614e-14
205 2 0.0116341 0.00996874 0.000881519 0.001 1.0472e-05 -4.6009e-14 -2.58844e-15 -8.70082e-14
206 2 0.0152161 0.00971988 0.00766541 0.001 1.0472e-05 -6.45237e-14 1.53901e-13 5.22516e-14
207 2 0.000486376 0.012347 0.00507476 0.001 1.0472e-05 1.51556e-13 -1.58216e-13 2.80896e-14
208 2 0.0146204 0.00448616 0.00546627 0.001 1.0472e-05 1.69053e-14 -7.13247e-14 -3.1268e-14
209 2 0.00199941 0.00135838 0.00830171 0.001 1.0472e-05 -5.01052e-14 -1.62311e-14 1.01409e-13
210 2 0.00310005 0.00529155 0.00719383 0.001 1.0472e-05 7.18776e-14 -1.69257e-13 -6.7404e-14
211 2 0.0141709 0.00797178 0.00935235 0.001 1.0472e-05 -1.80182e-16 4.13416e-14 1.19133e-13
212 2 0.00976742 0.00337406 0.0011585 0.001 1.0472e-05 2.80743e-14 2.76561e-14 6.83198e-14
213 2 0.013419 0.000240224 0.00787082 0.001 1.0472e-05 4.07159e-14 -9.77826e-15 1.59302e-15
214 2 0.0150737 0.0090537 0.000866652 0.001 1.0472e-05 -2.55971e-14 4.4379e-15 -2.69753e-14
215 2 0.00195193 0.00299445 0.0117182 0.001 1.0472e-05 2.46864e-14 -2.73998e-14 -8.30878e-15
216 2 0.0151164 0.0112755 0.00652611 0.001 1.0472e-05 2.07693e-13 4.43574e-14 1.42606e-14
217 2 0.00638136 0.00616202 0.00959631 0.001 1.0472e-05 -3.17642e-14 4.25277e-14 -6.66021e-14
218 2 0.00872465 0.00955281 0.0035058 0.001 1.0472e-05 -9.59336e-14 -3.13552e-14 1.72968e-13
219 2 0.00435031 0.000157723 0.0027232 0.001 1.0472e-05 5.0602e-14 -6.16915e-15 -2.1119e-14
220 2 0.00432076 0.011315 0.00149917 0.001 1.0472e-05 1.1743e-14 3.27325e-13 -1.39296e-13
221 2 0.00807657 0.00585839 0.0117625 0.001 1.0472e-05 -5.13179e-15 -6.09105e-15 7.32942e-14
222 2 0.00486798 0.00660491 0.0114124 0.001 1.0472e-05 -2.70537e-15 1.61154e-14 3.31122e-15
223 2 0.00630637 0.0101197 0.0122873 0.001 1.0472e-05 -1.00055e-14 -1.78597e-14 1.26613e-13
224 2 0.0110439 0.00402159 0.00697564 0.001 1.0472e-05 -7.82184e-15 -1.86176e-13 2.59057e-14
225 2 0.00506421 0.0106465 0.00814377 0.001 1.0472e-05 -2.04699e-14 -1.66442e-13 1.13038e-13
226 2 0.0148519 0.0110787 0.00285167 0.001 1.0472e-05 2.1392e-14 -4.72041e-14 1.55014e-13
227 2 0.0130539 0.000690971 0.0144687 0.001 1.0472e-05 3.05522e-13 -1.57663e-12 -9.20808e-13
228 2 0.0147755 0.00965921 0.00993437 0.001 1.0472e-05 -6.08412e-14 -2.99182e-14 1.34714e-13
229 2 0.00648788 0.00482532 0.00703205 0.001 1.0472e-05 1.22069e-15 7.37877e-14 -1.98316e-14
230 2 0.00561265 0.0124423 0.00877662 0.001 1.0472e-05 6.29293e-14 1.60412e-14 -4.27284e-14
231 2 0.00874496 0.00336308 0.0104407 0.001 1.0472e-05 9.56384e-14 -4.35832e-14 -7.94012e-15
232 2 0.000414716 0.00301974 0.014435 0.001 1.0472e-05 -1.36216e-14 3.02588e-14 -3.84552e-15
233 2 0.012239 0.00113018 0.000941556 0.001 1.0472e-05 -1.46508e-14 -3.08676e-15 1.3031e-15
234 2 0.00448544 0.00680444 0.0143758 0.001 1.0472e-05 -1.00088e-14 1.01875e-14 3.82166e-15
235 2 0.00658472 0.00149776 0.00212827 0.001 1.0472e-05 -1.48601e-14 1.14307e-14 -2.95843e-14
236 2 0.0067481 0.000484619 0.00421367 0.001 1.0472e-05 1.79623e-14 -2.58394e-14 -2.87081e-14
237 2 0.00795754 0.0119188 0.000947192 0.001 1.0472e-05 -1.39195e-13 3.12225e-14 -7.43417e-14
238 2 0.00448698 0.00569677 0.00973162 0.001 1.0472e-05 -1.05584e-14 5.98512e-15 -2.78602e-14
239 2 0.00986433 0.01228 0.00561023 0.001 1.0472e-05 -1.38982e-13 1.24253e-13 5.09838e-14
240 2 0.0122594 0.00555426 0.0088999 0.001 1.0472e-05 -9.89502e-14 -3.7185e-14 -1.88108e-13
241 2 0.00182278 0.00197374 0.00504228 0.001 1.0472e-05 7.61875e-15 -2.00247e-15 -7.05154e-14
242 2 0.00725205 0.0146204 0.0121526 0.001 1.0472e-05 -6.21421e-14 -1.67849e-13 -2.92897e-14
243 2 0.00092787 0.00138221 0.0120671 0.001 1.0472e-05 1.08116e-13 -1.10639e-13 -2.08657e-14
244 2 0.0105405 0.0128175 0.0095057 0.001 1.0472e-05 -2.11209e-14 -3.50235e-13 -6.09064e-14
245 2 0.0133374 0.0143946 0.0135331 0.001 1.0472e-05 -2.21905e-13 7.10093e-13 5.67691e-13
246 2 0.011864 0.00532912 0.00589607 0.001 1.0472e-05 -1.29278e-14 -2.03952e-14 4.18184e-15
247 2 0.0132044 0.00584453 0.000963948 0.001 1.0472e-05 2.02977e-14 -6.93317e-15 -9.78595e-15
248 2 0.0149362 0.00258243 0.0127666 0.001 1.0472e-05 6.63568e-15 3.98288e-14 -1.88117e-13
249 2 0.00377715 0.000514191 0.0144878 0.001 1.0472e-05 -8.11658e-15 1.33237e-13 -8.65444e-16
250 2 0.00939229 0.0106789 0.00173092 0.001 1.0472e-05 4.1696e-14 -1.05319e-13 -1.27022e-13
251 2 0.00486577 0.00536557 0.00786375 0.001 1.0472e-05 9.34962e-14 -1.56859e-13 3.4378e-14
252 2 0.000433959 0.0150769 0.0110798 0.001 1.0472e-05 -8.56753e-14 6.91821e-14 -7.06072e-14
253 2 0.00794318 0.00791706 0.0027331 0.001 1.0472e-05 -3.74605e-14 -9.3223e-14 5.21167e-14
254 2 0.00705966 0.00243753 0.00369211 0.001 1.0472e-05 -8.77666e-15 1.98242e-13 1.19414e-14
255 2 0.0116873 0.00422744 0.0127785 0.001 1.0472e-05 -4.12751e-14 1.29208e-13 -5.92361e-15
256 2 0.00163724 0.0108783 0.00452183 0.001 1.0472e-05 -3.24734e-14 7.0843e-15 -2.52627e-15
257 2 0.000285364 0.0125984 0.00208086 0.001 1.0472e-05 -8.25124e-15 -4.46268e-14 1.54568e-13
258 2 0.001135 0.0141567 0.0144089 0.001 1.0472e-05 1.54525e-13 -3.28734e-14 5.48674e-15
259 2 0.00506874 0.00918044 0.0135116 0.001 1.0472e-05 -6.56323e-14 1.56213e-14 -8.46652e-14
260 2 0.00184047 0.00891214 0.0132559 0.001 1.0472e-05 -1.02889e-14 -1.38184e-14 4.73442e-14
261 2 0.00184054 0.00548924 0.00880799 0.001 1.0472e-05 5.66357e-14 -4.57172e-14 -7.27989e-15
262 2 0.00785695 0.00702792 0.0009833 0.001 1.0472e-05 -4.26198e-14 -3.36664e-15 2.79203e-14
263 2 0.0152076 0.00573153 0.0110478 0.001 1.0472e-05 7.63318e-15 -2.98995e-14 2.21239e-14
264 2 0.00118998 0.00998191 0.0105181 0.001 1.0472e-05 -1.0677e-13 2.30595e-14 6.70318e-14
265 2 0.014565 0.000488317 0.00419775 0.001 1.0472e-05 2.18056e-14 -1.07698e-13 -9.7721e-14
266 2 0.00124312 0.00537173 0.00664681 0.001 1.0472e-05 2.5844e-14 -5.71942e-16 -2.01738e-14
267 2 0.00451728 0.00767029 0.00986101 0.001 1.0472e-05 -1.28177e-13 6.77493e-15 6.24583e-14
268 2 0.010818 0.000459106 0.0143994 0.001 1.0472e-05 -7.33173e-14 4.63797e-13 2.01053e-13
269 2 0.0136374 0.000826229 0.009668 0.001 1.0472e-05 1.21101e-14 -1.20868e-13 1.61298e-14
270 2 0.00823907 0.0115722 0.00628904 0.001 1.0472e-05 -2.61902e-15 2.07877e-14 2.14689e-13
271 2 0.0130683 0.00676374 0.00630154 0.001 1.0472e-05 -1.10457e-14 2.76384e-14 2.37789e-14
272 2 0.0128032 0.0034528 0.0076192 0.001 1.0472e-05 1.8967e-14 -1.02529e-13 -1.77519e-15
273 2 0.00163878 0.00913126 0.00746235 0.001 1.0472e-05 2.00273e-13 -8.92388e-14 1.33625e-13
274 2 0.00889286 0.000802093 0.014261 0.001 1.0472e-05 6.36221e-15 -3.74749e-14 1.02657e-13
275 2 0.00247562 0.00150179 0.0010105 0.001 1.0472e-05 2.98234e-15 -2.26716e-13 2.17192e-14
276 2 0.0024492 0.0126219 0.00489686 0.001 1.0472e-05 6.1479e-14 -4.08931e-14 2.10521e-13
277 2 0.00820859 0.00311557 0.00231486 0.001 1.0472e-05 -6.93227e-14 7.62666e-16 4.62313e-14
278 2 0.00693601 0.0101578 0.00419442 0.001 1.0472e-05 2.41286e-13 -2.03456e-13 -1.6769e-13
279 2 0.0117125 0.0151128 0.00622271 0.001 1.0472e-05 -2.58039e-14 -7.98871e-14 -1.41099e-13
280 2 0.0091178 0.00538617 0.0102763 0.001 1.0472e-05 3.20615e-15 -5.16016e-14 -4.1282e-14
281 2 0.0080882 0.0133617 0.00457642 0.001 1.0472e-05 -1.62687e-13 -1.57088e-13 2.5278e-14
282 2 0.00020938 0.0150312 0.00705239 0.001 1.0472e-05 1.2702e-14 -8.5738e-15 -5.91329e-15
283 2 0.0111243 0.014756 0.0100516 0.001 1.0472e-05 -1.9176e-13 -1.35663e-15 -9.81628e-14
284 2 0.00190463 0.0152701 0.00195021 0.001 1.0472e-05 2.20163e-14 -7.86765e-14 2.19703e-14
285 2 0.00858778 0.00183319 0.000948601 0.001 1.0472e-05 -1.65013e-14 -2.32123e-15 1.67557e-14
286 2 0.0135108 0.0143549 0.00645274 0.001 1.0472e-05 2.01329e-15 -4.26004e-15 1.57779e-14
287 2 0.0117345 0.012902 0.000995212 0.001 1.0472e-05 3.22114e-14 1.47256e-14 1.39663e-13
288 2 0.00831212 0.00403679 0.006517 0.001 1.0472e-05 1.56403e-14 2.83108e-14 -7.63968e-16
289 2 0.0119319 0.0139659 0.0123015 0.001 1.0472e-05 -1.82356e-13 2.77619e-13 1.35269e-13
290 2 0.0106687 0.00558336 0.0118022 0.001 1.0472e-05 -2.73312e-14 -3.71327e-14 -9.12766e-14
291 2 0.000674742 0.000899415 0.00306838 0.001 1.0472e-05 -2.49217e-14 3.65167e-14 3.8222e-15
292 2 0.00551094 0.00429016 0.0144944 0.001 1.0472e-05 5.20137e-15 7.4319e-14 1.98997e-15
293 2 0.0120691 0.0108719 0.00873989 0.001 1.0472e-05 4.79354e-14 -1.05133e-13 8.08946e-14
294 2 0.00296646 0.0105623 0.0144367 0.001 1.0472e-05 4.54477e-14 -2.19398e-14 -4.15868e-14
295 2 0.00706887 0.00948763 0.00191238 0.001 1.0472e-05 -2.68387e-14 2.41217e-14 1.76098e-13
296 2 0.0107004 0.00621795 0.00973315 0.001 1.0472e-05 -1.35117e-13 -5.54146e-15 -1.75243e-13
297 2 0.00329754 0.00720364 0.00436879 0.001 1.0472e-05 7.15467e-14 5.09776e-14 6.99709e-15
298 2 0.0127676 0.0146903 0.000955029 0.001 1.0472e-05 2.24168e-16 1.69455e-14 -1.25069e-15
299 2 0.000735238 0.0121735 0.0144502 0.001 1.0472e-05 -2.12405e-13 -2.6161e-14 -1.12047e-13
300 2 0.00563893 0.00117094 0.0144176 0.001 1.0472e-05 -8.48344e-15 -6.54812e-14 8.29832e-14
301 2 0.00395075 0.00428928 0.0133566 0.001 1.0472e-05 -1.94694e-15 -3.82442e-14 3.56143e-14
302 2 0.00819413 0.0011843 0.00657694 0.001 1.0472e-05 3.01017e-14 1.14538e-13 2.39523e-14
303 2 0.0121117 0.0131113 0.0058347 0.001 1.0472e-05 -5.09534e-14 -6.50395e-14 9.77597e-14
304 2 0.00281581 0.00676473 0.00989842 0.001 1.0472e-05 1.79283e-13 1.74781e-14 -3.15738e-15
305 2 0.00978609 0.00299837 0.00470415 0.001 1.0472e-05 -3.86164e-13 2.10621e-12 -1.39883e-12
306 2 0.00246622 0.01025 0.0120323 0.001 1.0472e-05 -1.75278e-14 3.10078e-14 1.94518e-14
307 2 0.00566975 0.0053011 0.0019373 0.001 1.0472e-05 -2.04408e-14 1.53307e-13 -3.75028e-14
308 2 0.0102642 0.0136717 0.0113589 0.001 1.0472e-05 1.69589e-14 7.5265e-14 -2.82189e-14
309 2 0.00791459 0.0059184 0.00627448 0.001 1.0472e-05 1.14844e-13 5.12177e-15 1.16879e-14
310 2 0.0104968 0.0140479 0.00515521 0.001 1.0472e-05 2.87305e-14 -9.6005e-14 -6.99328e-14
311 2 0.00196684 0.00717244 0.0144062 0.001 1.0472e-05 -2.5067e-14 -1.62775e-14 8.3243e-14
312 2 0.00526425 0.00558093 0.0130744 0.001 1.0472e-05 1.60071e-14 -5.39733e-14 1.35167e-14
313 2 0.00355531 0.00309663 0.00125337 0.001 1.0472e-05 -1.28022e-14 -1.36024e-13 1.55666e-14
314 2 0.00811973 0.00890938 0.0134564 0.001 1.0472e-05 4.47111e-14 5.31343e-14 -1.2422e-13
315 2 0.00962644 0.00538543 0.0070551 0.001 1.0472e-05 3.09123e-14 -7.28588e-15 3.99065e-14
316 2 0.0150539 0.0108343 0.0114893 0.001 1.0472e-05 -1.17586e-14 7.37981e-14 -8.13015e-15
317 2 0.00735752 0.0126629 0.0124635 0.001 1.0472e-05 -1.31456e-14 -5.67086e-14 -2.5601e-14
318 2 0.00328096 0.0120296 0.0132361 0.001 1.0472e-05 -1.6342e-14 -4.60519e-14 9.43332e-15
319 2 0.00339311 0.00839302 0.0144698 0.001 1.0472e-05 1.04386e-14 -1.47736e-13 -1.12142e-14
320 2 0.0057114 0.00742013 0.0129696 0.001 1.0472e-05 -1.21719e-14 -1.94e-15 -9.93657e-14
321 2 0.00620648 0.01194 0.0037954 0.001 1.0472e-05 -9.7878e-14 -1.63757e-13 -8.46835e-14
322 2 0.00772183 0.00771192 0.0119861 0.001 1.0472e-05 -4.5564e-15 9.02427e-14 -4.00361e-14
323 2 0.00617176 0.0127114 0.00553547 0.001 1.0472e-05 -9.37387e-17 -3.58425e-14 -7.5332e-14
324 2 0.01399 0.0126145 0.00577972 0.001 1.0472e-05 1.45407e-14 3.48646e-14 -7.38348e-14
325 2 0.0129979 0.000805923 0.00521446 0.001 1.0472e-05 -3.4784e-15 -8.76518e-14 2.43604e-14
326 2 0.0146327 0.00521043 0.00376094 0.001 1.0472e-05 5.36951e-14 -1.73623e-14 2.79259e-14
327 2 0.0127007 0.0108652 0.0126797 0.001 1.0472e-05 9.74204e-14 1.78663e-13 -1.28055e-14
328 2 0.0103515 0.00382456 0.0112904 0.001 1.0472e-05 -4.36684e-14 -3.27909e-14 -2.75309e-14
329 2 0.0146831 0.0141156 0.00492414 0.001 1.0472e-05 5.52696e-14 -1.96326e-14 -2.33499e-13
330 2 0.0055864 0.0035919 0.0127817 0.001 1.0472e-05 8.58186e-14 -3.60616e-14 -3.57479e-14
331 2 0.0119223 0.0105447 0.00452425 0.001 1.0472e-05 -2.51572e-13 -3.20606e-14 5.09833e-14
332 2 0.00954035 0.0132776 0.00337141 0.001 1.0472e-05 -2.3729e-14 -7.17739e-14 -6.58417e-14
333 2 0.0112157 0.00258746 0.0082731 0.001 1.0472e-05 8.87251e-14 -3.78871e-14 -2.84536e-14
334 2 0.011211 0.0125173 0.00424896 0.001 1.0472e-05 5.1785e-14 3.83026e-14 3.58734e-14
335 2 0.00192045 0.00737731 0.00824591 0.001 1.0472e-05 4.74505e-14 1.85197e-14 1.20412e-13
336 2 0.0105534 0.00804262 0.00927686 0.001 1.0472e-05 -1.47738e-13 4.5741e-14 -1.64802e-13
337 2 0.01043 0.00120582 0.00533443 0.001 1.0472e-05 1.14759e-14 -6.62716e-14 -1.92946e-14
338 2 0.0135149 0.00237889 0.00417686 0.001 1.0472e-05 2.09811e-14 -1.63128e-15 3.24865e-14
339 2 0.00198641 0.00713738 0.00306054 0.001 1.0472e-05 3.36641e-14 8.45092e-15 -2.34479e-14
340 2 0.00442357 0.00148839 0.000888502 0.001 1.0472e-05 1.83799e-14 -4.39094e-14 -6.65764e-15
341 2 0.00161131 0.0128973 0.00794303 0.001 1.0472e-05 5.57971e-14 1.18326e-13 1.6009e-13
342 2 0.0118988 0.00616344 0.00259481 0.001 1.0472e-05 3.35495e-14 -1.16747e-14 7.82467e-15
343 2 0.00734562 0.000348086 0.000884098 0.001 1.0472e-05 -2.85369e-14 -1.92124e-14 -8.70793e-16
344 2 0.00424952 0.0128553 0.00560809 0.001 1.0472e-05 -2.86245e-14 -1.36596e-13 2.22619e-13
345 2 0.0147705 0.0135471 0.0143685 0.001 1.0472e-05 -1.09596e-13 -2.44692e-14 5.4143e-13
346 2 0.00726796 0.00464391 0.0105155 0.001 1.0472e-05 1.39006e-14 -8.18492e-14 4.26729e-14
347 2 0.00167066 0.0125675 0.000843618 0.001 1.0472e-05 -6.12855e-14 -1.11458e-13 -8.38198e-14
348 2 0.00416555 0.00830568 0.00301498 0.001 1.0472e-05 -9.62226e-14 -6.06057e-14 1.64655e-13
349 2 0.00569707 0.0093921 0.0067877 0.001 1.0472e-05 3.7835e-14 2.49238e-14 1.02119e-14
350 2 0.00766705 0.0111352 0.00266865 0.001 1.0472e-05 -3.10847e-14 -2.23741e-13 4.53745e-14
351 2 0.00817139 0.0140634 0.00808668 0.001 1.0472e-05 -4.90339e-14 -1.92467e-13 2.9829e-13
352 2 0.00623219 0.0150571 0.00256402 0.001 1.0472e-05 -8.0703e-14 5.31153e-14 -6.92793e-14
353 2 0.00454689 0.00251744 0.00673626 0.001 1.0472e-05 -5.51751e-14 -9.85532e-14 9.8247e-14
354 2 0.000791493 0.0144939 0.00387165 0.001 1.0472e-05 4.73426e-14 1.64263e-14 -4.29271e-14
355 2 0.00290513 0.00148535 0.00660666 0.001 1.0472e-05 6.19716e-15 -6.1743e-14 6.22999e-14
356 2 0.00853508 0.0134227 0.00638612 0.001 1.0472e-05 -1.00202e-13 -3.57269e-13 1.45282e-13
357 2 0.00786656 0.0016056 0.0104793 0.001 1.0472e-05 5.83417e-15 -8.85065e-14 8.57967e-14
358 2 0.0064872 0.0133465 0.0073152 0.001 1.0472e-05 4.60987e-15 -9.66116e-15 1.70815e-13
359 2 0.01076 0.00528444 0.0144272 0.001 1.0472e-05 1.18554e-14 -6.43428e-14 -8.32084e-14
360 2 0.00233117 0.00900378 0.00928503 0.001 1.0472e-05 -2.70488e-13 -1.10706e-13 -8.01197e-14
361 2 0.00249763 0.0108497 0.000911621 0.001 1.0472e-05 -2.08003e-13 1.89215e-14 -2.38194e-13
362 2 0.00965257 0.0119065 0.0114317 0.001 1.0472e-05 7.23828e-14 -1.25015e-14 -5.0847e-14
363 2 0.0030226 0.0143458 0.00568564 0.001 1.0472e-05 3.38881e-14 8.15719e-14 8.82194e-15
364 2 0.0138369 0.0141208 0.003114 0.001 1.0472e-05 2.19058e-14 2.97541e-14 -5.19841e-15
365 2 0.00770105 0.00252635 0.0143172 0.001 1.0472e-05 1.45748e-13 -4.23906e-13 -6.06154e-13
366 2 0.0137647 0.00563893 0.00772132 0.001 1.0472e-05 -1.06265e-13 2.03703e-14 -6.3463e-14
367 2 0.000229826 0.00804683 0.00666681 0.001 1.0472e-05 6.22206e-14 5.86297e-14 1.1816e-14
368 2 0.00770891 0.00256426 0.00542668 0.001 1.0472e-05 -2.09513e-14 8.52257e-14 1.26038e-14
369 2 0.00284285 0.00548543 0.014355 0.001 1.0472e-05 2.60767e-14 -2.36246e-14 2.1383e-14
370 2 0.00532203 8.41597e-06 0.00960384 0.001 1.0472e-05 -1.32087e-13 1.68409e-13 -2.48861e-14
371 2 0.00335521 0.00217301 0.00989558 0.001 1.0472e-05 -8.58669e-14 -3.56492e-14 3.92349e-14
372 2 0.0102803 0.00631212 0.00546378 0.001 1.0472e-05 1.02008e-13 -4.96019e-14 1.47339e-14
373 2 0.014364 0.00735256 0.00105382 0.001 1.0472e-05 7.89408e-15 2.03559e-14 -1.69593e-15
374 2 0.000996764 0.01125 0.0128214 0.001 1.0472e-05 -3.18499e-15 1.37848e-14 -2.26686e-14
375 2 0.00317724 0.00290011 0.00807727 0.001 1.0472e-05 -1.04422e-13 -1.53566e-13 1.57313e-13
376 2 0.0127582 0.00557857 0.00426021 0.001 1.0472e-05 -3.95157e-15 1.24083e-14 -2.46488e-14
377 2 0.0120291 0.00336225 0.00539971 0.001 1.0472e-05 3.6312e-14 -1.00975e-13 -1.03813e-13
378 2 0.0120973 0.00737969 0.00425398 0.001 1.0472e-05 -4.09056e-15 3.30722e-14 -7.18003e-14
379 2 0.0137936 0.00810126 0.00746735 0.001 1.0472e-05 1.19064e-14 1.68795e-13 1.15343e-13
380 2 0.003938 0.00297579 0.0115776 0.001 1.0472e-05 -4.17999e-14 -9.90443e-15 -5.03369e-14
381 2 0.00381806 0.00693736 0.00819685 0.001 1.0472e-05 -7.45065e-15 -6.24569e-14 -1.20267e-14
382 2 0.00487401 0.00426476 0.00609149 0.001 1.0472e-05 -1.29735e-14 -5.51127e-14 9.93435e-14
383 2 0.00659681 0.0152246 0.00779365 0.001 1.0472e-05 1.20222e-13 -7.84323e-15 -5.9009e-14
384 2 0.00171993 0.0116913 0.0110957 0.001 1.0472e-05 8.98683e-15 4.37934e-14 -2.80718e-14
385 2 0.0128092 0.0025478 0.00931364 0.001 1.0472e-05 -8.38563e-15 -8.65682e-14 8.35332e-14
386 2 0.00851659 0.0114416 0.0100705 0.001 1.0472e-05 3.88314e-14 1.92732e-13 3.32308e-14
387 2 0.00632003 0.0139185 0.00406178 0.001 1.0472e-05 -1.7515e-13 -2.04248e-14 -1.03058e-13
388 2 0.0141079 0.0107455 0.000955719 0.001 1.0472e-05 -5.01241e-14 -2.39497e-14 7.54661e-15
389 2 0.00242145 0.00167032 0.0130843 0.001 1.0472e-05 1.48133e-15 8.84165e-15 1.48169e-14
390 2 0.0141694 0.00124325 0.00120659 0.001 1.0472e-05 4.51486e-15 -1.61401e-14 -7.05405e-14
391 2 0.0106527 0.00100276 0.00727347 0.001 1.0472e-05 -6.70693e-14 -1.69932e-13 4.55859e-14
392 2 0.00237147 0.0111805 0.00931465 0.001 1.0472e-05 -1.08666e-14 1.16703e-13 -1.52216e-13
393 2 0.0032705 0.00496705 0.000887458 0.001 1.0472e-05 -8.66544e-15 1.48336e-15 -4.40205e-14
394 2 0.0129842 0.00290809 0.00238016 0.001 1.0472e-05 6.82716e-14 7.95831e-15 1.0235e-14
395 2 0.000569228 0.00203879 0.00149169 0.001 1.0472e-05 -3.2333e-14 7.79855e-15 1.11396e-13
396 2 0.000622483 0.0107552 0.000970155 0.001 1.0472e-05 6.46477e-17 -1.10128e-13 -5.24748e-14
397 2 0.014865 0.00142743 0.00719306 0.001 1.0472e-05 3.66939e-16 1.27682e-14 5.78591e-14
398 2 0.00505184 0.0135154 0.00253366 0.001 1.0472e-05 -2.8209e-14 -1.68422e-13 2.95662e-13
399 2 0.0057041 0.0145039 0.00594182 0.001 1.0472e-05 -5.92809e-15 6.27753e-14 -9.30646e-14
400 2 0.010528 0.00466616 0.00870399 0.001 1.0472e-05 -1.01294e-13 4.31178e-14 -1.51428e-14
401 3 0.0126204 0.0124685 0.0140298 0.00125 2.04531e-05 6.68785e-14 5.41037e-13 6.9486e-13
402 3 0.00739107 0.00303625 0.0120022 0.00125 2.04531e-05 -4.56323e-14 1.50745e-14 -4.88988e-14
403 3 0.00401141 0.00216805 0.00448215 0.00125 2.04531e-05 -3.17249e-14 -1.75284e-14 3.87986e-14
404 3 0.000370821 0.00603301 0.00209248 0.00125 2.04531e-05 4.24788e-15 1.52885e-14 4.9579e-14
405 3 0.0104475 0.00491275 0.00372429 0.00125 2.04531e-05 -6.38462e-15 -1.12756e-13 2.47773e-14
406 3 0.0082682 0.0134302 0.0142294 0.00125 2.04531e-05 5.44886e-14 -2.36398e-14 -1.18098e-13
407 3 0.00486634 0.0102991 0.0033429 0.00125 2.04531e-05 6.43328e-14 -1.685e-14 1.03488e-14
408 3 0.00973833 0.0133954 0.00114802 0.00125 2.04531e-05 9.65303e-14 1.27724e-13 -1.29146e-13
409 3 0.0106113 0.00965805 0.00784208 0.00125 2.04531e-05 -5.53476e-14 1.376e-13 2.06699e-13
410 3 0.0123152 0.00704323 0.0142356 0.00125 2.04531e-05 1.19213e-14 2.22643e-14 2.84291e-15
411 3 0.00640139 0.00704229 0.00747139 0.00125 2.04531e-05 -1.20155e-13 9.44985e-14 -7.61391e-14
412 3 0.0112013 0.00684114 0.00750121 0.00125 2.04531e-05 -3.23959e-16 -3.68637e-14 -9.93388e-14
413 3 0.0098297 0.00745402 0.0113052 0.00125 2.04531e-05 -2.12554e-13 1.0586e-14 -2.41789e-13
414 3 0.00914099 0.00225174 0.00806007 0.00125 2.04531e-05 2.20803e-13 -1.44683e-13 6.69371e-17
415 3 0.0137856 0.0128144 0.00115442 0.00125 2.04531e-05 -2.96136e-14 3.89602e-14 1.02238e-13
416 3 0.00925651 0.0116049 0.00812156 0.00125 2.04531e-05 7.37643e-14 4.39733e-13 4.26497e-16
417 3 0.00831006 0.00487465 0.00114301 0.00125 2.04531e-05 -8.76663e-14 -5.83679e-15 3.60757e-14
418 3 0.00113244 0.00434141 0.00445949 0.00125 2.04531e-05 -3.48725e-14 -3.11346e-14 -4.80213e-14
419 3 0.0125594 0.00703965 0.0104385 0.00125 2.04531e-05 5.33273e-14 7.23285e-14 6.11459e-14
420 3 0.0103213 0.0122222 0.0142409 0.00125 2.04531e-05 1.26131e-13 4.89117e-16 5.24001e-14
421 3 0.00429687 0.000957949 0.0124946 0.00125 2.04531e-05 4.72646e-14 9.74096e-14 7.92135e-14
422 3 0.0133128 0.0121297 0.00387543 0.00125 2.04531e-05 6.4874e-15 -2.44446e-13 4.62938e-13
423 3 0.00992399 0.00866966 0.0011797 0.00125 2.04531e-05 -4.51008e-14 -1.089e-13 1.76884e-17
424 3 0.00344451 0.00845146 0.0065151 0.00125 2.04531e-05 6.51604e-13 -2.43478e-13 2.81604e-14
425 3 0.0134476 0.00996215 0.00643966 0.00125 2.04531e-05 8.89224e-14 3.42702e-16 2.29384e-15
426 3 0.00953074 0.00223396 0.0125238 0.00125 2.04531e-05 -1.80354e-13 3.23588e-13 8.47984e-15
427 3 0.0147311 0.0038821 0.00140766 0.00125 2.04531e-05 8.02384e-15 -7.72167e-14 2.04944e-14
428 3 0.00216611 0.0132309 0.00289834 0.00125 2.04531e-05 2.90048e-13 -9.8532e-15 1.19176e-13
429 3 0.0140603 0.00435988 0.00968527 0.00125 2.04531e-05 2.51199e-14 -9.39628e-14 6.28743e-16
430 3 0.000524963 0.00325497 0.00672988 0.00125 2.04531e-05 -5.45493e-14 -1.90381e-13 -4.01516e-14
431 3 0.00612805 0.00122579 0.0061246 0.00125 2.04531e-05 -2.6861e-14 1.32861e-13 -7.51244e-14
432 3 0.00949183 0.000130218 0.00894488 0.00125 2.04531e-05 3.83661e-14 9.41217e-14 -1.84048e-14
433 3 0.0118366 0.00210414 0.0133212 0.00125 2.04531e-05 -9.62797e-13 1.42536e-12 3.59029e-13
434 3 0.00135411 0.0134663 0.0100509 0.00125 2.04531e-05 8.5231e-14 1.22958e-14 -1.76484e-13
435 3 0.00277041 0.00359504 0.00603011 0.00125 2.04531e-05 -1.77267e-13 7.6959e-15 5.41689e-14
436 3 0.0130682 0.0109068 0.0106005 0.00125 2.04531e-05 -6.29087e-14 -4.69667e-14 1.84196e-13
437 3 0.00167177 0.0070048 0.0122842 0.00125 2.04531e-05 -1.10711e-13 -1.74278e-13 1.84923e-13
438 3 0.0122225 0.00780686 0.00120339 0.00125 2.04531e-05 6.89384e-14 2.15223e-15 -2.50842e-14
439 3 0.0136244 0.0144372 0.0109374 0.00125 2.04531e-05 -3.61618e-14 9.20146e-13 -3.55768e-14
440 3 0.0137692 0.00434047 0.0120722 0.00125 2.04531e-05 3.53404e-14 -1.24624e-14 6.22425e-15
441 3 0.0099988 0.00770824 0.00356333 0.00125 2.04531e-05 4.54325e-14 2.44534e-14 -5.36497e-13
442 3 0.0047151 0.0128088 0.0107101 0.00125 2.04531e-05 -1.84476e-14 1.39402e-15 -3.26437e-14
443 3 0.00258507 0.000295157 0.00399022 0.00125 2.04531e-05 1.34114e-13 -8.98622e-14 5.91069e-14
444 3 0.00572787 0.00844131 0.00453402 0.00125 2.04531e-05 3.04028e-13 2.37998e-14 -9.88048e-14
445 3 0.0134722 0.0120354 0.00770315 0.00125 2.04531e-05 2.64071e-13 2.97964e-14 -2.48755e-14
446 3 0.0142618 0.00750098 0.0120611 0.00125 2.04531e-05 1.99047e-13 1.00251e-14 1.51181e-13
447 3 0.00418723 0.0139954 0.0127576 0.00125 2.04531e-05 1.06253e-13 -1.6906e-14 5.36633e-14
448 3 0.000781022 0.00762729 0.0101265 0.00125 2.04531e-05 -8.86582e-14 -9.17215e-14 9.57894e-15
449 3 0.000645147 0.00446408 0.0127929 0.00125 2.04531e-05 3.91435e-14 6.33633e-14 -1.92482e-14
450 3 0.0041424 0.0100796 0.0100102 0.00125 2.04531e-05 -3.69272e-13 1.75187e-14 -5.35991e-13
451 3 0.0107275 0.000363065 0.0118739 0.00125 2.04531e-05 1.56211e-13 1.32205e-13 -3.02351e-14
452 3 0.0150629 0.0100049 0.00475304 0.00125 2.04531e-05 5.28646e-13 4.2888e-14 -3.46849e-13
453 3 0.0086363 0.00838321 0.00817677 0.00125 2.04531e-05 -9.7549e-14 8.71071e-14 -1.27482e-13
454 3 0.00801305 0.00494886 0.00850915 0.00125 2.04531e-05 1.30571e-13 -2.19835e-13 2.33745e-13
455 3 0.0114876 0.0140733 0.00278118 0.00125 2.04531e-05 -4.44859e-15 -4.19214e-14 -3.55873e-14
456 3 0.00350916 0.00837489 0.0116218 0.00125 2.04531e-05 -3.64967e-13 -1.89639e-14 -2.16682e-14
457 3 0.008439 0.0149795 0.00259205 0.00125 2.04531e-05 -6.56194e-15 -1.14321e-13 -8.89247e-14
458 3 0.00675671 0.0107337 0.0142936 0.00125 2.04531e-05 1.05487e-13 -5.79363e-14 -2.57581e-14
459 3 0.0013596 0.00336519 0.00922808 0.00125 2.04531e-05 -5.65864e-14 -1.61038e-13 -4.93628e-15
460 3 0.010253 0.000386007 0.00120378 0.00125 2.04531e-05 -6.91841e-14 3.05067e-14 -4.59281e-14
461 3 0.00372073 0.0124292 0.00779608 0.00125 2.04531e-05 -6.0459e-14 9.08836e-15 8.93693e-14
462 3 0.00873987 0.0109823 0.0130482 0.00125 2.04531e-05 -7.83461e-14 -1.61201e-14 3.44847e-14
463 3 0.00635759 0.0110301 0.010236 0.00125 2.04531e-05 -3.02359e-13 6.29827e-14 -8.07233e-14
464 3 0.0147823 0.0140638 0.00882267 0.00125 2.04531e-05 -1.80432e-14 -1.68958e-14 1.89902e-14
465 3 0.00436875 0.00633361 0.00594134 0.00125 2.04531e-05 -5.80094e-14 3.58276e-13 -6.01756e-13
466 3 0.00743457 0.0148893 0.00999036 0.00125 2.04531e-05 -1.13143e-13 1.06675e-13 -2.32281e-13
467 3 0.00721159 0.0103469 0.00807194 0.00125 2.04531e-05 3.03981e-14 4.21485e-14 9.06852e-14
468 3 0.000235121 0.0114449 0.00891905 0.00125 2.04531e-05 -3.63648e-13 3.97819e-13 3.94186e-13
469 3 0.00560331 0.00402616 0.00370227 0.00125 2.04531e-05 1.24696e-13 2.21751e-13 6.76575e-14
470 3 0.00637274 0.00341169 0.00121019 0.00125 2.04531e-05 9.34248e-15 7.44132e-14 3.62282e-14
471 3 0.00802251 0.00437102 0.00408155 0.00125 2.04531e-05 -4.04135e-13 5.60684e-14 7.1124e-14
472 3 0.00245443 0.0098718 0.00280099 0.00125 2.04531e-05 -3.37051e-13 -2.07099e-13 -8.72917e-13
473 3 0.00808488 0.00962179 0.0111205 0.00125 2.04531e-05 -3.1823e-13 -4.91098e-14 1.17769e-14
474 3 0.0128523 0.000723253 0.00293194 0.00125 2.04531e-05 -8.27326e-14 -2.21862e-13 -1.44422e-14
475 3 0.00143911 0.00837452 0.00481 0.00125 2.04531e-05 2.11287e-13 -1.03374e-13 -1.38136e-13
476 3 0.0140249 0.00727946 0.0032499 0.00125 2.04531e-05 -3.5971e-14 -5.79348e-14 9.48098e-14
477 3 0.00157413 0.00799594 0.00116857 0.00125 2.04531e-05 4.72152e-14 -3.74116e-14 -9.88441e-16
478 3 0.0116272 0.0113114 0.00247078 0.00125 2.04531e-05 -1.93661e-14 -6.59503e-14 6.17536e-14
479 3 0.0116313 0.00866133 0.00591582 0.00125 2.04531e-05 -5.07684e-14 1.36122e-14 -6.98573e-14
480 3 0.00570693 0.00174812 0.0108613 0.00125 2.04531e-05 -1.74766e-13 1.64888e-13 7.07625e-15
481 3 0.00920567 0.00458417 0.0130632 0.00125 2.04531e-05 -1.33541e-14 3.1082e-14 -4.24559e-14
482 3 0.0114897 0.00915935 0.0109173 0.00125 2.04531e-05 1.38367e-14 9.26976e-14 1.43059e-13
483 3 0.000902292 0.000913855 0.0142381 0.00125 2.04531e-05 -3.22342e-14 6.79179e-14 -2.92856e-14
484 3 0.0132966 0.00907906 0.0135663 0.00125 2.04531e-05 4.42752e-14 -6.21416e-14 1.17339e-13
485 3 0.00387612 0.00638259 0.00231648 0.00125 2.04531e-05 2.32093e-14 1.19607e-13 2.55293e-14
486 3 0.00937074 0.00824179 0.00583309 0.00125 2.04531e-05 -3.99731e-15 1.08889e-13 -2.31824e-13
487 3 0.00683303 0.00286057 0.00768509 0.00125 2.04531e-05 -8.60542e-14 1.09498e-13 -5.25979e-14
488 3 0.0132919 0.00217992 0.0113592 0.00125 2.04531e-05 3.17405e-14 -8.67835e-14 5.22622e-13
489 3 0.0152071 0.0147487 0.00152421 0.00125 2.04531e-05 9.49983e-14 -1.00289e-13 2.37806e-13
490 3 0.00539791 0.0119663 0.0128389 0.00125 2.04531e-05 -1.13636e-14 5.46443e-14 -1.80723e-13
491 3 0.0124574 0.0137804 0.00887514 0.00125 2.04531e-05 -3.97185e-14 -2.68435e-13 3.15901e-14
492 3 0.00271148 0.00498373 0.0118036 0.00125 2.04531e-05 -4.95206e-14 -1.10533e-13 -5.69939e-15
493 3 0.00241542 0.000277507 0.0101886 0.00125 2.04531e-05 -1.7009e-13 -1.73672e-14 1.08635e-13
494 3 0.0153302 0.0132881 0.0122819 0.00125 2.04531e-05 9.36687e-14 -1.18383e-13 5.57589e-13
495 3 0.010603 0.0134602 0.00736035 0.00125 2.04531e-05 2.86138e-14 -3.29656e-13 6.82333e-14
496 3 0.0101893 0.00632024 0.00131599 0.00125 2.04531e-05 -1.39023e-14 1.41912e-14 -6.86214e-14
497 3 0.00651711 0.00842311 0.0094191 0.00125 2.04531e-05 -2.56098e-13 1.79131e-13 9.64039e-15
498 3 0.00168404 0.0039278 0.00184435 0.00125 2.04531e-05 -1.40156e-13 -1.13381e-14 5.60581e-14
499 3 0.0116419 0.00433572 0.00136481 0.00125 2.04531e-05 5.68745e-14 4.31793e-15 2.90625e-14
500 3 0.0100212 0.00762411 0.01383 0.00125 2.04531e-05 4.3344e-14 -5.71287e-14 -1.13383e-14
