ITEM: TIMESTEP
200000
ITEM: NUMBER OF ENTRIES
1332
ITEM: BOX BOUNDS pp pp ff
0.0000000000000000e+00 1.5370634520482899e-02
0.0000000000000000e+00 1.5370634520482899e-02
0.0000000000000000e+00 1.5370634520482899e-02
ITEM: ENTRIES index c_pairIDs[1] c_pairIDs[2] c_pairIDs[3] c_pairIDs[4] c_pairState[1] c_pairState[2] c_pairState[3] c_pairState[4] c_pairState[5] c_pairState[6] c_pairState[7] c_pairState[8] c_pairState[9] c_pairState[10] c_pairState[11] c_pairState[12]
1 18 369 1 2 1.731709249031e-03 8.072290541931e-04 -1.931572413963e-04 1.519831720074e-03 5.931933250104e-02 2.765145979151e-02 -6.616560276372e-03 5.206151275055e-02 -4.760708399282e-03 2.817341858117e-04 2.564363596866e-03 5.414764932237e-03 
2 18 490 1 3 1.903252430560e-03 -1.064963144055e-03 1.553875563728e-03 2.714664780101e-04 7.546891171605e-01 -4.222856002129e-01 6.161520976083e-01 1.076435229182e-01 2.205309841282e-01 1.484659752347e-01 1.532314126990e-02 2.662909300395e-01 
3 18 214 1 2 1.641630441781e-03 -4.772170849948e-04 -1.549419343525e-03 2.579031971130e-04 8.554801051462e-01 -2.486855212102e-01 -8.074274143433e-01 1.343975163767e-01 3.192999686671e-01 -1.017052919804e-01 -2.019651731042e-02 3.357146641407e-01 
4 18 356 1 2 1.697953311128e-03 2.794986708679e-04 1.121854097827e-03 -1.243530989940e-03 2.847335354719e-01 4.686974853452e-02 1.881261878430e-01 -2.085304542322e-01 7.634045771407e-02 -4.074185269260e-02 -1.959690439743e-02 8.872318021116e-02 
5 18 479 1 3 1.982386553723e-03 -1.080183839701e-03 -4.621559426937e-04 -1.596706361691e-03 5.862386969085e-02 -3.194359674296e-02 -1.366704677776e-02 -4.721839214784e-02 1.698281037821e-02 1.713217100265e-02 -1.644779064797e-02 2.919686539349e-02 
6 414 186 3 2 2.220561544075e-03 1.544199941406e-03 3.099459874781e-04 1.565334979113e-03 1.379029755423e-01 9.589906090208e-02 1.924849777061e-02 9.721160483758e-02 3.394575143387e-02 4.148237918699e-02 -4.170118550920e-02 6.791237513367e-02 
7 414 9 3 1 1.920064666276e-03 -1.695475141189e-04 -4.676256337348e-04 1.854515632130e-03 5.667821757789e-01 -5.004857942446e-02 -1.380379936121e-01 5.474328148712e-01 8.266946307065e-02 1.030710350131e-01 3.354787576412e-02 1.363207187164e-01 
8 414 103 3 2 2.190883357188e-03 3.207038041014e-04 1.706845093334e-03 1.335589301469e-03 3.924332039836e-01 5.744478406863e-02 3.057317891814e-01 2.392320828319e-01 1.740612944907e-01 -7.249326534904e-02 5.084845683924e-02 1.952899724095e-01 
9 414 116 3 2 2.132889093310e-03 -1.322741369475e-03 1.659968350015e-03 2.099433990115e-04 1.094201017876e+00 -6.785842533517e-01 8.515862657488e-01 1.077038096426e-01 1.595404834705e-01 1.227052640390e-01 3.498058467695e-02 2.042875155099e-01 
10 414 190 3 2 2.200370236572e-03 -1.292554192163e-03 -1.432655029548e-03 1.057559645894e-03 3.018661599255e-01 -1.773239630308e-01 -1.965442292755e-01 1.450853424084e-01 1.251485400957e-02 -7.521748687955e-02 -8.659992295235e-02 1.153856081091e-01 
11 414 107 3 2 2.143936122236e-03 2.134768006839e-04 -2.132543010297e-03 5.612540449850e-05 9.430882979012e-01 9.390553688158e-02 -9.380766231435e-01 2.468880096218e-02 -2.076124389502e-01 -1.959031889471e-02 4.531355377602e-02 2.134010861197e-01 
12 414 83 3 1 1.920785573022e-03 4.733359367380e-04 1.809630037994e-03 -4.365884035493e-04 5.591320976275e-01 1.377859761693e-01 5.267752180588e-01 -1.270889334577e-01 -1.081114094932e-02 -1.661624881361e-02 -8.059436358163e-02 8.299657784747e-02 
13 414 457 3 3 2.430972984792e-03 2.273549438415e-03 -8.504842137724e-04 -1.314503936569e-04 5.251773683281e-01 4.911682352295e-01 -1.837350986571e-01 -2.839800040489e-02 6.700575788203e-02 2.021160655749e-01 -1.487680587595e-01 2.597549053626e-01 
14 414 484 3 3 2.400760879674e-03 -1.626830180970e-03 -9.899799462237e-04 -1.461853641694e-03 9.053191817851e-01 -6.134724123540e-01 -3.733182435981e-01 -5.512602916821e-01 3.319116014516e-01 -1.590869943787e-01 -2.616341784204e-01 4.515821367995e-01 
15 74 465 1 3 1.999985997040e-03 -1.316753829626e-03 1.079341112346e-03 1.049345559729e-03 1.302276186018e-06 -8.573945806157e-07 7.028050342741e-07 6.832736505962e-07 -4.432771196860e-07 -4.427823749754e-07 -1.007996105939e-07 6.345954600546e-07 
16 74 120 1 2 1.749987983355e-03 1.244680840810e-03 -1.124535160553e-04 1.224982348092e-03 9.901903392550e-07 7.042739468773e-07 -6.362922847034e-08 6.931280090922e-07 1.113694730453e-07 -4.567949228673e-07 -1.550941895932e-07 4.950949088097e-07 
17 74 398 1 2 1.749986928866e-03 7.006412266774e-04 1.229139530958e-03 -1.029937928284e-03 1.123281536619e-06 4.497275612399e-07 7.889600306604e-07 -6.610965142775e-07 8.451586265370e-08 -3.841274590686e-07 -4.009279936630e-07 5.616405362447e-07 
18 280 133 2 2 1.961841193654e-03 1.188421898589e-04 1.957938647233e-03 -3.425867336507e-05 1.930698816989e-01 1.169556823004e-02 1.926858219807e-01 -3.371484927093e-03 2.778900463864e-03 -1.856549522058e-03 -9.646489840514e-02 9.652277289961e-02 
19 280 216 2 2 1.995685641430e-03 -9.037061596193e-04 1.075678154568e-03 -1.417389453983e-03 7.340008248722e-03 -3.323775312265e-03 3.956277663971e-03 -5.213070670004e-03 -1.966967662625e-03 -1.017962243060e-05 1.246383475909e-03 2.328634187575e-03 
20 280 392 2 2 1.974209089606e-03 -1.334389852666e-03 -7.488642120766e-04 -1.247440436435e-03 1.072808858192e-01 -7.251234237337e-02 -4.069417796364e-02 -6.778740698340e-02 -3.603996893788e-02 3.438382640036e-02 1.791071630838e-02 5.293317143015e-02 
21 280 490 2 3 2.164127204291e-03 6.350860397236e-04 -1.489740372290e-03 -1.435543765153e-03 6.870439262082e-01 2.016203138829e-01 -4.729468177192e-01 -4.557410593513e-01 -8.406531686573e-03 1.557425255424e-01 -1.653413881594e-01 2.272975553669e-01 
22 186 246 2 2 1.962369098573e-03 6.646871259186e-04 -7.040504951218e-04 1.706867424258e-03 1.890772621637e-01 6.404362056838e-02 -6.783634135872e-02 1.644592853045e-01 -7.377228289488e-02 3.770016068616e-02 4.427895359557e-02 9.393762595895e-02 
23 186 429 2 3 2.110524605820e-03 1.805228052025e-03 1.093356382759e-03 -6.132881430427e-06 1.422156845817e+00 1.216435679247e+00 7.367477547388e-01 -4.132583570368e-03 -1.547580331639e-02 2.602872171878e-02 8.500323951509e-02 9.023605471574e-02 
24 186 441 2 3 2.139193381346e-03 -2.655642598370e-04 -2.098574602676e-03 3.187610134463e-04 1.007046804309e+00 -1.250170468643e-01 -9.879251056300e-01 1.500599537791e-01 -1.178893542201e-01 -8.617255076059e-03 -1.549472793590e-01 1.948866755430e-01 
25 186 103 2 2 1.871110094659e-03 -1.223496137304e-03 1.396899105856e-03 -2.297456776438e-04 1.198534968867e+00 -7.837074413840e-01 8.947802863801e-01 -1.471630287219e-01 -1.474884877094e-01 -9.942015959333e-02 1.809464418359e-01 2.537298503398e-01 
26 186 457 2 3 2.181199106457e-03 7.293494970096e-04 -1.160430201250e-03 -1.696785372770e-03 4.927109463243e-01 1.647527178097e-01 -2.621295144074e-01 -3.832867546351e-01 -5.203678146298e-02 -2.085976572661e-01 1.202921855939e-01 2.463554731620e-01 
27 479 214 3 2 2.232775677419e-03 6.029667547064e-04 -1.087263400832e-03 1.854609558804e-03 6.171835066411e-02 1.666719768677e-02 -3.005411807170e-02 5.126508867543e-02 -7.474115553719e-03 -2.648126036137e-02 -1.309464943210e-02 3.047276484645e-02 
28 479 356 3 2 2.117205039959e-03 1.359682510569e-03 1.584010040521e-03 3.531753717508e-04 1.321214985640e+00 8.484926470379e-01 9.884814004509e-01 2.203946169168e-01 -2.133002642926e-01 1.632226678629e-01 8.911803232983e-02 2.829852747722e-01 
29 479 310 3 2 2.181505021207e-03 -1.077546042098e-03 -1.475526988892e-03 1.191922308609e-03 4.894284495875e-01 -2.417513063763e-01 -3.310397544255e-01 2.674120306212e-01 -1.321608981749e-02 -3.536637843235e-02 -5.572929600841e-02 6.731419008707e-02 
30 479 8 3 1 1.986786648399e-03 -6.865733109712e-04 9.712308183583e-04 -1.591429851545e-03 3.809144545808e-02 -1.316325024074e-02 1.862081455727e-02 -3.051151135898e-02 1.301206400712e-02 2.568183604500e-03 -4.046321487604e-03 1.386658192680e-02 
31 479 485 3 3 2.423473754037e-03 1.008723688627e-03 2.756498207935e-04 -2.186256785651e-03 6.130458882645e-01 2.551683956460e-01 6.972882993134e-02 -5.530390955962e-01 -1.038118302667e-02 5.492524489532e-02 2.135334114466e-03 5.593845850240e-02 
32 133 291 2 2 1.948683570529e-03 4.037064428357e-04 1.656093603642e-03 -9.443213129218e-04 3.010974052248e-01 6.237798904281e-02 2.558883824995e-01 -1.459101422721e-01 5.247033704799e-02 5.940786823810e-02 1.266174998824e-01 1.493801270417e-01 
33 133 216 2 2 1.933142379710e-03 -1.022548349478e-03 -8.822604926648e-04 -1.383130780618e-03 4.477635376105e-01 -2.368474620110e-01 -2.043533282576e-01 -3.203672620329e-01 5.824954304367e-02 1.192271426587e-02 -5.066904361897e-02 7.811857884987e-02 
34 165 15 2 1 1.723010522872e-03 4.720813154491e-05 1.708505389106e-03 -2.180504291168e-04 1.063262919581e-01 2.913194963589e-03 1.054311859403e-01 -1.345580498790e-02 2.029188073444e-02 -6.171145018075e-04 -4.421072320567e-04 2.030607576204e-02 
35 165 246 2 2 1.976977590037e-03 1.881356220881e-03 -6.074036021268e-04 1.605825381836e-07 9.047915735553e-02 8.610291103383e-02 -2.779867934371e-02 7.349285502317e-06 9.021845920429e-03 2.794353813719e-02 -1.869566874276e-03 2.942329532418e-02 
36 165 9 2 1 1.649280412088e-03 -4.970783605625e-04 -6.809247282180e-04 -1.417526188703e-03 7.665136100163e-01 -2.310203442805e-01 -3.164641183818e-01 -6.588043538453e-01 5.108492527599e-02 1.019816862502e-01 -6.690180656339e-02 1.322338294172e-01 
37 216 418 2 3 2.082496445991e-03 -1.613724603845e-03 -4.155788072411e-04 1.248991034989e-03 1.871703877705e+00 -1.450381634206e+00 -3.735134657744e-01 1.122566796168e+00 5.124920332743e-01 1.958908023746e-01 7.273303363221e-01 9.110602113796e-01 
38 216 45 2 1 1.667042427329e-03 -1.451866193332e-03 7.544996621236e-04 -3.191320589192e-04 5.729714877433e-01 -4.990142537227e-01 2.593256097276e-01 -1.096874126224e-01 2.219405207493e-02 4.101296864139e-02 -4.006250375730e-03 4.680480302658e-02 
39 216 392 2 2 1.882372428533e-03 -4.306836930467e-04 -1.824542366644e-03 1.699490175475e-04 1.044927238278e+00 -2.390776209453e-01 -1.012825085727e+00 9.434071327340e-02 4.891066381305e-02 -1.792563118481e-02 -6.849729654062e-02 8.605498777747e-02 
40 216 437 2 3 2.131972149204e-03 1.691591813516e-04 1.793750253097e-03 -1.139802810078e-03 1.107077051602e+00 8.783991283004e-02 9.314473185072e-01 -5.918696146477e-01 1.077195452904e-01 5.649059704501e-02 1.048881190719e-01 1.606119718904e-01 
41 216 393 2 2 1.827407172480e-03 6.557855716506e-04 -2.431356445368e-04 -1.688267548821e-03 1.857190573269e+00 6.664736792635e-01 -2.470983116732e-01 -1.715783227758e+00 6.032627118174e-01 3.465466906445e-02 2.293387664310e-01 6.463150279433e-01 
42 30 223 1 2 1.731415214451e-03 -8.124489544872e-04 7.585566467985e-04 1.327522939456e-03 6.075545669929e-02 -2.850887924674e-02 2.661779515617e-02 4.658285418326e-02 2.305380048234e-02 1.956382402879e-02 2.930094259921e-03 3.037772834958e-02 
43 30 84 1 1 1.464300840246e-03 -1.637356826473e-04 1.454916302192e-03 -2.421013402763e-05 1.513003639531e-01 -1.691815485983e-02 1.503306970759e-01 -2.501536562063e-03 6.520063059474e-02 6.709097376950e-03 -3.777321558317e-02 7.565018197637e-02 
44 30 387 1 2 1.667475987430e-03 1.413194941679e-03 7.009639157558e-04 5.403756233174e-04 5.684855999039e-01 4.817946286830e-01 2.389766900173e-01 1.842279965114e-01 1.690256428693e-02 8.548782269222e-02 -1.550967396065e-01 1.779012735893e-01 
45 30 154 1 2 1.652833201966e-03 -1.185711837479e-03 -1.086014421212e-03 3.827763170616e-04 7.263163129033e-01 -5.210458314481e-01 -4.772350829087e-01 1.682061341363e-01 -2.047876287969e-02 -5.045083192894e-02 -2.065755876144e-01 2.136308488249e-01 
46 252 384 2 2 1.981976469577e-03 1.974658523281e-03 -1.698575824530e-04 -1.014120682928e-05 6.267323957611e-02 6.244183450724e-02 -5.371166167864e-03 -3.206810448853e-04 -3.054098912526e-04 -3.976237545385e-03 7.130695101662e-03 8.170101153099e-03 
47 252 441 2 3 2.213818741969e-03 -1.704357106025e-03 4.510108781370e-04 -1.338935945158e-03 1.878999221588e-01 -1.446588925650e-01 3.827996722954e-02 -1.136434320937e-01 2.826468326540e-02 -1.270708909903e-02 -4.025894544271e-02 5.080497142626e-02 
48 465 83 3 1 1.946101635486e-03 -1.571517698132e-03 6.505151918423e-04 9.457661895433e-04 3.138133222029e-01 -2.534108089520e-01 1.048970566455e-01 1.525069526462e-01 -4.701520507690e-02 -1.279415709674e-01 9.878454973400e-03 1.366640368301e-01 
49 465 87 3 1 1.884071640756e-03 1.431414869454e-03 -3.819943286790e-04 1.163983570271e-03 9.899027453862e-01 7.520741135360e-01 -2.007021529869e-01 6.115640758404e-01 -1.335428077202e-01 7.607205530967e-02 1.891901741769e-01 2.437489714808e-01 
50 465 457 3 3 2.378140338241e-03 2.286958035454e-04 -2.009599059924e-03 1.250904199436e-03 1.231876945862e+00 1.184644503408e-01 -1.040972524850e+00 6.479685071515e-01 1.586943812690e-01 1.814996015168e-01 2.625690198994e-01 3.564666915828e-01 
51 465 168 3 2 2.082099765935e-03 -4.124284767681e-04 1.266390609445e-03 -1.600405264664e-03 1.878356626494e+00 -3.720704333995e-01 1.142468402283e+00 -1.443798171030e+00 8.717524831164e-02 1.848200324814e-01 1.237816464669e-01 2.389139266068e-01 
52 465 135 3 2 2.085704716940e-03 -1.026818984548e-03 -1.008431850727e-03 -1.509593369645e-03 1.818187840530e+00 -8.951170206247e-01 -8.790882592844e-01 -1.315969747079e+00 -1.011333775898e-03 -8.859027356314e-02 5.986758563768e-02 1.069270179893e-01 
53 84 416 1 3 1.930744347062e-03 1.026422754338e-03 1.165231369369e-03 1.147373487112e-03 4.570785495824e-01 2.429922037710e-01 2.758533334822e-01 2.716257127033e-01 1.239543342979e-01 -1.544363400506e-02 -9.520364874228e-02 1.570570519154e-01 
54 84 223 1 2 1.653156973995e-03 -6.487132718398e-04 -6.963596553931e-04 1.351733073483e-03 7.226890698045e-01 -2.835895189449e-01 -3.044184669222e-01 5.909195151255e-01 4.146309459478e-02 -1.109884961805e-01 -3.727825569715e-02 1.242066940451e-01 
55 84 160 1 2 1.658051484842e-03 -1.008960321790e-03 1.314100671059e-03 -6.536988422482e-05 6.685994921510e-01 -4.068573050453e-01 5.299033530246e-01 -2.636002065934e-02 -7.791927280540e-02 -6.323239523182e-02 -6.847615765850e-02 1.214855260883e-01 
56 84 422 1 3 1.952651351524e-03 -1.766670471510e-03 -6.857694237479e-04 -4.705773508744e-04 2.583862363675e-01 -2.337761596195e-01 -9.074501716852e-02 -6.226954469744e-02 -1.405097163300e-02 4.680686099284e-02 -1.546032210349e-02 5.125752236871e-02 
57 84 172 1 2 1.638857971275e-03 1.072627454854e-03 -2.829106285751e-04 -1.206352920726e-03 8.885184297201e-01 5.815325541116e-01 -1.533819964015e-01 -6.540327603727e-01 7.453351838187e-02 4.268626286197e-02 5.626073385508e-02 1.026773225859e-01 
58 17 169 1 2 1.640061929168e-03 3.160656211283e-04 -7.373759076453e-05 1.607628197798e-03 8.741201359489e-01 1.684566410547e-01 -3.930065793084e-02 8.568336072086e-01 -2.545593634675e-02 -1.751452232371e-01 -3.028710542866e-03 1.770113753566e-01 
59 17 457 1 3 1.899389433547e-03 -3.946132505307e-04 1.745515061350e-03 6.365043388510e-04 8.003379008615e-01 -1.662765597216e-01 7.355004905519e-01 2.682012111091e-01 1.979511728482e-01 -7.860661247324e-02 3.382902025369e-01 3.997548342284e-01 
60 17 448 1 3 1.847282733287e-03 -7.535628063999e-04 5.017388340503e-04 -1.610234372977e-03 1.496718768809e+00 -6.105571039514e-01 4.065224648244e-01 -1.304655732871e+00 -2.248474886258e-01 -3.239431242321e-01 4.286244959535e-03 3.943525234792e-01 
61 15 329 1 2 1.696744301749e-03 1.648849661243e-03 -3.390767109201e-04 2.127510381861e-04 2.947121770127e-01 2.863932253850e-01 -5.889516502079e-02 3.695331203465e-02 -5.639504422187e-03 6.976791954063e-03 5.482634889261e-02 5.555545129861e-02 
62 15 38 1 1 1.475204116664e-03 -1.321937840704e-03 -4.880663044715e-04 4.364616977185e-04 8.758351394389e-02 -7.848402807208e-02 -2.897671007040e-02 2.591292198571e-02 9.083457176404e-03 9.640000526548e-03 3.829139023937e-02 4.051751930821e-02 
63 15 103 1 2 1.732637608746e-03 -5.403517388704e-05 -2.149593902550e-04 -1.718402090247e-03 5.486094636973e-02 -1.710929487928e-03 -6.806313981023e-03 -5.441020351792e-02 -9.557260209961e-04 2.511196196752e-02 -3.111267868760e-03 2.532200690776e-02 
64 173 437 2 3 2.162459261697e-03 -4.879823366900e-05 -9.846866580790e-04 1.924640479750e-03 7.071578983654e-01 -1.595778333333e-02 -3.220078916674e-01 6.293874482984e-01 2.196307081888e-01 -1.668298285238e-02 -2.966746287538e-03 2.202833890240e-01 
65 173 183 2 2 1.884259893935e-03 -8.969556167650e-04 1.499287369773e-03 7.057218660954e-04 1.019877827774e+00 -4.854877763839e-01 8.115069215317e-01 3.819802597947e-01 -1.859220644980e-01 -2.376992175314e-02 -1.858039304477e-01 2.639225716326e-01 
66 173 88 2 1 1.679489766317e-03 5.518790181820e-04 1.489692636136e-03 -5.449140063294e-04 4.489802068350e-01 1.475345433480e-01 3.982414905450e-01 -1.456725775743e-01 1.183400686856e-01 -5.201485572300e-02 -2.234618032061e-02 1.311841028757e-01 
67 173 416 2 3 2.208805966663e-03 1.896287673929e-03 2.235385831008e-04 -1.110381627161e-03 2.282719502872e-01 1.959743373418e-01 2.310188812371e-02 -1.147538459333e-01 5.000061588954e-02 4.526046554888e-03 8.630122769517e-02 9.984211830907e-02 
68 173 223 2 2 1.884940262006e-03 2.211516477520e-04 -1.638052441661e-03 -9.060220407898e-04 1.010898206641e+00 1.186041852967e-01 -8.784916472081e-01 -4.859019008044e-01 -1.627165071595e-01 5.559080005586e-02 -1.402235968935e-01 2.218775695711e-01 
69 9 441 1 3 1.960397521685e-03 1.448183195687e-03 -1.321002981463e-03 2.958036042980e-05 1.976475975324e-01 1.460060657332e-01 -1.331837358144e-01 2.982296757887e-03 5.219360067191e-02 5.856437811475e-02 6.010145478702e-02 9.882379876620e-02 
70 9 190 1 2 1.681536374186e-03 -1.123006678044e-03 -9.650293958136e-04 -7.969559862356e-04 4.295748067536e-01 -2.868896469379e-01 -2.465318756002e-01 -2.035948903834e-01 -5.862454732184e-02 7.170185658920e-02 -4.214337151383e-03 9.271329152098e-02 
71 223 245 2 2 1.924818992581e-03 -1.195326514024e-03 -1.271464833498e-03 8.120959649260e-04 5.339302958399e-01 -3.315745749175e-01 -3.526947714649e-01 2.252693060878e-01 -1.331868418822e-01 7.967205664504e-03 -1.835641943735e-01 2.269317621503e-01 
72 223 484 2 3 2.118908811734e-03 1.472182869182e-03 -1.377559925910e-03 6.517521021485e-04 1.295869746245e+00 9.003489109814e-01 -8.424799697567e-01 3.985947042878e-01 8.837743967852e-03 1.455591213039e-01 2.876947178327e-01 3.225427323349e-01 
73 329 449 2 3 2.233631339010e-03 -6.100955434963e-04 2.125377903412e-03 -3.156915489816e-04 5.717692834527e-02 -1.561734408227e-02 5.440583589945e-02 -8.081133515674e-03 -6.663494657631e-03 -5.945856247152e-03 -2.715252632356e-02 2.858347517912e-02 
74 329 246 2 2 1.985505271524e-03 1.852984280931e-04 -1.976832280313e-03 5.459973468916e-06 4.519989881879e-02 4.218306705707e-03 -4.500245873598e-02 1.242959421401e-04 -2.036720193720e-02 -1.906397734420e-03 9.857057443799e-04 2.047996296108e-02 
75 329 429 2 3 2.169271180451e-03 1.325839354199e-03 -1.794254024320e-04 -1.707540332219e-03 6.262446179671e-01 3.827551701874e-01 -5.179813091707e-02 -4.929480245027e-01 -5.495987057335e-02 1.921246661305e-02 -4.469303733325e-02 7.339736938657e-02 
76 69 271 1 2 1.707512886907e-03 -5.495835191251e-04 -1.585601880968e-03 -3.153171253356e-04 2.100074930884e-01 -6.759343251765e-02 -1.950136239742e-01 -3.878094246160e-02 2.924852467270e-02 -1.707776389280e-02 3.489828667863e-02 4.863143662500e-02 
77 69 490 1 3 1.843503329032e-03 -4.097628654982e-04 4.434712118767e-04 -1.741818647979e-03 1.552621688696e+00 -3.451074387422e-01 3.734970319982e-01 -1.466981571467e+00 2.039046801113e-01 -6.128864368288e-02 -6.357281516622e-02 2.222046787175e-01 
78 146 484 2 3 2.076565309073e-03 -1.602168322606e-03 4.643841101123e-04 1.236740695198e-03 1.971991578713e+00 -1.521484745053e+00 4.409981956400e-01 1.174459683655e+00 1.252892996630e-01 5.598094992764e-01 -4.789370092806e-02 5.756543152611e-01 
79 146 448 2 3 2.067090466155e-03 1.939261740910e-03 -6.398963847362e-04 3.204052314073e-04 2.135775560232e+00 2.003699353726e+00 -6.611588036313e-01 3.310516273064e-01 1.166308162254e-01 1.610542366221e-01 -3.842623146486e-01 4.326646979896e-01 
80 146 135 2 2 1.923740541813e-03 1.042696508686e-03 1.605047051760e-03 -1.933536258455e-04 5.454600232703e-01 2.956475935968e-01 4.550972353983e-01 -5.482375141592e-02 -3.271319663467e-02 3.413578155392e-02 1.069522206593e-01 1.169366594371e-01 
81 146 387 2 2 1.986222999199e-03 -8.487072956217e-04 1.784351304980e-03 -2.021587230893e-04 4.188459812975e-02 -1.789716664304e-02 3.762761651714e-02 -4.263034351345e-03 -1.766511950762e-02 -7.447152453460e-03 8.429908850644e-03 2.094229906466e-02 
82 369 341 2 2 1.943472462887e-03 8.554385623930e-04 1.734466859257e-03 1.921842712312e-04 3.481067578034e-01 1.532226209227e-01 3.106705376193e-01 3.442325262470e-02 1.744908949336e-02 -4.772118398139e-03 -3.459982855638e-02 3.904346263184e-02 
83 369 12 2 1 1.690535702342e-03 -7.795553119598e-04 -1.439907359800e-03 4.205606634967e-04 3.477229885153e-01 -1.603452103449e-01 -2.961717339902e-01 8.650430189701e-02 1.256425083729e-02 -1.606150541597e-02 -3.170185072277e-02 3.769402730644e-02 
84 169 441 2 3 2.185455645698e-03 -1.705592628506e-03 8.811082506889e-04 1.044422527269e-03 4.477014367925e-01 -3.493991158631e-01 1.804993986402e-01 2.139551388276e-01 8.931598051687e-02 -1.285130301366e-02 1.566990971607e-01 1.808234150098e-01 
85 169 284 2 2 1.872254468937e-03 7.278533834525e-04 -1.167104762045e-03 1.270209716174e-03 1.182608323783e+00 4.597481186698e-01 -7.372009677216e-01 8.023271452787e-01 -1.039724567638e-01 3.138159260772e-02 8.841241661378e-02 1.400422490950e-01 
86 169 82 2 1 1.697559056478e-03 1.262451859354e-03 9.016042272964e-04 -6.892255584104e-04 2.879749510956e-01 2.141631014665e-01 1.529486896332e-01 -1.169206430372e-01 -6.672037759367e-03 3.732859957350e-02 3.660992603209e-02 5.270889031327e-02 
87 169 463 2 3 2.213960787928e-03 1.914556177418e-03 -9.217834774711e-04 -6.216206517271e-04 1.867944676184e-01 1.615333495680e-01 -7.777195281530e-02 -5.244686325662e-02 -1.834048948054e-02 -7.423369424472e-02 5.359135878806e-02 9.337584619351e-02 
88 169 412 2 3 2.243882215015e-03 -1.586896026167e-03 -1.502134534591e-03 5.102550705144e-04 1.306448790332e-02 -9.239336984335e-03 -8.745832702357e-03 2.970842743765e-03 2.068351855607e-03 -1.290441363022e-04 6.052693770123e-03 6.397642820805e-03 
89 169 457 2 3 2.181244190884e-03 -7.106788716590e-04 1.819252652115e-03 -9.711238589475e-04 4.922267343099e-01 -1.603741303251e-01 4.105385337311e-01 -2.191470022925e-01 -1.358306315329e-01 -1.162098933068e-01 -1.182992217060e-01 2.143581246915e-01 
90 39 393 1 2 1.715643854330e-03 -6.321446664936e-05 1.351029613716e-03 1.055536237639e-03 1.527058293277e-01 -5.626585920402e-03 1.202522872611e-01 9.395104709365e-02 4.577982228268e-02 2.099757355987e-02 -2.413408062123e-02 5.584929785653e-02 
91 39 80 1 1 1.430928034207e-03 -8.035045999574e-04 -8.905557212706e-04 7.802857836972e-04 4.071980723418e-01 -2.286526760248e-01 -2.534247455814e-01 2.220453156285e-01 7.075073007495e-02 -1.011069018623e-02 6.131651390164e-02 9.416797087774e-02 
92 39 484 1 3 1.895653488518e-03 1.192291893655e-03 1.356989801857e-03 -5.749094420096e-04 8.453273048562e-01 5.316778088242e-01 6.051214205914e-01 -2.563689261218e-01 1.048824034280e-01 1.708437437366e-02 2.578384530268e-01 2.788778626134e-01 
93 39 316 1 2 1.647515893582e-03 -1.027319621231e-03 -8.248815057870e-04 -9.891883121273e-04 7.867445461448e-01 -4.905798555872e-01 -3.939088104835e-01 -4.723708661677e-01 -2.823163966755e-02 -1.060114050398e-01 1.177225442145e-01 1.609162542852e-01 
94 434 107 3 2 2.158717192701e-03 -6.861869504776e-04 1.727451333423e-03 1.097779248170e-03 7.529819755169e-01 -2.393488166452e-01 6.025521647986e-01 3.829162938820e-01 -3.541955243956e-02 -1.762951118537e-01 2.552760873959e-01 3.122505275491e-01 
95 434 412 3 3 2.462642390774e-03 4.976685327457e-04 -3.118770567580e-04 2.391582379476e-03 2.090961204803e-01 4.225565184457e-02 -2.648061402630e-02 2.030626124324e-01 2.156399374209e-02 1.620643449803e-02 -2.373870147772e-03 2.707932061050e-02 
96 434 356 3 2 2.071913787549e-03 -1.554531849820e-03 1.097498611322e-04 1.365361651326e-03 2.051854425720e+00 -1.539481553308e+00 1.086873110453e-01 1.352142817823e+00 1.343077864062e-01 3.113967648385e-01 1.278855165103e-01 3.624379008524e-01 
97 434 448 3 3 2.436029160708e-03 1.014936131384e-03 1.765733902647e-03 -1.336535261813e-03 4.685440592317e-01 1.952120699251e-01 3.396199617040e-01 -2.570682104209e-01 1.190363101415e-01 -4.927875315772e-02 2.529008245527e-02 1.312921433882e-01 
98 434 267 3 2 2.186135463760e-03 -1.966861699837e-03 8.182118527366e-04 -4.910933553448e-04 4.406469259586e-01 -3.964491570565e-01 1.649223223666e-01 -9.898690222025e-02 -2.870656166705e-02 -1.042428602884e-01 -5.870758970805e-02 1.230334169776e-01 
99 434 334 3 2 2.036129823116e-03 1.281786381023e-03 -9.760008389790e-04 -1.245098667704e-03 2.700389718012e+00 1.699951901252e+00 -1.294407950038e+00 -1.651295316246e+00 1.915159542573e-01 7.822669656684e-02 1.358392109554e-01 2.474875108441e-01 
100 434 236 3 2 2.185916721191e-03 -5.574612804537e-04 2.299241174572e-04 -2.101095840981e-03 4.429127380795e-01 -1.129533891687e-01 4.658746576494e-02 -4.257262423929e-01 -5.148463445148e-02 -1.749382362397e-02 1.174550812328e-02 5.562965405845e-02 
101 448 492 3 3 2.458878951769e-03 1.918422244508e-03 -1.468232205286e-03 4.582968280388e-04 2.414757975668e-01 1.883998971276e-01 -1.441886931968e-01 4.500733636904e-02 7.274750166099e-02 9.550309719065e-02 1.440764048613e-03 1.200629683623e-01 
102 448 123 3 2 2.137388913842e-03 1.728758892375e-03 5.410171473442e-04 -1.134515097885e-03 1.031746076548e+00 8.344949264750e-01 2.611561777561e-01 -5.476455377149e-01 2.793068225071e-01 -2.141810631137e-01 3.234672909207e-01 4.780344309682e-01 
103 448 359 3 2 2.170943513185e-03 7.791464724376e-05 1.238196695441e-03 -1.781514521014e-03 6.068863510718e-01 2.178100704769e-02 3.461373683108e-01 -4.980216391967e-01 1.803017628171e-01 1.966418885487e-01 1.445564893465e-01 3.034358855165e-01 
104 448 496 3 3 2.377230059351e-03 1.958787269557e-04 -1.265110983939e-03 -2.003084740525e-03 1.245705642961e+00 1.026435092156e-01 -6.629378950790e-01 -1.049647658116e+00 -8.050147512760e-02 -5.314878669877e-03 -4.515343236120e-03 8.080299349365e-02 
105 437 291 3 2 2.150986048761e-03 1.257095610962e-03 7.446038432105e-04 1.578612277775e-03 8.506397700500e-01 4.971373580297e-01 2.944647838751e-01 6.242859574740e-01 1.408545397483e-01 1.598623351193e-01 -1.875709045174e-01 2.838640727161e-01 
106 437 10 3 1 1.952537296801e-03 4.269190572575e-04 1.900090900827e-03 1.407003288685e-04 2.593204192111e-01 5.669998164880e-02 2.523549075088e-01 1.868669465372e-02 1.258289931775e-01 -2.909952789989e-02 1.117945542735e-02 1.296329366778e-01 
107 437 116 3 2 2.197128949772e-03 2.046221562098e-03 6.190225867465e-04 -5.071133776852e-04 3.319158599371e-01 3.091185838119e-01 9.351449955714e-02 -7.660859999020e-02 2.460531135127e-02 4.286570953408e-03 1.045158837762e-01 1.074586711194e-01 
108 437 346 3 2 2.123291434033e-03 -2.078586512491e-03 4.272835276436e-04 7.261825482458e-05 1.231430956617e+00 -1.205503745958e+00 2.478087344767e-01 4.211591756703e-02 3.281486187862e-02 1.924052835912e-01 -1.928313890679e-01 2.743730178493e-01 
109 437 393 3 2 2.164837863064e-03 4.866263902989e-04 -2.036885897633e-03 -5.484647387422e-04 6.785329144533e-01 1.525250590324e-01 -6.384284699149e-01 -1.719072749064e-01 2.651514574096e-01 7.207792324206e-02 -3.242653097316e-02 2.766803250979e-01 
110 484 393 3 2 2.057834993116e-03 -1.255506360304e-03 -5.960188141150e-06 1.630445679649e-03 2.299919095546e+00 -1.403204368816e+00 -6.661345814770e-03 1.822251621447e+00 5.120094351857e-01 1.459847693167e-01 3.948007633776e-01 6.628218896168e-01 
111 484 267 3 2 2.127935105818e-03 5.596322322944e-04 -2.051802544759e-03 -7.089355732176e-05 1.164359981462e+00 3.062186313098e-01 -1.122701893703e+00 -3.879141843340e-02 2.557957868804e-02 1.320173787165e-02 -1.801602729504e-01 1.824454019104e-01 
112 484 387 3 2 2.092952089910e-03 7.534610269843e-04 1.319967194868e-03 -1.438899418287e-03 1.699218950521e+00 6.117174213893e-01 1.071650556359e+00 -1.168208852575e+00 -1.843300837454e-01 2.922135909715e-01 1.715386195399e-01 3.857354799804e-01 
113 341 441 2 3 2.151184565312e-03 5.503348345087e-04 1.542160347355e-03 -1.395158796341e-03 8.480828565007e-01 2.169639676707e-01 6.079811902972e-01 -5.500273088382e-01 -4.943680203615e-02 -7.331452830371e-02 -1.005402059840e-01 1.338930561129e-01 
114 341 412 2 3 2.208466101564e-03 6.690314368474e-04 -8.410824379242e-04 -1.929326253095e-03 2.311027653414e-01 7.001013737376e-02 -8.801424533832e-02 -2.018924501582e-01 2.409890805464e-03 1.397107555285e-03 2.266128307527e-04 2.794787396271e-03 
115 412 340 3 2 2.220216351604e-03 1.036885864979e-03 -4.844965460714e-04 1.902496109794e-03 1.403356241191e-01 6.553957000500e-02 -3.062409892054e-02 1.202531360330e-01 -8.608466827370e-03 1.925095776880e-02 9.594248330566e-03 2.316796661692e-02 
116 412 441 3 3 2.445254573424e-03 -1.186966023387e-04 2.383242785280e-03 5.341674567545e-04 3.709361285854e-01 -1.800583817582e-02 3.615291683160e-01 8.103123927395e-02 1.291029321386e-01 2.746798602653e-02 -9.386344961244e-02 1.619642075160e-01 
117 412 478 3 3 2.436468834833e-03 -7.483125520962e-04 -2.313160024579e-03 1.603103495748e-04 4.637219001262e-01 -1.424228841286e-01 -4.402531017668e-01 3.051113104831e-02 1.034633764744e-01 -4.313709732510e-02 -1.394798645607e-01 1.789416442726e-01 
118 490 190 3 2 2.159881258153e-03 7.067757214188e-04 1.885567987138e-03 -7.811456297109e-04 7.386246290252e-01 2.416993772534e-01 6.448164452300e-01 -2.671320003273e-01 -3.244479493881e-01 5.181005335706e-02 -1.684968212355e-01 3.692450842699e-01 
119 490 356 3 2 2.071095711618e-03 1.344461814923e-03 -4.320214659015e-04 -1.514997467950e-03 2.066009078770e+00 1.341159802567e+00 -4.309604166381e-01 -1.511276618237e+00 -4.951138980851e-02 -1.657243307322e-04 -4.389088308043e-02 6.616505726518e-02 
120 246 441 2 3 2.176443092522e-03 -9.302513857556e-04 -1.394524107554e-03 -1.388106410811e-03 5.446735554696e-01 -2.328033898524e-01 -3.489916214485e-01 -3.473855377816e-01 9.191557495353e-02 1.263186176978e-01 -1.885006412597e-01 2.448210731360e-01 
121 393 190 2 2 1.873070000076e-03 1.589782349111e-03 -4.367148951836e-04 8.889676079396e-04 1.171301696472e+00 9.941511862660e-01 -2.730943838630e-01 5.559051542366e-01 -5.140629004229e-02 -2.278824958023e-01 -2.001745344807e-02 2.344647883832e-01 
122 393 178 2 2 1.973697556901e-03 -1.865368457994e-03 -5.409576998211e-04 3.510659895841e-04 1.104883533044e-01 -1.044240484106e-01 -3.028302145462e-02 1.965281000359e-02 -1.949626671174e-03 3.303899894297e-02 4.055057797093e-02 5.234239074677e-02 
123 441 107 3 2 2.143435798782e-03 -1.065158880885e-03 -3.439143950989e-04 -1.827970588061e-03 9.497692354750e-01 -4.719782773677e-01 -1.523905275295e-01 -8.099847118724e-01 -1.340967330754e-01 -3.533038235439e-01 1.446087801981e-01 4.046198522843e-01 
124 441 457 3 3 2.435650947176e-03 9.949137568466e-04 9.381444014258e-04 -2.015546386216e-03 4.727054470722e-01 1.930905381881e-01 1.820728742797e-01 -3.911725350859e-01 1.295368427354e-01 1.466715565183e-01 1.322108428161e-01 2.361610596087e-01 
125 387 416 2 3 2.079895848698e-03 -5.505078699890e-04 1.919183755804e-03 5.827877297674e-04 1.915461675824e+00 -5.069853511481e-01 1.767455296095e+00 5.367132023505e-01 5.144393260207e-01 2.113030726811e-01 -2.098989405349e-01 5.944361815357e-01 
126 387 135 2 2 1.899904180718e-03 1.891403804308e-03 -1.793042532198e-04 8.805097243715e-06 8.202500406933e-01 8.165801534604e-01 -7.741144132040e-02 3.801445065369e-03 5.211677082967e-03 5.704184844504e-02 4.207337703563e-02 7.107111302932e-02 
127 387 68 2 1 1.654472736891e-03 -8.114385547845e-05 -1.081667816651e-03 -1.249275968814e-03 7.080109325311e-01 -3.472449893276e-02 -4.628862250066e-01 -5.346120391991e-01 2.572941638706e-01 1.707638686353e-02 -3.149729888825e-02 2.597767687601e-01 
128 387 172 2 2 1.900638268024e-03 -5.043031694725e-04 4.710417578607e-04 -1.770938678071e-03 8.112432260947e-01 -2.152500752066e-01 2.010532154914e-01 -7.558839736022e-01 5.395684832106e-02 4.876984552204e-03 -1.406787633127e-02 5.597349018541e-02 
129 429 122 3 2 2.169875562133e-03 1.153798995518e-03 1.220708234671e-03 -1.373673628956e-03 6.192251534084e-01 3.292637478713e-01 3.483578768628e-01 -3.920101587702e-01 -3.061986147533e-02 2.102884929103e-03 -2.385002945710e-02 3.886929311035e-02 
130 429 87 3 1 1.888904027915e-03 1.268405108940e-04 -6.261818527648e-04 -1.777573120504e-03 9.286572738850e-01 6.235963358872e-02 -3.078548850291e-01 -8.739227529948e-01 -2.516144665173e-01 -7.480353996694e-02 8.396679465441e-03 2.626326590095e-01 
131 485 267 3 2 2.130210323801e-03 -6.137102807485e-05 2.016822211332e-03 6.829771507307e-04 1.131957673996e+00 -3.261152451199e-02 1.071705152160e+00 3.629224862426e-01 1.245223384048e-01 5.829005803051e-02 -1.609404058018e-01 2.116727612298e-01 
132 485 8 3 1 1.926573103352e-03 -1.695296999598e-03 6.955809975648e-04 5.948269341059e-04 4.989887500634e-01 -4.390874809495e-01 1.801577588407e-01 1.540621260814e-01 5.835481069162e-03 8.963997121868e-02 -8.819201687654e-02 1.258856986323e-01 
133 485 424 3 3 2.353328515395e-03 1.780818169563e-03 -1.536336220372e-03 8.070171185990e-05 1.626656669874e+00 1.230928760861e+00 -1.061939097618e+00 5.578225777168e-02 1.341497209792e-01 1.530791059896e-01 -4.603725780987e-02 2.086834670884e-01 
134 485 456 3 3 2.416930186056e-03 -2.145117705763e-03 -1.108061206131e-03 -1.105527754437e-04 6.933335728259e-01 -6.153599850130e-01 -3.178643882180e-01 -3.171376286598e-02 -1.346944596202e-01 2.647625023809e-01 -4.013999276603e-02 2.997548984398e-01 
135 485 236 3 2 2.171927706130e-03 1.348029391308e-03 1.428534476052e-03 -9.270253349052e-04 5.955887806458e-01 3.696583358543e-01 3.917345426834e-01 -2.542100675292e-01 -1.136180834792e-01 1.043634696704e-01 -4.394379911111e-03 1.543376599211e-01 
136 485 90 3 1 1.954290170186e-03 -1.505131808545e-03 5.159978588286e-04 -1.134713407815e-03 2.450881982203e-01 -1.887590945644e-01 6.471146784401e-02 -1.423047963197e-01 -5.611205152291e-02 -5.216997798171e-02 5.070569914333e-02 9.187674817023e-02 
137 103 116 2 2 1.992533102695e-03 -1.643445173576e-03 -4.687674331918e-05 -1.125645902458e-03 1.671215801541e-02 -1.378422039429e-02 -3.931736644869e-04 -9.441234459709e-03 2.660415450835e-03 5.688118258929e-03 -4.121089396055e-03 7.511050359895e-03 
138 38 291 1 2 1.705207549667e-03 -1.164668457895e-03 3.518114273613e-04 -1.194784034963e-03 2.273297032564e-01 -1.552677473056e-01 4.690173193280e-02 -1.592826047344e-01 5.058511535180e-02 -2.364126122787e-02 -5.627138642851e-02 7.927314840591e-02 
139 267 495 2 3 2.214257617153e-03 -4.302928139731e-04 4.548528897781e-04 -2.123886470135e-03 1.844914954282e-01 -3.585190996159e-02 3.789825049487e-02 -1.769617897934e-01 3.440521866785e-02 4.327627594659e-02 2.297684396479e-03 5.533384574538e-02 
140 107 190 2 2 1.939289322626e-03 -1.506030992847e-03 6.998879807487e-04 1.001434241396e-03 3.874538372952e-01 -3.008924354175e-01 1.398317830424e-01 2.000782116936e-01 -4.878059594308e-02 1.111103274383e-01 -1.510132825406e-01 1.937267738535e-01 
141 107 356 2 2 1.855419429709e-03 -8.683448993423e-04 -1.617701472290e-03 2.675824031563e-04 1.423925466165e+00 -6.664037229477e-01 -1.241490892120e+00 2.053537825739e-01 2.152647958086e-02 -4.655545047661e-02 -2.115999081720e-01 2.177276290015e-01 
142 135 359 2 2 1.889538160269e-03 9.744798794675e-04 -1.006746741056e-03 -1.267755663761e-03 9.509129537417e-01 4.904084818348e-01 -5.066468290171e-01 -6.379999664461e-01 -8.589774512319e-02 -1.288020238964e-01 3.625729688196e-02 1.590062123134e-01 
143 135 189 2 2 1.918591964316e-03 -6.055799489578e-04 8.636247313108e-05 -1.818463520171e-03 6.016213978557e-01 -1.898943924407e-01 2.708106401661e-02 -5.702236772085e-01 -2.601847432942e-02 1.095526977501e-01 1.386748094602e-02 1.134507012695e-01 
144 87 97 1 1 1.428406327789e-03 5.583586753328e-04 -1.185182560738e-03 5.691419196223e-04 4.296996043932e-01 1.679679634795e-01 -3.565319388294e-01 1.712118274383e-01 3.514160551446e-02 -6.832435186141e-02 -1.767545969196e-01 1.927312559697e-01 
145 364 271 2 2 1.972089193553e-03 1.566892880904e-03 -1.196709534827e-03 4.322934598734e-05 1.207760776253e-01 9.596075919546e-02 -7.328972956482e-02 2.647482103611e-03 2.078449727898e-02 2.564563014899e-02 -4.341288629383e-02 5.453780678795e-02 
146 364 392 2 2 1.993127151691e-03 -2.627623578590e-04 1.573239718230e-03 -1.195168847939e-03 1.475799917797e-02 -1.945609269331e-03 1.164896602241e-02 -8.849561283857e-03 5.165461730150e-03 2.909174191027e-03 2.693794677250e-03 6.511667921705e-03 
147 334 492 2 3 2.117565865692e-03 1.651571994869e-03 1.273502536341e-03 3.668602339297e-04 1.315833687209e+00 1.026269880389e+00 7.913414006208e-01 2.279631826916e-01 -5.091969003063e-02 5.545641129359e-02 3.672693919039e-02 8.376811116811e-02 
148 334 139 2 2 1.832103016429e-03 1.556818437195e-03 -6.379244406259e-04 -7.252380467632e-04 1.781913814604e+00 1.514170467048e+00 -6.204489394052e-01 -7.053706493657e-01 -2.123202252301e-01 -8.529024540300e-02 -3.807512723423e-01 4.442137271550e-01 
149 334 354 2 2 1.887573750694e-03 -1.004214772326e-03 -4.736657953061e-04 -1.526475702299e-03 9.763913665069e-01 -5.194534165657e-01 -2.450146347799e-01 -7.896050135043e-01 1.582173686910e-01 -3.471531590993e-01 3.636060705978e-03 3.815249304640e-01 
150 284 340 2 2 1.899989374416e-03 -1.277863544640e-03 -8.195263186172e-04 1.142541464134e-03 8.192030805158e-01 -5.509661087289e-01 -3.533485470051e-01 4.926203796921e-01 9.345866900080e-02 -1.934988911855e-01 -3.426572178678e-02 2.176016621972e-01 
151 340 229 2 2 1.914850814826e-03 -5.506899226781e-04 -1.833654838209e-03 3.322930052413e-05 6.435660092144e-01 -1.850824686229e-01 -6.162766923490e-01 1.116810153654e-02 -1.684717520491e-01 5.257085010380e-02 1.089730305601e-01 2.074163612365e-01 
152 416 233 3 2 2.113513424433e-03 1.596707884532e-03 1.324348521230e-03 -4.044303661336e-04 1.376689524976e+00 1.040055385346e+00 8.626473413972e-01 -2.634357758043e-01 -3.316435693613e-01 5.017834411918e-01 3.337985164496e-01 6.878920907649e-01 
153 416 365 3 2 2.218788380659e-03 -7.074370605057e-04 1.918120509872e-03 -8.621881425648e-04 1.505481854231e-01 -4.800068663084e-02 1.301474104972e-01 -5.850078425139e-02 7.133953788179e-02 2.149161331560e-02 -1.072240296565e-02 7.527409271093e-02 
154 154 212 2 2 1.921160268147e-03 -1.762502204941e-03 -5.761384638719e-04 5.025009690853e-04 5.733767335253e-01 -5.260247017678e-01 -1.719504592877e-01 1.499731016847e-01 3.391641188133e-02 9.437695942028e-02 2.271676158596e-01 2.483192686032e-01 
155 154 422 2 3 2.183188333504e-03 -7.446943166781e-04 1.855161299656e-03 -8.775638019636e-04 4.714976838697e-01 -1.608297553244e-01 4.006545118296e-01 -1.895252432984e-01 9.942191309505e-02 1.182115327598e-01 1.655293060405e-01 2.264036979362e-01 
156 116 21 2 1 1.640030722120e-03 -2.483632213146e-04 1.437648714529e-03 7.491212541425e-04 8.744923595162e-01 -1.324315066145e-01 7.665788204863e-01 3.994442325155e-01 -7.351282130599e-02 -1.308704333382e-02 7.431239606016e-04 7.467233646276e-02 
157 90 150 1 2 1.746091021027e-03 -9.707681213795e-04 1.363586889957e-03 -4.970652892348e-04 5.860620717089e-03 -3.258308813878e-03 4.576774910699e-03 -1.668361555471e-03 1.345116929981e-03 1.621450041294e-03 1.821071402428e-03 2.784733532041e-03 
158 90 278 1 2 1.703553750000e-03 -1.687862706486e-03 -2.302735597543e-04 1.374594008759e-05 2.400352086253e-01 -2.378242992817e-01 -3.244615085173e-02 1.936839149734e-03 -7.334088044438e-03 4.904607112386e-02 -7.892659859218e-02 9.321327108015e-02 
159 90 488 1 3 1.992528097746e-03 9.436440376295e-04 -1.375252117643e-03 -1.090131076280e-03 1.619774940618e-02 7.671113731067e-03 -1.117976162901e-02 -8.861942781859e-03 -5.470684444300e-03 9.231107690515e-04 -5.900105903538e-03 8.098874702946e-03 
160 291 94 2 1 1.749339869337e-03 4.651230253661e-04 1.116381971848e-03 1.263939018569e-03 4.067166748694e-04 1.081398152514e-04 2.595557166636e-04 2.938623213708e-04 -1.903933066613e-04 7.107698096255e-05 7.284568705134e-06 2.033583373885e-04 
161 8 316 1 2 1.672061472941e-03 -1.145317775657e-03 1.191172450882e-03 -2.552350961711e-04 5.217677758756e-01 -3.573970922398e-01 3.717060708826e-01 -7.964626337592e-02 -7.289492308675e-02 -4.625760444027e-02 1.112192938141e-01 1.407947694230e-01 
162 8 456 1 3 1.988221416566e-03 -4.498207061649e-04 -1.803642203696e-03 -7.053797095496e-04 3.205882268340e-02 -7.253076613154e-03 -2.908259870395e-02 -1.137380517306e-02 4.141908060739e-03 -5.379136693522e-03 1.111305279160e-02 1.302269005621e-02 
163 236 354 2 2 1.991945400151e-03 8.350328891508e-04 -1.679590751742e-03 -6.704785290226e-04 1.872356657052e-02 7.849007250603e-03 -1.578754580778e-02 -6.302255760278e-03 6.793785930661e-03 1.554624249513e-03 4.566741589820e-03 8.332317359355e-03 
164 236 496 2 3 2.175780421434e-03 1.768276138794e-03 2.706988012510e-04 -1.238524161358e-03 5.520505205355e-01 4.486563778474e-01 6.868313211518e-02 -3.142449032255e-01 -4.888014818438e-02 4.910705684171e-02 -5.905446220358e-02 9.103955966686e-02 
165 271 12 2 1 1.708325883939e-03 1.232457539915e-03 -1.157867072081e-03 2.424243829172e-04 2.040086355135e-01 1.471803380200e-01 -1.382727287000e-01 2.895037067524e-02 -1.569409411796e-02 -1.191424574910e-02 2.288215282618e-02 3.019680049135e-02 
166 271 355 2 2 1.991650292783e-03 -2.380007836115e-04 -1.977314537384e-03 -1.592909267240e-05 1.976192144836e-02 -2.361535460027e-03 -1.961967656073e-02 -1.580545938594e-04 9.498829706845e-03 -1.126805454058e-03 -2.051598825004e-03 9.782970615804e-03 
167 271 28 2 1 1.671107414018e-03 -1.168877418661e-03 -1.231149637684e-04 -1.187926039375e-03 5.313776089668e-01 -3.716788536113e-01 -3.914801318368e-02 -3.777359211847e-01 5.947721975367e-02 1.073893381491e-01 -6.965316929340e-02 1.411438047182e-01 
168 271 214 2 2 1.938322074981e-03 7.275667126874e-04 -1.074221814409e-03 -1.440064803541e-03 3.967500475119e-01 1.489237168336e-01 -2.198796378612e-01 -2.947630770962e-01 2.024955520652e-02 5.172116808041e-03 6.372561554397e-03 2.184959539906e-02 
169 80 138 1 2 1.683930116014e-03 -2.948584940730e-04 -1.021131199008e-03 1.306127933437e-03 4.072436106188e-01 -7.130891989282e-02 -2.469515524693e-01 3.158754929819e-01 -8.659302263884e-02 -1.658388074329e-02 -3.251366515078e-02 9.397082042728e-02 
170 316 452 2 3 2.190459070087e-03 -6.240604025549e-04 -1.785053735517e-03 1.105550864052e-03 3.966655840114e-01 -1.130097738041e-01 -3.232515923990e-01 2.002018595700e-01 -1.323706825006e-01 -4.126810886509e-02 -1.413531465535e-01 1.980044606456e-01 
171 316 177 2 2 1.938384299339e-03 -1.714327271981e-03 -7.499667718914e-04 -5.059303682580e-04 3.961498027621e-01 -3.503590133785e-01 -1.532715617146e-01 -1.033975644897e-01 -3.453225504208e-03 -2.442425256259e-02 4.790646696071e-02 5.388412063198e-02 
172 27 126 1 2 1.713835704083e-03 -9.315556846412e-04 -3.710882370265e-04 1.389867025057e-03 1.649183518672e-01 -8.964139784090e-02 -3.570894240443e-02 1.337436129619e-01 1.291709830131e-02 1.524654276348e-02 1.272841840282e-02 2.369221665023e-02 
173 27 401 1 3 1.928550646470e-03 1.066719665271e-03 1.414831077381e-03 -7.613604758594e-04 4.789668424409e-01 2.649260732559e-01 3.513815802353e-01 -1.890883310475e-01 -2.321985966157e-02 3.129494754414e-02 2.562253237151e-02 4.663742906317e-02 
174 27 221 1 2 1.675691085600e-03 -1.623087439075e-03 3.208832406203e-04 -2.656345711052e-04 4.857472317458e-01 -4.704985526193e-01 9.301723162722e-02 -7.700181655149e-02 -8.085505236713e-03 4.933145072743e-03 5.536344738658e-02 5.616780769950e-02 
175 27 60 1 1 1.416947309456e-03 7.762662033286e-04 -1.170613542297e-03 1.865861568694e-04 5.368878120567e-01 2.941308125556e-01 -4.435508217515e-01 7.069834767542e-02 -2.988413211345e-02 -1.301835986510e-02 4.265361147432e-02 5.368304776700e-02 
176 27 270 1 2 1.727643481126e-03 2.166297735376e-04 -2.211078580357e-04 -1.699686692955e-03 8.015954107689e-02 1.005123071981e-02 -1.025900576263e-02 -7.886239653623e-02 3.930422846622e-02 6.663688091013e-03 4.142570712727e-03 4.007977053838e-02 
177 325 32 2 1 1.634034363215e-03 -3.210552367539e-04 1.011988259561e-03 1.242123825402e-03 9.469846410763e-01 -1.860636379426e-01 5.864854254765e-01 7.198576795266e-01 6.787452437323e-02 -1.059408496761e-01 1.038562862912e-01 1.631457719072e-01 
178 325 152 2 2 1.983550855646e-03 9.260587791758e-04 1.754079441718e-03 9.718363574654e-06 5.464335484364e-02 2.551129875623e-02 4.832181896666e-02 2.677239092699e-04 1.900292728879e-03 -1.154123418965e-03 2.723106578549e-02 2.732167742170e-02 
179 270 401 2 3 2.068672307092e-03 8.500898917334e-04 1.635938935417e-03 9.383262170954e-04 2.108129593881e+00 8.663042725900e-01 1.667142384857e+00 9.562235933606e-01 -4.759030478758e-02 -3.614786113025e-02 1.061376403726e-01 1.218060083819e-01 
180 270 352 2 2 1.895656909409e-03 8.477773352577e-04 -1.658056001553e-03 3.544559263553e-04 8.730073463410e-01 3.904271063333e-01 -7.635849413550e-01 1.632376756186e-01 1.315368359323e-01 7.294408359546e-02 2.660818070055e-02 1.527441449577e-01 
181 270 459 2 3 2.109051327203e-03 -1.495862724953e-03 -1.451903319619e-03 3.201077308512e-04 1.444749614715e+00 -1.024701043387e+00 -9.945878199204e-01 2.192813019055e-01 -1.313442960305e-01 1.250410318789e-01 -4.662663772408e-02 1.872448319675e-01 
182 352 53 2 1 1.682825878886e-03 1.125204630224e-03 4.820031446374e-04 1.154768568731e-03 4.174956454317e-01 2.791542721278e-01 1.195811263039e-01 2.864888488915e-01 -1.424124230255e-02 -1.381442632121e-01 7.153838727725e-02 1.562190490785e-01 
183 352 60 2 1 1.712171667959e-03 -2.881409054667e-04 7.085503172917e-04 1.531816923469e-03 1.764309394038e-01 -2.969151492427e-02 7.301265429979e-02 1.578462626497e-01 -4.112743712132e-02 5.123558602131e-02 -3.143553709239e-02 7.283367594322e-02 
184 352 396 2 2 1.973998100103e-03 1.171677192600e-03 1.568541027823e-03 -2.520319415964e-04 1.086000413674e-01 6.446013883147e-02 8.629371046468e-02 -1.386560568719e-02 -1.062409095631e-02 4.978192457927e-03 -1.840840461920e-02 2.182940836167e-02 
185 352 159 2 2 1.946985343874e-03 1.909497208545e-03 -2.812520654797e-04 -2.558703098893e-04 3.161668084949e-01 3.100791899411e-01 -4.567192465270e-02 -4.155023535274e-02 -2.564360589509e-02 -1.509561201585e-01 -2.544129986422e-02 1.552179257541e-01 
186 352 251 2 2 1.928702230151e-03 7.200868262010e-04 -1.762419835039e-03 -3.086155867439e-04 4.931014430844e-01 1.841009190506e-01 -4.505888728662e-01 -7.890216996838e-02 1.009268267839e-01 4.901562809319e-02 -4.442431755500e-02 1.206742563775e-01 
187 352 91 2 1 1.683184892633e-03 -1.042498654530e-03 -1.215633636583e-03 -5.182111535848e-04 4.141531472197e-01 -2.565102031486e-01 -2.991106316725e-01 -1.275075490048e-01 -3.891931340226e-02 9.714060796564e-03 5.550747525608e-02 6.848471174041e-02 
188 189 359 2 2 1.998688559695e-03 1.580059828425e-03 -1.093109214187e-03 5.507078564100e-04 1.230112890860e-03 9.724636456480e-04 -6.727650133215e-04 3.389386655474e-04 2.240655950241e-04 4.802413725839e-04 3.103627844013e-04 6.141353472616e-04 
189 189 439 2 3 2.134163587755e-03 1.856300321176e-03 1.052711219594e-03 -2.454434843094e-05 1.076387751007e+00 9.362445031720e-01 5.309459258982e-01 -1.237919912002e-02 -5.772148389936e-02 1.048560367104e-01 1.317907103372e-01 1.780318776774e-01 
190 189 172 2 2 1.877267006773e-03 -1.790127024822e-03 5.639835379494e-04 3.871974485649e-05 1.113690061122e+00 -1.061994201410e+00 3.345836572980e-01 2.297051770488e-02 2.318896768259e-02 7.009823108832e-02 5.105791338666e-02 8.976859552926e-02 
191 189 468 2 3 2.132529755409e-03 -1.593012851249e-04 -2.088332362084e-03 -4.014650716266e-04 1.099240979311e+00 -8.211397764650e-02 -1.076458841899e+00 -2.069405396922e-01 -1.847035888108e-02 -1.448580131848e-02 8.268096498060e-02 8.594844133059e-02 
192 189 358 2 2 1.916160409278e-03 2.417839802924e-04 8.557840733286e-04 -1.697305170202e-03 6.287761746372e-01 7.933991615771e-02 2.808202451828e-01 -5.569601829494e-01 -3.192851314299e-02 -9.007373235299e-02 -4.996359527879e-02 1.078381568124e-01 
193 189 109 2 2 1.992210470908e-03 -1.193441407777e-03 -4.091399947353e-04 -1.541818611675e-03 1.780693735353e-02 -1.066731487145e-02 -3.657008313862e-03 -1.378120827569e-02 7.013064336002e-03 1.975872095657e-04 -5.480879619301e-03 8.902929489082e-03 
194 93 230 1 2 1.731239513342e-03 7.871396291938e-04 1.406742792350e-03 6.314080874368e-04 6.161906623378e-02 2.801623263144e-02 5.006943096416e-02 2.247336458097e-02 -2.357598282972e-02 1.389545905240e-02 -1.567522657488e-03 2.741109038229e-02 
195 93 156 1 2 1.722708585749e-03 7.225402088317e-04 -1.562082938000e-03 -7.454805727774e-05 1.081155148303e-01 4.534592055191e-02 -9.803480544919e-02 -4.678563547462e-03 -2.624813670916e-02 -1.303078893921e-02 1.864352938783e-02 3.473251112598e-02 
196 93 390 1 2 1.732273366485e-03 -2.846081103299e-04 8.359447345475e-04 -1.490290455096e-03 5.659634139484e-02 -9.298635012008e-03 2.731174796023e-02 -4.869034472615e-02 -1.423940432405e-02 1.978896501841e-02 1.381954168194e-02 2.802398087893e-02 
197 407 408 3 3 2.363482309450e-03 1.839386116686e-04 2.112076847342e-03 1.044675358733e-03 1.460699106447e+00 1.136792793545e-01 1.305323399851e+00 6.456390034855e-01 -2.634404241698e-01 -2.645938107980e-02 9.987898282294e-02 2.829783863542e-01 
198 407 304 3 2 2.116162188132e-03 2.447255018295e-04 -1.772623094944e-03 1.129627902677e-03 1.336808936877e+00 1.545964859226e-01 -1.119790537949e+00 7.136015774751e-01 7.750811833253e-02 -2.041610169742e-01 -3.371630126245e-01 4.017065176736e-01 
199 407 23 3 1 1.956339524962e-03 -1.020909781803e-03 -7.891703129704e-04 1.470448153276e-03 2.287919202453e-01 -1.193943619682e-01 -9.229266648313e-02 1.719674178825e-01 -6.942636338146e-02 9.090301032288e-02 5.847901582961e-04 1.143840862955e-01 
200 407 300 3 2 2.210470934586e-03 -2.193636839994e-03 4.117770777158e-05 2.691534195502e-04 2.145734180622e-01 -2.129393096194e-01 3.997176061565e-03 2.612708826539e-02 5.477645758812e-04 1.011050276578e-01 -1.100367493267e-02 1.017035275974e-01 
201 407 53 3 1 1.931368101200e-03 -9.753044758266e-04 7.966477402600e-04 -1.464348421553e-03 4.509174216544e-01 -2.277047960430e-01 1.859937237142e-01 -3.418821167441e-01 -9.623201512217e-02 -1.371401492435e-01 -1.051448866869e-02 1.678647543142e-01 
202 407 389 3 2 2.132419690588e-03 1.219183782686e-03 4.672697489128e-04 -1.685960741713e-03 1.100786257975e+00 6.293605146537e-01 2.412114841374e-01 -8.703176134385e-01 1.344510410957e-02 -3.486900572830e-01 -8.691795656832e-02 3.596112596215e-01 
203 459 390 3 2 2.192386592593e-03 -3.000935274860e-04 -4.062474032090e-04 2.133416483842e-03 3.775604065153e-01 -5.168040828794e-02 -6.996162776198e-02 3.674049082526e-01 -1.807644206350e-01 5.133836960488e-02 -1.565102433705e-02 1.885639374960e-01 
204 459 91 3 1 1.987100564969e-03 1.301141405681e-03 -1.421786318516e-03 -4.838629580807e-04 3.674210426325e-02 2.405850716947e-02 -2.628926893583e-02 -8.946775804075e-03 -1.210284449249e-02 -1.199269880043e-02 2.694033427787e-03 1.724997059236e-02 
205 459 400 3 2 2.213720293695e-03 -1.835832677713e-04 -2.183690392856e-03 -3.136096150603e-04 1.886673506539e-01 -1.564613598812e-02 -1.861080111349e-01 -2.672780991417e-02 -8.859252555610e-02 4.083941688849e-03 2.342415773697e-02 9.172788741605e-02 
206 204 461 2 3 2.195079418877e-03 1.233607589056e-03 -4.030345396269e-04 1.770352826774e-03 3.514016459279e-01 1.974833955873e-01 -6.452021706948e-02 2.834088333441e-01 4.317717525524e-02 -5.404793586726e-02 -4.239091491594e-02 8.113222234072e-02 
207 204 258 2 2 1.920628661715e-03 -1.318338753314e-04 -1.762006853303e-03 7.528387174080e-04 5.791858052005e-01 -3.975589386881e-02 -5.313517279223e-01 2.270264457778e-01 -2.637416687441e-01 5.909878846553e-02 9.213445373310e-02 2.855540092429e-01 
208 204 262 2 2 1.891600532617e-03 6.163978939405e-04 1.020403181814e-03 -1.468667272694e-03 9.244066836898e-01 3.012276234575e-01 4.986610571646e-01 -7.177233351258e-01 -9.212285397149e-02 9.201653666542e-02 2.526755670051e-02 1.326352617721e-01 
209 204 298 2 2 1.974704214116e-03 -1.272696457421e-03 5.237258178690e-04 -1.416125604673e-03 1.042064514923e-01 -6.716103642591e-02 2.763735887375e-02 -7.472988768419e-02 -8.535264814014e-03 -3.243945253387e-02 -4.326295274061e-03 3.382137869663e-02 
210 204 381 2 2 1.924816538265e-03 2.049436701189e-04 -1.250508262851e-03 -1.448842946146e-03 5.339564472007e-01 5.685268793025e-02 -3.468990087903e-01 -4.019183214070e-01 1.113760509030e-01 4.946752041324e-02 -2.694130958943e-02 1.248098331582e-01 
211 461 439 3 3 2.431706492109e-03 -4.184567734437e-04 -5.647661560101e-04 2.327902399490e-03 5.168285459055e-01 -8.893770956529e-02 -1.200339235572e-01 4.947662952097e-01 -9.061861975166e-02 -2.324170280965e-02 -2.192793926546e-02 9.608717664505e-02 
212 461 48 3 1 1.954521534866e-03 1.052322579853e-03 -1.568141149208e-03 5.036913284421e-04 2.432297446897e-01 1.309559131803e-01 -1.951467735480e-01 6.268169013946e-02 5.665334295600e-02 5.469014747439e-02 5.190535790739e-02 9.431213961286e-02 
213 461 144 3 2 2.221296008496e-03 1.482108468930e-03 -1.194570798774e-03 -1.144775545862e-03 1.327744601952e-01 8.859069262278e-02 -7.140358257768e-02 -6.842714999041e-02 1.958001709424e-02 2.617900696648e-02 -1.968043521865e-03 3.275043008062e-02 
214 461 258 3 2 2.178662687239e-03 -1.365441464388e-03 -1.358972313676e-03 -1.017514109366e-03 5.202070376081e-01 -3.260313142447e-01 -3.244866521237e-01 -2.429554623845e-01 -6.635599840943e-02 -2.211607329501e-02 1.185834789525e-01 1.376745463162e-01 
215 344 258 2 2 1.911905919153e-03 -1.349537316297e-03 9.100873696651e-04 1.002932826858e-03 6.772397576360e-01 -4.780362442805e-01 3.223732629756e-01 3.552611965801e-01 -5.566615167555e-02 1.604984200291e-01 -2.205443156190e-01 2.783850901647e-01 
216 344 274 2 2 1.928345569195e-03 9.451497122549e-04 -6.830773502891e-04 1.535777975223e-03 4.968061103018e-01 2.435020774800e-01 -1.759834994586e-01 3.956676097616e-01 1.290477103819e-01 2.117380137172e-01 1.475736427825e-02 2.484030551506e-01 
217 344 86 2 1 1.591995722063e-03 4.335445996652e-04 1.465652341662e-03 -4.453680192270e-04 1.506094520152e+00 4.101513193458e-01 1.386568399420e+00 -4.213367686311e-01 -2.698729066490e-01 1.028044436087e-01 7.560855446670e-02 2.985243589348e-01 
218 344 389 2 2 1.820650800831e-03 3.331105667916e-04 -1.788162002322e-03 7.926753627974e-05 1.967304190231e+00 3.599426169808e-01 -1.932198419584e+00 8.565253490743e-02 -3.390684359081e-01 -7.580061095904e-02 -2.850661732230e-01 4.494172448482e-01 
219 389 274 2 2 1.928011063892e-03 6.120391454632e-04 1.105084652033e-03 1.456510438943e-03 5.002890456756e-01 1.588146902964e-01 2.867523720743e-01 3.779419273894e-01 -1.300389521935e-01 -1.042873973190e-01 1.337685787715e-01 2.137288539101e-01 
220 389 425 2 3 2.197077439365e-03 1.587670766879e-03 -8.399491697955e-04 1.265281076570e-03 3.324010332784e-01 2.402024589397e-01 -1.270778930860e-01 1.914273615048e-01 -1.331792161032e-02 -2.860875947565e-02 -2.280464796452e-03 3.163903719209e-02 
221 389 32 2 1 1.603227558929e-03 -2.363486258282e-04 -1.585337904431e-03 -3.437530437128e-05 1.348390662478e+00 -1.987804403570e-01 -1.333344611813e+00 -2.891126663582e-02 4.137429245598e-03 -4.551206837579e-03 1.814478446935e-01 1.815520645665e-01 
222 389 36 2 1 1.694822047965e-03 2.175920443725e-04 8.244562113508e-04 -1.464700458134e-03 3.108116708933e-01 3.990398104965e-02 1.511961759856e-01 -2.686099093988e-01 -1.887117292769e-02 -7.150286978969e-02 -4.305126133830e-02 8.556981160811e-02 
223 389 152 2 2 1.826867597300e-03 1.010765390101e-03 -8.432467222745e-04 -1.266780766199e-03 1.865906550447e+00 1.032364778456e+00 -8.612663474134e-01 -1.293851033936e+00 2.949247290094e-01 4.198927025517e-01 -4.418557493934e-02 5.150173224953e-01 
224 389 159 2 2 1.894910407941e-03 -1.410195680192e-03 -4.338772187700e-04 -1.189026558461e-03 8.823927136343e-01 -6.566782196060e-01 -2.020412653021e-01 -5.536875870788e-01 -8.898156528777e-02 -2.406384902227e-01 1.933421724097e-01 3.212565914807e-01 
225 109 172 2 2 1.949642180484e-03 -5.966856170455e-04 9.731235326848e-04 1.580538356532e-03 2.927000061491e-01 -8.958048072951e-02 1.460951485621e-01 2.372864063501e-01 -5.225142866679e-02 -1.007942804572e-01 4.233216488667e-02 1.211681103038e-01 
226 109 358 2 2 1.919395968113e-03 1.435225388069e-03 1.264924068064e-03 -1.554865585271e-04 5.927308142241e-01 4.432135562427e-01 3.906226152659e-01 -4.801597792625e-02 1.074080492917e-01 -1.253299463203e-01 -2.815745868102e-02 1.674423093984e-01 
227 109 126 2 2 1.923472254146e-03 -1.530250761076e-03 -6.751538460530e-04 -9.498659931052e-04 5.483410233488e-01 -4.362419403242e-01 -1.924719995646e-01 -2.707865889829e-01 2.379798873193e-02 -1.215809460508e-01 4.807936418890e-02 1.328905413154e-01 
228 274 48 2 1 1.705124224694e-03 1.230770156898e-04 1.383995884422e-03 9.883602894442e-04 2.279643369229e-01 1.645461947337e-02 1.850315065185e-01 1.321375268505e-01 1.039533635787e-01 2.007465826894e-02 -4.105538699739e-02 1.135554424299e-01 
229 274 408 2 3 2.151334966891e-03 -1.647284316481e-03 5.397224463956e-04 1.274125661503e-03 8.461473546805e-01 -6.478978347157e-01 2.122796901960e-01 5.011297982896e-01 3.589713202561e-02 4.470036598572e-02 2.747530549025e-02 6.357373057092e-02 
230 274 292 2 2 1.974920824815e-03 1.826341028222e-03 4.737960997678e-05 -7.500305896974e-04 1.028708262137e-01 9.513151522861e-02 2.467936720679e-03 -3.906803021076e-02 -1.905254063531e-02 8.914851891620e-03 -4.583020335762e-02 5.042699107334e-02 
231 396 401 2 3 2.245737604181e-03 -1.169364636125e-03 1.725453909146e-03 8.359022323365e-04 7.597695369878e-03 -3.956150649588e-03 5.837491055078e-03 2.827993131731e-03 2.905208435892e-03 2.196839713316e-03 -4.705067770204e-04 3.672562784923e-03 
232 396 381 2 2 1.967203041704e-03 8.021453584982e-04 1.793832087907e-03 -9.282818280736e-05 1.538412188979e-01 6.273018954760e-02 1.402830867234e-01 -7.259444240589e-03 1.260985542600e-06 2.787628628512e-03 5.387964107921e-02 5.395170616195e-02 
233 396 159 2 2 1.991513895766e-03 7.378200159445e-04 -1.849793093303e-03 -3.838368292833e-06 2.024813039917e-02 7.501567488794e-03 -1.880722592210e-02 -3.902547799367e-05 -8.395318523117e-03 -3.339130664057e-03 -4.567880194203e-03 1.012406519955e-02 
234 354 424 2 3 2.151771088094e-03 -4.022441108958e-04 -1.285279944682e-03 1.678205575788e-03 8.405432772297e-01 -1.571280444697e-01 -5.020670752749e-01 6.555550552487e-01 -2.801549153433e-01 1.484862429618e-01 4.657100797754e-02 3.204743355152e-01 
235 354 496 2 3 2.235452559088e-03 9.332432496431e-04 1.950289552993e-03 -5.680456323352e-04 4.790503227842e-02 1.999910390226e-02 4.179408040156e-02 -1.217303594389e-02 -5.982294903682e-03 -3.602366831306e-03 -2.219644693044e-02 2.326901707073e-02 
236 354 299 2 2 1.892473640432e-03 1.183227794372e-03 -6.325905519067e-04 -1.334637651198e-03 9.132606720790e-01 5.709962810705e-01 -3.052724541268e-01 -6.440629091332e-01 -1.824253840260e-01 2.404749493628e-01 -2.757100141113e-01 4.088070863981e-01 
237 400 217 2 2 1.823864887727e-03 -1.201607062923e-03 -4.519108650157e-04 1.295530842975e-03 1.914658249149e+00 -1.261423963333e+00 -4.744073266635e-01 1.360023339569e+00 1.568960550675e-01 6.389614057005e-02 1.678097971925e-01 2.384517077089e-01 
238 400 91 2 1 1.677465759788e-03 1.484724673452e-03 7.619040743399e-04 -1.702533430204e-04 4.684503415124e-01 4.146253217224e-01 2.127699011092e-01 -4.754507578837e-02 -1.152831162622e-02 1.753120819401e-02 -2.208044601251e-02 3.045966719786e-02 
239 400 209 2 2 1.950968299503e-03 1.719130921650e-03 -9.214516844864e-04 4.234351249915e-05 2.812145485320e-01 2.477972738575e-01 -1.328189799459e-01 6.103436818394e-03 3.517053539392e-02 6.150920031125e-02 -8.938792445920e-02 1.140637949656e-01 
240 326 304 2 2 1.844603082501e-03 -1.039187984781e-03 2.208575395467e-04 1.507935944093e-03 1.586667617297e+00 -8.938757282673e-01 1.899744770888e-01 1.297077487372e+00 1.783115746291e-01 -4.534078295324e-02 1.295234723758e-01 2.250047424874e-01 
241 326 32 2 1 1.630347918176e-03 -3.010783297523e-04 8.754124789720e-04 -1.342028004668e-03 9.924973295313e-01 -1.832856870166e-01 5.329197148241e-01 -8.169785086607e-01 1.577670337799e-01 2.954266108741e-02 -1.612352403034e-02 1.613169978613e-01 
242 326 330 2 2 1.962834148265e-03 -1.739888005620e-03 1.332675480847e-04 -8.987476743353e-04 1.855831209904e-01 -1.645038866590e-01 1.260025332357e-02 -8.497528868314e-02 4.152808150253e-02 3.510415811979e-02 -7.518902997443e-02 9.279156049488e-02 
243 326 137 2 2 1.894080943759e-03 1.471141305108e-03 -3.908800139337e-04 -1.127164006090e-03 8.928602921941e-01 6.934886599570e-01 -1.842588853468e-01 -5.313394800490e-01 -2.109572577643e-02 2.019014153950e-01 -9.754926615321e-02 2.252222691289e-01 
244 326 295 2 2 1.963613941569e-03 -5.555478768285e-04 -1.401746749110e-03 -1.257876114502e-03 1.797731633790e-01 -5.086162667297e-02 -1.283329894991e-01 -1.151613173322e-01 1.090459868761e-02 -5.235835269056e-02 5.353080741713e-02 7.566937763546e-02 
245 230 495 2 3 2.181156870499e-03 3.897697595761e-04 -6.023089429365e-04 2.059793379323e-03 4.931647280355e-01 8.812786465644e-02 -1.361834767843e-01 4.657241555904e-01 -2.783029993432e-02 -4.345593482356e-02 -7.440789429765e-03 5.213740704294e-02 
246 230 468 2 3 2.228145197359e-03 2.140413938464e-03 1.333337647399e-04 6.045504939389e-04 8.821073685824e-02 8.473751662027e-02 5.278592099711e-03 2.393373852009e-02 6.416844875662e-03 -1.385054229676e-02 -1.966412958938e-02 2.489360184025e-02 
247 230 170 2 2 1.977775530342e-03 9.602218774067e-04 -1.706247727506e-03 2.798011560849e-04 8.581623670405e-02 4.166429741686e-02 -7.403456894532e-02 1.214065088393e-02 -2.057431993678e-02 -8.191273133173e-03 2.065599381139e-02 3.028315830193e-02 
248 230 126 2 2 1.918484991142e-03 -4.239769452638e-04 1.137372286035e-03 -1.485669039215e-03 6.028076060020e-01 -1.332178925321e-01 3.573740050318e-01 -4.668124071731e-01 -3.488376427690e-02 -2.297190128438e-02 -7.631371276131e-03 4.245966422735e-02 
249 359 123 2 2 1.905243894492e-03 1.650844245132e-03 -6.971795480964e-04 6.469994231291e-04 7.554977162001e-01 6.546191070891e-01 -2.764567612006e-01 2.565585371879e-01 9.765679697292e-02 1.781390137066e-01 -5.721996473312e-02 2.110556385492e-01 
250 359 439 2 3 2.238698113422e-03 2.762404927511e-04 2.145820433780e-03 -5.752522048409e-04 3.280404527136e-02 4.047801521634e-03 3.144309196131e-02 -8.429273807358e-03 1.246477322395e-02 -4.228240441910e-03 -9.786611148883e-03 1.640202263560e-02 
251 359 468 2 3 2.218666149362e-03 -1.739361113550e-03 -9.952231478970e-04 -9.521729280366e-04 1.514334367257e-01 -1.187188217604e-01 -6.792822869647e-02 -6.498986739901e-02 1.321452843404e-02 -2.119738653716e-02 -1.983575744463e-03 2.505768406046e-02 
252 359 408 2 3 2.134752959182e-03 -2.334148612217e-05 2.981720025556e-04 -2.113697903830e-03 1.068183292126e+00 -1.167956478610e-02 1.491986929633e-01 -1.057647806862e+00 -4.381458539654e-02 -8.183228097419e-02 -1.105995204912e-02 9.348027942961e-02 
253 126 43 2 1 1.733006833909e-03 -1.351990511596e-03 1.036695226515e-03 3.173284579907e-04 5.312028992708e-02 -4.144134145891e-02 3.177688046058e-02 9.726782007295e-03 5.377467406089e-04 1.615154120265e-03 -2.985531401171e-03 3.436756048459e-03 
254 126 55 2 1 1.691171901590e-03 -1.641746776370e-03 -3.736771629082e-04 -1.584149643336e-04 3.421575880688e-01 -3.321579058253e-01 -7.560229486837e-02 -3.205048644638e-02 -6.666318252957e-03 6.485789873828e-02 -8.390311583577e-02 1.062577981832e-01 
255 126 390 2 2 1.934421478001e-03 -6.477707942599e-04 -1.708170343837e-03 -6.360295033184e-04 4.349755003834e-01 -1.456582386885e-01 -3.841004964536e-01 -1.430180829828e-01 2.008787295210e-02 -4.864758153949e-02 1.101930308584e-01 1.221172136889e-01 
256 126 221 2 2 1.922947276491e-03 -6.915317544336e-04 6.919714776468e-04 -1.655501596162e-03 5.539930865792e-01 -1.992274129353e-01 1.993540953582e-01 -4.769431020327e-01 4.725568536870e-02 2.106331091808e-01 6.830153294331e-02 2.264166643276e-01 
257 159 251 2 2 1.900351831488e-03 -1.189410382344e-03 -1.481167769559e-03 -5.274527685466e-05 8.147536904864e-01 -5.099458334296e-01 -6.350334114357e-01 -2.261392246477e-02 1.050759419016e-02 2.394386648625e-03 -3.041851496804e-01 3.043759975904e-01 
258 48 234 1 2 1.723671187174e-03 1.379543106979e-03 -1.021341635320e-03 1.573672184474e-04 1.024462032687e-01 8.199298950235e-02 -6.070332529621e-02 9.353102940307e-03 2.486491217326e-02 2.822872764757e-02 -3.476609295060e-02 5.122310163426e-02 
259 48 408 1 3 1.982079396106e-03 -1.770361332170e-03 -8.442734380269e-04 2.857653720587e-04 6.016403452002e-02 -5.373754477790e-02 -2.562707446007e-02 8.674121603271e-03 8.976822638130e-03 -1.022899644045e-02 2.539198378925e-02 2.880917481652e-02 
260 48 144 1 2 1.744050960508e-03 4.297858890766e-04 3.735703504343e-04 -1.648466874304e-03 1.100320605517e-02 2.711516351411e-03 2.356852887332e-03 -1.040016668308e-02 -3.091029427241e-03 -2.801747262458e-03 -1.440811807825e-03 4.413636744039e-03 
261 495 146 3 2 2.090399257768e-03 1.472828904285e-03 1.132565544869e-03 9.580393322589e-04 1.740818368596e+00 1.226525316085e+00 9.431647551637e-01 7.978248467304e-01 -2.750184800935e-01 7.695183776534e-02 3.318257985733e-01 4.377957404169e-01 
262 495 68 3 1 1.976462201821e-03 5.429777531845e-04 1.835249033198e-03 -4.933953596444e-04 9.056424219147e-02 2.487999451681e-02 8.409365874596e-02 -2.260806040501e-02 -4.164988977897e-02 8.087996978405e-03 -1.575100937033e-02 4.525730117790e-02 
263 495 150 3 2 2.079469874047e-03 -1.984236087877e-03 -5.920903523241e-04 -1.908693776460e-04 1.922661240969e+00 -1.834608842718e+00 -5.474420119152e-01 -1.764763024788e-01 1.600161058400e-02 -1.516363632747e-01 3.040375330183e-01 3.401300629058e-01 
264 495 236 3 2 2.176393876583e-03 1.839693233356e-03 -1.043140625058e-03 5.138839844989e-04 5.452203131902e-01 4.608715966613e-01 -2.613228535583e-01 1.287358827768e-01 -1.380548136902e-01 -1.603115424763e-01 1.688144145204e-01 2.706607263421e-01 
265 495 468 3 3 2.392416579506e-03 1.750644178888e-03 7.356427076763e-04 -1.455242885385e-03 1.021869366301e+00 7.477500670342e-01 3.142139851216e-01 -6.215757480704e-01 -4.695668189701e-02 -3.346684274975e-02 -7.340635834830e-02 9.334587823986e-02 
266 495 170 3 2 2.170822142324e-03 5.704521178307e-04 -1.103938784570e-03 -1.779992223239e-03 6.082844502583e-01 1.598459616419e-01 -3.093338618575e-01 -4.987702906962e-01 -2.407349600647e-01 -6.146363737977e-02 -3.903144840176e-02 2.515045798423e-01 
267 258 358 2 2 1.897397630616e-03 -6.675316499398e-04 5.972790114010e-04 1.672655687085e-03 8.512525740374e-01 -2.994828422328e-01 2.679645466346e-01 7.504238627339e-01 -9.334786372526e-02 -3.669311182601e-01 9.377160127105e-02 3.900581782435e-01 
268 258 408 2 3 2.189523784532e-03 6.474027120709e-04 -1.053442273559e-03 1.806970809867e-03 4.060485820962e-01 1.200612458009e-01 -1.953615414094e-01 3.351038889915e-01 1.318695865410e-01 -1.080558524748e-01 -1.102415876471e-01 2.030242910479e-01 
269 258 50 2 1 1.749999301314e-03 -9.366894530025e-04 -1.386488156684e-03 5.126021991814e-04 1.373807828675e-08 -7.353324670508e-09 -1.088439453998e-08 4.024098259370e-09 4.821383690659e-09 -1.541868875507e-09 4.639770022152e-09 6.866626987122e-09 
270 258 401 2 3 2.118752170610e-03 -1.634732449173e-03 4.431204116915e-04 -1.272951248410e-03 1.298193093151e+00 -1.001626525322e+00 2.715069114131e-01 -7.799574398207e-01 -8.706087820051e-02 -2.051069015293e-01 4.040546576414e-02 2.264531722710e-01 
271 468 68 3 1 1.895453225398e-03 -1.207666425703e-03 1.099606325521e-03 9.618475257401e-04 8.477620131495e-01 -5.401419072489e-01 4.918108554224e-01 4.301967380879e-01 2.233914193352e-01 1.693154991009e-01 8.691806228258e-02 2.934726801925e-01 
272 468 170 3 2 2.209609807191e-03 -1.180192061057e-03 -1.839581492246e-03 -3.247493378540e-04 2.216230877083e-01 -1.183728492737e-01 -1.845093776629e-01 -3.257224454390e-02 6.899588931255e-02 -3.029332566440e-02 -7.914214617961e-02 1.092776172130e-01 
273 468 408 3 3 2.442690043031e-03 1.716019627428e-03 1.293395150453e-03 -1.161524975793e-03 3.973035896562e-01 2.791106304473e-01 2.103707498972e-01 -1.889220630651e-01 6.798057962685e-02 -3.180997635123e-02 6.501206716265e-02 9.929653910701e-02 
274 468 23 3 1 1.840601909226e-03 5.111712339560e-04 -1.607852009860e-03 -7.357521812501e-04 1.595999189232e+00 4.432402633415e-01 -1.394180072985e+00 -6.379760223352e-01 1.402557672374e-01 1.194170885997e-01 -1.635201300613e-01 2.463147462663e-01 
275 468 300 3 2 2.189593412598e-03 -6.615558242344e-04 -7.775039891176e-04 -1.937046914976e-03 4.053475545932e-01 -1.224702422091e-01 -1.439350972021e-01 -3.585949910154e-01 1.438695653818e-01 -1.140813960806e-01 -3.344786518897e-03 1.836415104809e-01 
276 209 453 2 3 2.183977400479e-03 -2.804986414745e-04 1.268145259850e-03 1.755814739046e-03 4.631695854947e-01 -5.948708053257e-02 2.689434030879e-01 3.723664836053e-01 -2.034645452612e-02 -6.880994639199e-02 4.644786988204e-02 8.547626308416e-02 
277 209 251 2 2 1.904502859026e-03 1.528179232533e-03 1.136569560370e-03 -3.001288678662e-06 7.643775230031e-01 6.133389881418e-01 4.561653563077e-01 -1.204575564243e-03 8.620127148935e-02 -1.160741037203e-01 -6.507209100783e-02 1.585504140297e-01 
278 209 91 2 1 1.712842760718e-03 -2.344062481983e-04 1.683355758826e-03 -2.125968555195e-04 1.717568704782e-01 -2.350530038974e-02 1.688000344621e-01 -2.131834364190e-02 -2.961986301733e-02 -6.271085323632e-03 -1.699642551147e-02 3.472090546729e-02 
279 209 104 2 2 1.903033050454e-03 -1.364286597225e-03 -1.326346613693e-03 -3.258116169253e-05 7.820922016188e-01 -5.606828048564e-01 -5.450905558184e-01 -1.338992639846e-02 3.430670667459e-02 -3.639970527243e-02 4.525454793642e-02 6.745267063435e-02 
280 300 170 2 2 1.999123719531e-03 -5.186362368229e-04 -1.062077503129e-03 1.612297577122e-03 6.718733300269e-04 -1.743052979175e-04 -3.569471673024e-04 5.418672849269e-04 1.680812641061e-04 -2.647930617723e-04 -1.203609819975e-04 3.359366650035e-04 
281 300 343 2 2 1.945099596705e-03 4.473556689720e-04 -1.887541070236e-03 1.430875770767e-04 3.331851653225e-01 7.662963520064e-02 -3.233256973601e-01 2.451013722108e-02 -3.981215906842e-03 -4.521144058281e-03 -4.719365402294e-02 4.757658881982e-02 
282 300 60 2 1 1.685928227694e-03 -1.950131715236e-04 9.820172051427e-04 -1.356453486365e-03 3.889099573713e-01 -4.498564231752e-02 2.265317485740e-01 -3.129067174348e-01 -8.941828990531e-02 7.549873942666e-02 6.751341369544e-02 1.351064441595e-01 
283 300 453 2 3 2.213925345887e-03 -9.954633138630e-04 -1.357377247708e-03 -1.438069968853e-03 1.870700995359e-01 -8.411368592650e-02 -1.146943357003e-01 -1.215126303661e-01 -4.511680212054e-02 -1.178184694386e-02 4.235157792109e-02 6.299201460026e-02 
284 439 455 3 3 2.401828144089e-03 1.020747799787e-03 2.036380815866e-03 7.615809449687e-04 8.907541514484e-01 3.785596994024e-01 7.552225042107e-01 2.824437668717e-01 -1.473794376042e-02 -2.267450117584e-02 8.038231956567e-02 8.480953536376e-02 
285 439 168 3 2 2.182895253780e-03 -6.363298644391e-04 1.135748767448e-03 1.752195973583e-03 4.746035100847e-01 -1.383503797131e-01 2.469336770381e-01 3.809611835376e-01 2.106997249550e-01 6.277289731309e-02 3.582948919624e-02 2.227522458456e-01 
286 439 398 3 2 2.199619195887e-03 1.793493668632e-03 1.915657661497e-05 1.273317750234e-03 3.087441622570e-01 2.517393470972e-01 2.688865968146e-03 1.787261280580e-01 5.344629363341e-02 -1.090006149839e-03 -7.526378113691e-02 9.231647289396e-02 
287 439 134 3 2 2.248633470156e-03 1.746855511879e-03 -1.410846464207e-03 -1.198355463114e-04 1.379204719987e-03 1.071438008504e-03 -8.653460550313e-04 -7.350141910118e-05 -1.241211022214e-05 -1.413499228902e-05 -1.451872435877e-05 2.376240400682e-05 
288 439 408 3 3 2.422884490893e-03 -2.995819788733e-04 -1.847648431225e-03 -1.538445698989e-03 6.201402963925e-01 -7.667837978683e-02 -4.729079120674e-01 -3.937670885016e-01 6.060171721996e-02 -9.138709916452e-02 9.795343970706e-02 1.470341673699e-01 
289 172 68 2 1 1.691775047112e-03 4.231593139941e-04 -1.552709574512e-03 5.216627092570e-04 3.369090514767e-01 8.427018908020e-02 -3.092148160363e-01 1.038866774082e-01 2.668053423518e-02 1.716632200064e-03 -1.653306846875e-02 3.143469557953e-02 
290 172 255 2 2 1.901940183064e-03 4.785400287805e-04 1.328280694077e-03 -1.274380751011e-03 7.953512551092e-01 2.001153432162e-01 5.554589605810e-01 -5.329191416373e-01 9.497735789768e-02 -1.533066376165e-01 -1.241259955567e-01 2.189312367467e-01 
291 172 442 2 3 2.121960132705e-03 -1.690072482489e-03 8.318401529223e-04 -9.769400026145e-04 1.250889427625e+00 -9.962928933872e-01 4.903673903797e-01 -5.759033366646e-01 -9.561483133373e-02 -3.980429405403e-02 1.315179899074e-01 1.674023878725e-01 
292 496 397 3 2 2.187826196948e-03 1.302597981464e-03 1.390143199095e-03 -1.075789873881e-03 4.232648947157e-01 2.520053915848e-01 2.689422110520e-01 -2.081262617386e-01 8.025503269352e-02 -5.999715490070e-02 1.964640795321e-02 1.021102845666e-01 
293 496 304 3 2 2.108490307674e-03 -8.051867567325e-05 -1.083220260350e-03 -1.807175140375e-03 1.453384040130e+00 -5.550158695535e-02 -7.466645839481e-01 -1.245687256508e+00 1.180924651833e-01 1.719366641333e-02 -1.556748767913e-02 1.203486567039e-01 
294 496 23 3 1 1.993058126264e-03 -1.346153959306e-03 -9.976747837664e-05 -1.466354889776e-03 1.450517925770e-02 -9.797107385322e-03 -7.260928012443e-04 -1.067191179791e-02 5.336129240789e-03 -8.194785722740e-04 -4.842957352375e-03 7.252589628660e-03 
295 333 255 2 2 1.883711718232e-03 5.127130807935e-04 4.765547426036e-04 1.748825523456e-03 1.027132063625e+00 2.795672180758e-01 2.598511499732e-01 9.535826270234e-01 1.022434535267e-01 -1.688470267690e-01 1.603550212174e-02 1.980408532755e-01 
296 333 498 2 3 2.151700260917e-03 -2.120545057894e-03 1.597616288695e-04 -3.279922136483e-04 8.414525830517e-01 -8.292689036909e-01 6.247702699423e-02 -1.282659580464e-01 -1.275166364422e-02 3.678667266317e-02 1.003608462376e-01 1.076483333306e-01 
297 333 76 2 1 1.729544397703e-03 1.147283749843e-03 1.050135263256e-03 -7.564917381152e-04 7.015640942969e-02 4.653786777198e-02 4.259718315609e-02 -3.068596803869e-02 -1.201301267394e-02 2.686131328905e-02 1.906918126116e-02 3.506388881867e-02 
298 333 401 2 3 2.113725570534e-03 1.098883257895e-03 -7.140840158042e-04 -1.658425576087e-03 1.373481011012e+00 7.140450534727e-01 -4.640057581964e-01 -1.077630922711e+00 4.440211407660e-02 -1.183035821428e-01 8.036021556129e-02 1.497499566856e-01 
299 32 330 1 2 1.678526089482e-03 -1.438809675868e-03 -7.421449308874e-04 4.432803303326e-04 4.582160287420e-01 -3.927765316981e-01 -2.025960186815e-01 1.210098275250e-01 5.442575234643e-02 -9.229283570491e-02 2.213867438403e-02 1.094086420006e-01 
300 123 261 2 2 1.875340178316e-03 1.604389884419e-03 -9.202489684416e-04 3.097994823455e-04 1.140019046751e+00 9.753083988714e-01 -5.594192263924e-01 1.883270644073e-01 1.079862450565e-01 1.005725127014e-01 -2.604920048661e-01 2.993859449467e-01 
301 31 156 1 2 1.697832319220e-03 1.107774100396e-03 -4.051147384230e-04 1.221209718022e-03 2.857269806596e-01 1.864265071268e-01 -6.817646814704e-02 2.055165056835e-01 -1.074217305864e-01 -1.637033821981e-02 9.201298025808e-02 1.423861113718e-01 
302 31 453 1 3 1.941370908787e-03 1.655768321125e-03 5.621635198406e-04 -8.434005271536e-04 3.560227433162e-01 3.036468597087e-01 1.030936425492e-01 -1.546689342220e-01 1.113994244060e-02 5.850247435953e-02 6.086446359019e-02 8.515351285701e-02 
303 31 217 1 2 1.684303626357e-03 -9.844710219733e-04 -2.364409205385e-04 -1.346027935724e-03 4.037951096641e-01 -2.360171753228e-01 -5.668436850928e-02 -3.226968638025e-01 -1.577744076622e-01 -2.036493679794e-02 1.189718522723e-01 1.986499332923e-01 
304 50 60 1 1 1.499999520151e-03 -9.884964581125e-04 -7.558360513017e-04 -8.376068148626e-04 7.343060460124e-09 -4.839061052372e-09 -3.700101065427e-09 -4.100399633947e-09 -2.691009322060e-09 2.189579169018e-09 1.199954791564e-09 3.670923536470e-09 
305 43 442 1 3 1.991506991359e-03 5.954831731371e-04 1.443422305146e-03 1.236135889032e-03 1.962910316283e-02 5.869324430169e-03 1.422695750412e-02 1.218385825124e-02 3.019160737401e-03 2.770859447940e-03 -4.689921068418e-03 6.228029645602e-03 
306 43 498 1 3 1.986654691872e-03 1.308375457194e-04 1.623069732567e-03 -1.138122596469e-03 3.866347380049e-02 2.546307640548e-03 3.158752969915e-02 -2.214968377260e-02 -1.775998064718e-02 4.770278716883e-03 4.761194213804e-03 1.899582696190e-02 
307 330 295 2 2 1.971776779911e-03 1.184340128792e-03 -1.535014297195e-03 -3.591284401670e-04 1.228095644873e-01 7.376509192297e-02 -9.560637859261e-02 -2.236785004330e-02 -1.169894287706e-02 -2.214330727433e-02 5.606563975276e-02 6.140478224351e-02 
308 330 370 2 2 1.964589054526e-03 -1.463689267810e-03 -1.308369302499e-03 -7.344146472834e-05 1.725951751750e-01 -1.285895923106e-01 -1.149442568858e-01 -6.452057971459e-03 -5.301752151006e-03 9.409110158654e-03 -6.196054490823e-02 6.289474584712e-02 
309 330 251 2 2 1.936347783975e-03 -9.244477608395e-04 4.124378469894e-04 -1.650676861277e-03 4.159514470607e-01 -1.985828098834e-01 8.859674935340e-02 -3.545858005261e-01 -1.459797113656e-01 5.827214546571e-02 9.631458420298e-02 1.843426651585e-01 
310 242 221 2 2 1.908158639600e-03 6.460323967991e-04 -1.108911404303e-03 1.412100220796e-03 7.209079524596e-01 2.440729417008e-01 -4.189499936456e-01 5.334956212317e-01 -1.207669014760e-01 9.321993123547e-02 1.284554544658e-01 1.994377192351e-01 
311 242 462 2 3 2.211050970275e-03 1.533608395923e-03 1.554504003471e-03 3.468558552210e-04 2.098679211044e-01 1.455666152285e-01 1.475499786947e-01 3.292276760543e-02 -3.120247483033e-02 2.346423094992e-02 3.280076219405e-02 5.099073023716e-02 
312 498 327 3 2 2.185237370640e-03 1.266893120438e-03 1.387200304125e-03 1.116207643616e-03 4.499744023911e-01 2.608730211288e-01 2.856461436326e-01 2.298445350278e-01 7.817525058285e-02 -1.296212584353e-01 7.236195026226e-02 1.677775082894e-01 
313 498 442 3 3 2.425957978455e-03 4.646456274177e-04 -1.796474274210e-04 2.374258485500e-03 5.834380693646e-01 1.117463493626e-01 -4.320484903353e-02 5.710044441229e-01 3.085021453204e-03 -3.545946634834e-02 -3.286770851875e-03 3.574484541453e-02 
314 498 431 3 3 2.354075824867e-03 -1.942731420641e-03 -8.306033300568e-05 -1.326864197105e-03 1.614240468965e+00 -1.332172756035e+00 -5.695625836991e-02 -9.098593431705e-01 -4.723584033829e-02 4.032212837651e-02 6.663634601762e-02 9.109062114102e-02 
315 498 221 3 2 2.202145851913e-03 5.296212114429e-04 -1.967793481434e-03 -8.347074576844e-04 2.858120190763e-01 6.873845692674e-02 -2.553959028487e-01 -1.083349786353e-01 1.288958268423e-01 9.103356833221e-03 6.032345494522e-02 1.426040830395e-01 
316 23 304 1 2 1.638648982780e-03 1.265635283633e-03 -9.834527819735e-04 -3.408202505995e-04 8.910257275232e-01 6.881971741530e-01 -5.347586577425e-01 -1.853231625176e-01 -1.741318362261e-01 -1.785621620110e-01 -1.313887332800e-01 2.819030707928e-01 
317 23 343 1 2 1.662414864761e-03 -7.253713892184e-04 -1.057193049494e-03 -1.058207156649e-03 6.215764692879e-01 -2.712161666683e-01 -3.952841958944e-01 -3.956633702863e-01 1.473651511317e-01 -1.690931841776e-01 6.791645112990e-02 2.343536580416e-01 
318 170 343 2 2 1.942449095064e-03 9.659919057949e-04 -8.254635671068e-04 -1.469210000046e-03 3.576025369585e-01 1.778379454429e-01 -1.519668476843e-01 -2.704797900115e-01 1.279911902131e-01 2.691925933402e-02 6.902865210206e-02 1.478896416463e-01 
319 170 156 2 2 1.901599159051e-03 -1.024821297769e-03 -1.262578002843e-03 -9.857573007995e-04 7.995038710193e-01 -4.308734523621e-01 -5.308353213832e-01 -4.144494774956e-01 1.586211046696e-02 -1.256486492865e-02 -3.973661735422e-04 2.023957210558e-02 
320 381 86 2 1 1.631355520502e-03 1.446304370511e-03 4.406638154476e-05 7.533808174685e-04 9.799868830447e-01 8.688230702497e-01 2.647152956814e-02 4.525704604410e-01 -8.252073239554e-02 -6.888328622108e-02 1.624484327253e-01 1.947923809871e-01 
321 381 401 2 3 2.180382401837e-03 -1.971509994623e-03 -6.837817876060e-05 9.287304151438e-04 5.015100686388e-01 -4.534672963294e-01 -1.572767469355e-02 2.136174158502e-01 5.127889162872e-02 2.523859443837e-02 1.107130926374e-01 1.245949447499e-01 
322 401 76 3 1 1.981993168582e-03 4.840049194833e-05 1.764219279060e-03 9.019338379716e-04 6.059878991369e-02 1.479829138561e-03 5.394042479466e-02 2.757633075112e-02 -4.841518949777e-03 -1.088372855589e-03 2.388712098394e-03 5.507341164559e-03 
323 401 298 3 2 2.107597402872e-03 4.938698670830e-04 1.842612259481e-03 -8.960130736716e-04 1.467161642368e+00 3.437975983070e-01 1.282697551811e+00 -6.237415224367e-01 1.794900071049e-01 -1.658016917190e-03 9.552273991308e-02 2.033322539862e-01 
324 397 408 2 3 2.177874087831e-03 -1.443903547299e-03 1.411336482840e-03 -8.163378104375e-04 5.288567392478e-01 -3.506254682395e-01 3.427171545255e-01 -1.982326503469e-01 -1.435224697380e-02 -4.390089606766e-03 1.779577831668e-02 2.327981112142e-02 
325 255 200 2 2 1.915485182173e-03 -1.076949438659e-04 9.979405434657e-04 1.631441066633e-03 6.363875000401e-01 -3.577982055493e-02 3.315488386730e-01 5.420186548662e-01 -5.715273077106e-02 1.607843685473e-01 -1.021233948957e-01 1.988648676583e-01 
326 255 475 2 3 2.247761122000e-03 2.694642591427e-04 2.226336505633e-03 -1.524625800190e-04 2.892321482280e-03 3.467349167120e-04 2.864753215545e-03 -1.961822326745e-04 3.078439020009e-04 -1.295414024305e-04 -1.347542617401e-03 1.388315507604e-03 
327 255 327 2 2 1.983808626871e-03 -1.366365018249e-03 1.070407190391e-03 -9.606100934881e-04 5.336393642606e-02 -3.675486384171e-02 2.879367519846e-02 -2.584016183053e-02 -5.142162230756e-03 -5.889399037592e-03 7.516218270967e-04 7.854412059624e-03 
328 255 358 2 2 1.923634020206e-03 1.553370976334e-03 -1.036480158698e-03 -4.616441640476e-04 5.466032893468e-01 4.413925290994e-01 -2.945172824645e-01 -1.311768329764e-01 4.071864381354e-02 1.584971848464e-01 -2.188439400508e-01 2.732618444920e-01 
329 255 442 2 3 2.244505387328e-03 -2.168612511270e-03 -4.964405411551e-04 2.974407483966e-04 1.112004908533e-02 -1.074404976193e-02 -2.459536616290e-03 1.473623427603e-03 1.431051705556e-03 -4.429546194839e-03 3.040573044413e-03 5.560024542626e-03 
330 60 53 1 1 1.480214405586e-03 1.413345535691e-03 -2.265471726543e-04 -3.770483547374e-04 6.242760150085e-02 5.960742683772e-02 -9.554559503161e-03 -1.590190201316e-02 -5.836430003202e-04 -2.073588877673e-02 1.027127607396e-02 2.314771769959e-02 
331 156 488 2 3 2.237309727117e-03 3.845452510704e-04 -9.644125725113e-04 1.981814359347e-03 3.903080477415e-02 6.708552883600e-03 -1.682458105071e-02 3.457358112770e-02 -1.799289625405e-02 -7.519982745162e-03 -1.681706925226e-04 1.950186497436e-02 
332 156 470 2 3 2.187345063574e-03 -1.946988071317e-03 5.932159319351e-05 9.950863409118e-04 4.281875588065e-01 -3.811360553788e-01 1.161260223503e-02 1.947948671714e-01 5.551644427561e-03 -1.695132142262e-02 1.187290424865e-02 2.142741022897e-02 
333 156 420 2 3 2.181835878108e-03 1.046143534902e-03 -1.862318701034e-03 -4.447027762005e-04 4.858865317267e-01 2.329721767628e-01 -4.147312745631e-01 -9.903361281448e-02 1.690551514944e-02 5.235930510504e-02 -1.794999310125e-01 1.877432249298e-01 
334 156 1 2 1 1.688948983058e-03 -6.631916483748e-04 -1.239079966493e-03 -9.366997072347e-04 3.617331562993e-01 -1.420400560374e-01 -2.653817916840e-01 -2.006190506650e-01 -3.787767109014e-02 -8.157553499756e-02 1.347270265488e-01 1.619896834988e-01 
335 150 154 2 2 1.894262793032e-03 9.450917381245e-06 1.722028865205e-03 7.891506805599e-04 8.905618946424e-01 4.443220296629e-03 8.095884554491e-01 3.710084618791e-01 -1.661907841479e-01 8.833144394056e-02 -1.907603256982e-01 2.679763470622e-01 
336 150 278 2 2 1.820863500965e-03 -7.170945851067e-04 -1.593860449711e-03 5.108112293224e-04 1.963805531581e+00 -7.733881821198e-01 -1.718982211491e+00 5.509111019061e-01 1.264606924409e-01 -1.033644914025e-01 -1.449934781486e-01 2.184024576811e-01 
337 150 158 2 2 1.884571373856e-03 -1.782264413459e-03 -4.142669749540e-04 -4.511382239829e-04 1.015763598037e+00 -9.606212523348e-01 -2.232854212181e-01 -2.431586258615e-01 -5.122411448250e-02 4.548320735749e-01 -2.152931977166e-01 5.058134893812e-01 
338 343 419 2 3 2.133675229108e-03 1.350352731329e-03 -1.638814599073e-03 -2.083367326413e-04 1.083201888640e+00 6.855329287938e-01 -8.319762279793e-01 -1.057662099609e-01 -2.430393523928e-01 -1.683919005810e-01 -2.506795019438e-01 3.876392287779e-01 
339 343 453 2 3 2.205189216597e-03 -1.442818982835e-03 5.301638225273e-04 -1.581157545930e-03 2.589851712348e-01 -1.694497318044e-01 6.226430245818e-02 -1.856966988138e-01 -1.841730390099e-02 -7.916796927655e-02 -9.739167073318e-03 8.186339730084e-02 
340 408 358 3 2 2.114704161159e-03 -1.314934362011e-03 1.650721284960e-03 -1.343151227825e-04 1.358713091529e+00 -8.448550700284e-01 1.060600655891e+00 -8.629846153745e-02 2.008060118583e-01 1.559292099491e-01 -4.951832080193e-02 2.590155149964e-01 
341 358 125 2 2 1.885124837384e-03 2.407488544856e-04 1.708305051192e-03 7.598878164964e-04 1.008466701113e+00 1.287910478208e-01 9.138751584536e-01 4.065097145403e-01 -1.966182255681e-01 6.387947030202e-02 -8.131464647106e-02 2.221517163614e-01 
342 442 33 3 1 1.911817139727e-03 -1.840901846240e-03 4.366123133639e-04 2.747632728096e-04 6.567260814512e-01 -6.323660514885e-01 1.499801878069e-01 9.438361218201e-02 -4.331794171024e-03 7.207283693372e-02 -1.435501023977e-01 1.606856874858e-01 
343 442 327 3 2 2.163632310416e-03 8.022474930203e-04 1.566847731546e-03 -1.258050841885e-03 6.929917289121e-01 2.569525674613e-01 5.018470620904e-01 -4.029422299621e-01 -9.178149621535e-02 3.919548099562e-02 -9.711948357719e-03 1.002718839900e-01 
344 304 299 2 2 1.855000070304e-03 3.305032204024e-04 -1.499659844550e-03 1.040583121513e-03 1.430125158990e+00 2.548037480920e-01 -1.156173149506e+00 8.022447685682e-01 -2.527966827030e-01 2.697804678209e-01 4.690918408988e-01 5.972728177317e-01 
345 304 259 2 2 1.904642509043e-03 1.813397328210e-03 5.078186966004e-04 2.852602122176e-04 7.627014465693e-01 7.261629197419e-01 2.033526253106e-01 1.142305579520e-01 -4.090258330793e-02 1.402396155186e-01 1.036364811920e-02 1.464499104964e-01 
346 86 144 1 2 1.741047423774e-03 1.064468017356e-03 -3.911634570943e-04 1.321039409590e-03 2.031285423682e-02 1.241918133938e-02 -4.563716173511e-03 1.541260772204e-02 7.676727043896e-03 4.567172221463e-03 -4.833405797401e-03 1.015642711830e-02 
347 453 390 3 2 2.210552349342e-03 -1.555142539890e-03 1.430749414284e-03 6.488678473571e-04 2.139108494142e-01 -1.504881174911e-01 1.384508367781e-01 6.278967898090e-02 6.834385826645e-02 7.989889251320e-02 -1.237671485085e-02 1.058673654063e-01 
348 390 55 2 1 1.731177619659e-03 -9.939759821103e-04 1.334493180929e-03 4.776145389848e-04 6.192425168538e-02 -3.555453708877e-02 4.773484284331e-02 1.708427984791e-02 1.776087530597e-02 1.578274569644e-02 -7.135635031517e-03 2.480848727060e-02 
349 390 494 2 3 2.219483343517e-03 -1.830752390688e-03 -2.557830207968e-04 -1.228424618123e-03 1.455480933236e-01 -1.200561025117e-01 -1.677360232969e-02 -8.055697353255e-02 -2.149998624578e-02 6.512735495769e-02 1.848113371733e-02 7.103079667181e-02 
350 365 421 2 3 2.131931534788e-03 1.247461111699e-03 8.216359174640e-04 1.521146693438e-03 1.107648543668e+00 6.481204771864e-01 4.268822954929e-01 7.903142723852e-01 -2.910996963891e-02 -5.986861636653e-02 5.621006902714e-02 8.712756979313e-02 
351 365 88 2 1 1.693810512644e-03 -6.369715952418e-04 -6.519664568360e-04 1.427655763396e-03 3.193975339400e-01 -1.201121112376e-01 -1.229396540939e-01 2.692094108167e-01 -1.288367259318e-01 9.317636834787e-02 -1.493179842893e-02 1.596987669697e-01 
352 365 435 2 3 2.159126742692e-03 -1.414843348456e-03 -2.088905842610e-05 -1.630831149315e-03 7.479201763375e-01 -4.901008661249e-01 -7.235956997175e-03 -5.649189075634e-01 -5.767638926366e-02 -9.694542170560e-02 5.127946837248e-02 1.239135365678e-01 
353 365 200 2 2 1.906094627452e-03 1.124486845937e-03 -1.040041270272e-03 -1.134477949652e-03 7.453461518222e-01 4.397116131187e-01 -4.066905951936e-01 -4.436184656952e-01 -5.465956737650e-02 7.298311198992e-02 -1.210860140850e-01 1.515784475066e-01 
354 324 202 2 2 1.920963788199e-03 3.885557818013e-04 2.982213925673e-04 1.857468783322e-03 5.755215564196e-01 1.164114751522e-01 8.934725425972e-02 5.564984263345e-01 1.664744339437e-01 -5.520973606635e-02 -2.595999450965e-02 1.773013633008e-01 
355 324 424 2 3 2.157096173206e-03 -1.677263747875e-03 2.035935171713e-04 1.341044331964e-03 7.731281921251e-01 -6.011507067781e-01 7.297026892642e-02 4.806457833494e-01 -1.619506980669e-01 -7.157264254512e-02 -1.916881513231e-01 2.609502234582e-01 
356 324 139 2 2 1.903628702465e-03 1.286013572542e-03 1.324614816533e-03 4.640764117117e-04 7.748968981775e-01 5.234886021032e-01 5.392017420637e-01 1.889083577523e-01 -2.831577206334e-01 2.464233878659e-01 8.129825220315e-02 3.840731527364e-01 
357 324 354 2 2 1.988993957866e-03 -1.275019636979e-03 1.488873461853e-03 -3.371612438240e-04 2.990675265548e-02 -1.917134879329e-02 2.238688065534e-02 -5.069597061458e-03 5.263593003511e-03 6.440140348439e-03 8.534105463696e-03 1.191686934894e-02 
358 324 143 2 2 1.872189835998e-03 2.759252447171e-04 -1.835646354931e-03 2.436442097976e-04 1.183505917085e+00 1.744263073737e-01 -1.160404933818e+00 1.540198319714e-01 -2.012667416792e-01 1.701974995119e-02 3.561620322645e-01 4.094500780575e-01 
359 324 299 2 2 1.880573771388e-03 -9.179184260682e-05 8.562829099462e-04 -1.671798895022e-03 1.068985838935e+00 -5.217778816732e-02 4.867420352138e-01 -9.503106825781e-01 1.658948930571e-02 2.630334332296e-01 1.338128973327e-01 2.955802592268e-01 
360 362 478 2 3 2.179342665946e-03 1.155468797879e-03 8.181186420538e-04 1.656836805561e-03 5.127869467442e-01 2.718752430176e-01 1.924986681024e-01 3.898442865608e-01 -8.927175894109e-03 1.549601663324e-01 -7.029100708403e-02 1.703912359721e-01 
361 362 269 2 2 1.951713574802e-03 -1.153983193974e-03 -8.939970499906e-04 1.295483670566e-03 2.748273445106e-01 -1.624962499130e-01 -1.258867276537e-01 1.824214073392e-01 -9.866117786367e-02 -1.037599360826e-02 -9.504515698918e-02 1.373873033723e-01 
362 362 294 2 2 1.995448068988e-03 -1.257308666965e-03 -1.458102471215e-03 -5.243330005246e-04 7.954549104618e-03 -5.012069061817e-03 -5.812502909548e-03 -2.090173462625e-03 2.167975404871e-03 -8.174034420106e-04 -2.925538323203e-03 3.731894990975e-03 
363 362 167 2 2 1.935049997377e-03 4.604001639993e-04 -1.181678566358e-03 -1.461535475843e-03 4.287371428528e-01 1.020080365621e-01 -2.618172620850e-01 -3.238234386400e-01 -1.009545775709e-01 5.725106998208e-02 -7.809038390947e-02 1.398843086473e-01 
364 21 360 1 2 1.585711985123e-03 9.041217362109e-04 -9.298189585303e-05 1.299384759383e-03 1.596826688571e+00 9.104589809777e-01 -9.363363223907e-02 1.308492514386e+00 1.138422817268e-01 1.620186642251e-01 -6.761852342664e-02 2.092423890526e-01 
365 21 10 1 1 1.383566102548e-03 -1.370939283526e-03 -1.565804004485e-04 -1.013075475889e-04 8.911937654630e-01 -8.830604768774e-01 -1.008578313797e-01 -6.525503525949e-02 -4.588759480141e-03 8.076510292042e-02 -6.273295194250e-02 1.023693402476e-01 
366 21 117 1 2 1.625723253215e-03 -6.383013696628e-04 9.234356685738e-04 -1.175931130440e-03 1.050591235220e+00 -4.124895323176e-01 5.967518873672e-01 -7.599220448000e-01 6.989319105100e-02 1.084475966422e-01 4.722339424284e-02 1.373899135183e-01 
367 195 456 2 3 2.103121041019e-03 5.970807686538e-04 2.016315016879e-03 3.296091000195e-05 1.536881851897e+00 4.363241960701e-01 1.473447270371e+00 2.408659483501e-02 -4.958577771055e-02 1.697406252338e-02 -1.401157616401e-01 1.495971082932e-01 
368 195 361 2 2 1.920076123692e-03 -1.749037367785e-03 4.325131565702e-04 6.636964488809e-04 5.852442965027e-01 -5.331112299330e-01 1.318311575889e-01 2.022964384192e-01 2.992344296433e-02 2.319363278544e-01 -7.228951351835e-02 2.447767276155e-01 
369 195 476 2 3 2.114536225641e-03 4.308001103325e-04 -1.862411390724e-03 9.039350232105e-04 1.361243631116e+00 2.773297990185e-01 -1.198936964711e+00 5.819128461208e-01 1.125493593846e-01 -7.201498128354e-02 -2.020142967137e-01 2.422050616810e-01 
370 195 403 2 3 2.159238591898e-03 -1.066308574726e-03 -1.595710971459e-03 -9.894462167152e-04 7.465397457783e-01 -3.686677958073e-01 -5.517045070604e-01 -3.420932405800e-01 9.523798847443e-02 -3.153236008431e-02 -5.178305804922e-02 1.128984024779e-01 
371 444 192 3 2 2.200499846447e-03 3.851066824936e-06 1.303703043283e-03 1.772721951811e-03 3.006844109393e-01 5.262239675286e-04 1.781427898040e-01 2.422312624561e-01 8.319515158680e-02 5.728619181076e-02 -4.231039876768e-02 1.095139756543e-01 
372 444 281 3 2 2.150938376527e-03 6.945882485561e-04 -6.519348885898e-04 1.928487481324e-03 8.512541820499e-01 2.748898610201e-01 -2.580093908745e-01 7.632171388186e-01 1.747855134367e-01 -2.883379937685e-01 -1.604270520650e-01 3.733973933921e-01 
373 444 277 3 2 2.194657930816e-03 -1.195180382338e-03 -2.632150049675e-04 1.821753317036e-03 3.554546511832e-01 -1.935756911998e-01 -4.263124401446e-02 2.950576856448e-01 -1.163039007916e-02 -3.967957518699e-02 -1.336332062526e-02 4.345472354701e-02 
374 444 63 3 1 1.955969425696e-03 1.869551687261e-03 5.383580936753e-04 2.018995935855e-04 2.317072003481e-01 2.214700197613e-01 6.377474260665e-02 2.391734194131e-02 -9.975036528145e-03 7.945996632338e-03 7.117921595427e-02 7.231266140921e-02 
375 444 269 3 2 2.156665901713e-03 -4.017965080332e-04 2.098271824974e-03 -2.949961461875e-04 7.785053545692e-01 -1.450390311743e-01 7.574264747201e-01 -1.064866279018e-01 6.900278617602e-03 -5.288756592155e-02 -3.855812992077e-01 3.892526772841e-01 
376 444 336 3 2 2.165770297608e-03 1.624787378263e-03 1.901993580103e-04 -1.419313623428e-03 6.674196742932e-01 5.007064063968e-01 5.861323045856e-02 -4.373861056802e-01 1.084459008048e-01 -1.241260397292e-01 1.075117121608e-01 1.967906384765e-01 
377 444 288 3 2 2.148510730754e-03 -2.144011392325e-03 -1.276630129539e-04 -5.491506960071e-05 8.827369018289e-01 -8.808883040964e-01 -5.245161260773e-02 -2.256239994949e-02 8.111561554364e-03 -1.967999201920e-01 1.408136325111e-01 2.421249370044e-01 
378 444 117 3 2 2.184790254218e-03 -9.507702084429e-04 -1.054162845291e-03 -1.660748373857e-03 4.546423166190e-01 -1.978498253113e-01 -2.193652398218e-01 -3.455922080182e-01 5.992737430532e-02 1.510991640037e-01 -1.302185750688e-01 2.082765585626e-01 
379 405 413 3 3 2.380703885886e-03 -9.377276090942e-04 -1.152080408256e-03 1.860410883737e-03 1.193209853414e+00 -4.699894974855e-01 -5.774232163883e-01 9.324387678087e-01 1.493611631243e-01 -1.099437450315e-01 7.200587648884e-03 1.856023506960e-01 
380 405 153 3 2 2.132671007768e-03 -1.064887422821e-03 1.011994545901e-03 1.546016637413e-03 1.097258907843e+00 -5.478844164357e-01 5.206710393372e-01 7.954253238762e-01 4.662657416526e-01 2.335074060979e-01 1.683114503693e-01 5.479582054015e-01 
381 405 303 3 2 2.135109553303e-03 -1.339104551980e-03 7.767580321558e-04 -1.470421287575e-03 1.063229367697e+00 -6.668394527479e-01 3.868054218129e-01 -7.322317927046e-01 1.507688488057e-01 2.620672191873e-02 -1.234605153773e-01 1.966228290437e-01 
382 405 455 3 3 2.371944513169e-03 -8.550205940546e-06 -8.378497796624e-04 -2.219021273952e-03 1.327011396628e+00 -4.783510180625e-03 -4.687446102139e-01 -1.241456747216e+00 2.145437559057e-01 1.006228005823e-02 -4.625945942693e-03 2.148294022101e-01 
383 99 305 1 2 1.681575902525e-03 1.241269679143e-03 9.695119227461e-04 5.890617380594e-04 4.292028638809e-01 3.168197762211e-01 2.474567417293e-01 1.503512179249e-01 2.525299762907e-02 -1.799715915963e-02 -2.359229774927e-02 3.896419048512e-02 
384 99 167 1 2 1.694562588784e-03 -9.780028162593e-04 1.309436775329e-03 4.476920706357e-04 3.130065063999e-01 -1.806491225481e-01 2.418690422592e-01 8.269421967659e-02 -9.598122943168e-02 -9.761574074886e-02 7.583723344935e-02 1.565008473537e-01 
385 99 421 1 3 1.949283829683e-03 -1.815806886971e-03 -5.874416799017e-04 3.968186873197e-04 2.864360582380e-01 -2.668223884615e-01 -8.632117943704e-02 5.831022599183e-02 -1.534664370134e-02 3.586006444284e-03 -6.491622628644e-02 6.680191127794e-02 
386 99 303 1 2 1.680826647256e-03 1.026994562098e-03 -6.356237958528e-04 -1.168949433334e-03 4.362718527657e-01 2.665645628111e-01 -1.649811844258e-01 -3.034100725988e-01 -4.983792114082e-02 -1.259964900209e-01 2.472570023737e-02 1.377326908670e-01 
387 289 478 2 3 2.088748969861e-03 -2.022583960722e-03 3.862005266208e-04 3.505360668465e-04 1.767888371418e+00 -1.711887218604e+00 3.268748087492e-01 2.966889010036e-01 1.186629101701e-02 -2.741278372336e-01 3.704865127108e-01 4.610283463188e-01 
388 289 348 2 2 1.901447357321e-03 1.028326637514e-03 -1.410500300511e-03 7.540127860325e-04 8.013546509437e-01 4.333826705686e-01 -5.944476830347e-01 3.177745892526e-01 2.187261524490e-02 9.860656046358e-02 1.546291952625e-01 1.846939443827e-01 
389 289 499 2 3 2.089938450959e-03 1.550329022790e-03 9.848880132550e-04 -9.971550788324e-04 1.748363071965e+00 1.296946334279e+00 8.239198774516e-01 -8.341820382569e-01 2.445679759609e-01 -1.983206256273e-01 1.843617187980e-01 3.648750591270e-01 
390 289 108 2 2 1.976078874034e-03 5.285488394632e-04 -1.571734651704e-03 -1.074790223876e-03 9.582854844939e-02 2.563160243040e-02 -7.622016114818e-02 -5.212119232436e-02 -4.352237563134e-02 -1.718163220198e-02 3.722833981082e-03 4.693895140041e-02 
391 289 379 2 2 1.925888951844e-03 -1.138920444432e-03 -5.650001947391e-04 -1.446610955314e-03 5.225728138931e-01 -3.090359186479e-01 -1.533077705920e-01 -3.925249982888e-01 3.017802422350e-02 6.420448999140e-02 -4.883546458247e-02 8.612683833786e-02 
392 421 336 3 2 2.115037067092e-03 1.250004599035e-03 2.764875046351e-04 1.683575052484e-03 1.353701350318e+00 8.000488218129e-01 1.769621507793e-01 1.077549825187e+00 -8.006111359589e-02 -3.249378388740e-01 1.128063832074e-01 3.531567090325e-01 
393 421 294 3 2 2.091984521778e-03 -8.799047602528e-04 1.620454550374e-03 9.880758586345e-04 1.714946377418e+00 -7.213196203698e-01 1.328400201820e+00 8.099950533761e-01 -2.999735034804e-01 -1.465960440436e-02 -2.430915490722e-01 3.863838868560e-01 
394 421 117 3 2 2.184866313131e-03 -1.325552987671e-03 -9.678746986663e-04 1.442140302055e-03 4.538471341094e-01 -2.753479336238e-01 -2.010499020131e-01 2.995658082775e-01 3.257639577914e-02 2.250127677617e-03 3.145295944980e-02 4.533843065960e-02 
395 421 114 3 2 2.124752244539e-03 4.287750912257e-04 -1.797244148051e-03 1.049112717546e-03 1.210196873832e+00 2.442177794197e-01 -1.023657819435e+00 5.975439886391e-01 -1.014015568785e-01 -6.495078857332e-02 -6.982468296505e-02 1.391990194824e-01 
396 421 167 3 2 2.074283402997e-03 8.378040707118e-04 1.896878455231e-03 5.087338331603e-05 2.011037993641e+00 8.122592192531e-01 1.839042166213e+00 4.932224138985e-02 -4.622487416612e-01 2.137098786223e-01 -3.559383314561e-01 6.213194888203e-01 
397 421 476 3 3 2.464934818505e-03 -2.433372311904e-03 3.363147726508e-04 2.037037673588e-04 1.901478987632e-01 -1.877131308071e-01 2.594370725849e-02 1.571394222786e-02 -4.010653179984e-03 1.591032282384e-03 -5.053662086065e-02 5.072047683793e-02 
398 421 233 3 2 2.061736222973e-03 1.056683833338e-03 -1.415407906106e-03 -1.063388917007e-03 2.230238198832e+00 1.143044693565e+00 -1.531086636570e+00 -1.150297771605e+00 -5.261711492729e-01 -2.019974586970e-01 -2.539877390885e-01 6.181980453338e-01 
399 421 57 3 1 1.979896208101e-03 -3.972151133360e-04 1.573129808697e-03 -1.134668124862e-03 7.148664565885e-02 -1.434195183627e-02 5.679983261223e-02 -4.096862141082e-02 -2.271605388362e-02 1.919476181833e-03 1.061345150879e-02 2.514654739294e-02 
400 257 310 2 2 1.836299972604e-03 -3.145061066786e-04 4.408485756115e-04 1.754632734115e-03 1.715518799851e+00 -2.938197172164e-01 4.118521105659e-01 1.639223159133e+00 -5.292023078697e-01 -3.965223608294e-01 4.769636542241e-03 6.612925333959e-01 
401 257 479 2 3 2.138075833605e-03 7.630399354195e-04 1.916375564504e-03 5.627104255067e-04 1.022320100997e+00 3.648472386160e-01 9.163142063803e-01 2.690597639214e-01 2.841676369099e-01 -4.517370503450e-02 -2.314893502295e-01 3.692955845433e-01 
402 257 294 2 2 1.820999501005e-03 1.013832811613e-03 -1.510622450713e-03 -7.875293110365e-05 1.961569574650e+00 1.092094531572e+00 -1.627233305922e+00 -8.483217786837e-02 -1.416618356609e-01 -9.667900779131e-02 3.078059911397e-02 1.742479598507e-01 
403 257 456 2 3 2.078814908571e-03 -3.733540817166e-04 1.083964179167e-03 -1.734099135588e-03 1.933748576566e+00 -3.473002435656e-01 1.008321702846e+00 -1.613088169245e+00 -4.291252960514e-01 -1.708796319429e-01 -1.442346544797e-02 4.621216340744e-01 
404 309 12 2 1 1.665633284152e-03 -1.114026121011e-03 1.207981899996e-03 2.721392442527e-04 5.876323195484e-01 -3.930263400450e-01 4.261737638297e-01 9.601021837279e-02 7.995796612036e-02 1.842032867553e-02 2.455501754983e-01 2.588966464477e-01 
405 309 241 2 2 1.933043394680e-03 5.513547012796e-04 -1.852016403626e-03 5.196152223115e-05 4.487583006939e-01 1.279976432536e-01 -4.299477892922e-01 1.206292858303e-02 7.317713122357e-02 2.411595012063e-02 8.307262154385e-02 1.133028333031e-01 
406 309 192 2 2 1.942392466477e-03 -1.462117778902e-03 -1.278570817184e-03 -1.888808853066e-05 3.581304658505e-01 -2.695793617015e-01 -2.357377153607e-01 -3.482509359595e-03 6.942253078990e-02 -7.809149515315e-02 -8.780188282613e-02 1.364805481537e-01 
407 309 478 2 3 2.163295710600e-03 4.416866380931e-04 1.228113656550e-03 -1.725253051533e-03 6.970468626129e-01 1.423181693711e-01 3.957169456935e-01 -5.559028388454e-01 1.512984969131e-01 -1.331673235417e-01 -5.606023072334e-02 2.092068849158e-01 
408 309 3 2 1 1.747994322672e-03 -1.989006895180e-04 -6.716461100550e-04 -1.601503721710e-03 2.153971037257e-03 -2.450959473698e-04 -8.276378530413e-04 -1.973457572419e-03 -9.475094641474e-04 -4.516396497568e-05 1.366181571201e-04 9.583728341497e-04 
409 3 63 1 1 1.498749311034e-03 6.024835310522e-04 -1.372269656738e-03 1.179327495393e-05 9.921507102381e-04 3.988355216175e-04 -9.084229794446e-04 7.806980150339e-06 1.392773326801e-04 5.863993031121e-05 -2.919038380424e-04 3.287014868984e-04 
410 3 269 1 2 1.748040036054e-03 -1.668864664242e-03 1.876440745607e-04 -4.851024648190e-04 2.080757412300e-03 -1.986512006948e-03 2.233597577649e-04 -5.774356013469e-04 2.557984780893e-04 -2.463690270895e-04 -9.753047314220e-04 1.037954660877e-03 
411 114 248 2 2 1.918285067374e-03 9.648566648797e-04 4.496776541361e-04 1.595825561682e-03 6.050266312205e-01 3.043155511615e-01 1.418282198222e-01 5.033229836490e-01 -6.112288029824e-02 -6.348071601914e-02 5.484351174715e-02 1.037960431954e-01 
412 114 116 2 2 1.941938214410e-03 -8.676634879193e-04 -1.531714933718e-03 8.198374608062e-04 3.623747718076e-01 -1.619100731977e-01 -2.858251850969e-01 1.529855123992e-01 1.524094128693e-01 -3.807059329560e-02 9.017249153163e-02 1.811327619015e-01 
413 114 117 2 2 1.979896808968e-03 -1.754328078897e-03 8.293694493845e-04 3.930275845089e-04 7.382777478625e-02 -6.541661046339e-02 3.092610718215e-02 1.465548702461e-02 -5.501451624732e-03 -2.447149211513e-02 2.708348548708e-02 3.691388739281e-02 
414 114 83 2 1 1.673934957887e-03 9.284138182932e-04 -1.382053245740e-03 1.733056582454e-04 5.030679202283e-01 2.790163419907e-01 -4.153486661492e-01 5.208357507948e-02 -1.055651755868e-01 -7.176580674163e-02 -6.785689620474e-03 1.278295071475e-01 
415 114 416 2 3 2.178166346484e-03 -9.687991424192e-04 -9.425122792849e-04 -1.708071268419e-03 5.256456060484e-01 -2.337952806856e-01 -2.274516081164e-01 -4.121999949689e-01 4.038640492265e-02 -1.349488493801e-01 5.155793838736e-02 1.500015821995e-01 
416 310 28 2 1 1.636290362331e-03 -2.159313345440e-04 1.339370438702e-03 9.148260143609e-04 9.194854785078e-01 -1.213389328928e-01 7.526363884308e-01 5.140708855412e-01 -1.460160664208e-01 7.273705799317e-02 -1.409571954686e-01 2.155929085403e-01 
417 310 214 2 2 1.847708382188e-03 1.680512796804e-03 3.882635880608e-04 6.626872501951e-04 1.539346393951e+00 1.400053893075e+00 3.234667114928e-01 5.520921151515e-01 1.505231746248e-01 -1.398601778772e-01 -2.997696220777e-01 3.634280145718e-01 
418 310 269 2 2 1.993647503719e-03 1.431664391283e-03 -1.387365605100e-03 -1.356899412877e-05 1.311412015855e-02 9.417421494515e-03 -9.126026148146e-03 -8.925620958739e-05 -1.702367309140e-03 -1.815789497299e-03 6.039153371511e-03 6.531961374531e-03 
419 28 138 1 2 1.615654471448e-03 -6.094571827855e-04 1.211754404940e-03 -8.778112414242e-04 1.180820227537e+00 -4.454290084720e-01 8.856250748199e-01 -6.415587541459e-01 -1.483485066384e-02 1.215537968936e-01 1.780958682061e-01 2.161331455505e-01 
420 202 41 2 1 1.583925195333e-03 1.125329166095e-03 -9.172001324660e-04 6.334013019813e-04 1.622947867864e+00 1.153053550850e+00 -9.397969069345e-01 6.490062129078e-01 2.781229127619e-02 2.315875528720e-01 2.859390264214e-01 3.690087329889e-01 
421 202 334 2 2 1.910795807590e-03 -6.593606464543e-04 1.664317864592e-03 -6.681543248473e-04 6.900812662831e-01 -2.381271866073e-01 6.010660976609e-01 -2.413030114111e-01 2.626236998984e-01 1.640060191302e-01 1.493583312006e-01 3.437689531623e-01 
422 202 424 2 3 2.131492195143e-03 -2.065819529676e-03 -9.462787539601e-05 -5.164244513585e-04 1.113836715214e+00 -1.079518679169e+00 -4.944892697191e-02 -2.698637676780e-01 -2.099133236641e-02 -1.637451685657e-01 1.139743897721e-01 2.006072725178e-01 
423 202 139 2 2 1.949475890639e-03 8.974577907403e-04 1.026393423966e-03 -1.393392371611e-03 2.941512309110e-01 1.354150185209e-01 1.548697732084e-01 -2.102452680842e-01 4.261853989829e-02 3.559907651303e-02 5.367260522074e-02 7.722941630509e-02 
424 355 12 2 1 1.703082014458e-03 1.470458323527e-03 8.194474653029e-04 2.583534755896e-04 2.437013796626e-01 2.104142484846e-01 1.172582859545e-01 3.696891747275e-02 -3.164614452485e-02 6.326114627644e-02 -2.053329972743e-02 7.365505745836e-02 
425 355 214 2 2 1.943208578400e-03 9.655674962989e-04 9.030927229742e-04 -1.424135710868e-03 3.505471659948e-01 1.741845693595e-01 1.629143665729e-01 -2.569084672567e-01 -5.847091574754e-02 -9.018025990174e-02 -9.682978323505e-02 1.446628293158e-01 
426 355 260 2 2 1.954278032795e-03 -9.360097400747e-04 -1.598767230196e-03 -6.221187504017e-04 2.532268106572e-01 -1.212840533668e-01 -2.071612738269e-01 -8.061143008855e-02 -5.433150643617e-02 3.668064882821e-02 -1.252011795247e-02 6.673931332899e-02 
427 58 288 1 2 1.749999835586e-03 -4.884695965691e-05 -1.658205485764e-03 5.571965237388e-04 1.067101921450e-09 -2.978553680231e-11 -1.011128243578e-09 3.397631639821e-10 -2.552192670950e-10 3.836684852290e-11 9.180501188929e-11 2.739289133518e-10 
428 139 253 2 2 1.860719583790e-03 1.018774214361e-03 -1.853595619415e-04 -1.545968402798e-03 1.346348270637e+00 7.371475603434e-01 -1.341193631969e-01 -1.118605889732e+00 1.507498020575e-01 -4.454001762692e-02 1.046825594829e-01 1.888590856974e-01 
429 260 486 2 3 2.220854283073e-03 -2.180111475066e-03 1.216366349088e-04 4.056010749207e-04 1.358511086783e-01 -1.333588444714e-01 7.440592493709e-03 2.481088296925e-02 -3.418154096399e-03 5.767600451309e-02 -3.566921528393e-02 6.790064942982e-02 
430 260 277 2 2 1.954530148444e-03 8.593449565479e-04 -1.635256069932e-03 6.384762584327e-04 2.511352346279e-01 1.104162028203e-01 -2.101120911980e-01 8.203704869608e-02 2.168832583159e-02 3.441189777776e-02 5.894426115352e-02 7.161695406102e-02 
431 260 288 2 2 1.946853826416e-03 -8.948605343944e-05 -1.499704077918e-03 -1.238192128204e-03 3.173440326365e-01 -1.458654197757e-02 -2.444570482850e-01 -2.018296791528e-01 8.416928814184e-02 -2.036635684809e-02 1.858478216109e-02 8.857003830609e-02 
432 269 214 2 2 1.916274267563e-03 2.488484055211e-04 1.775629193161e-03 6.762562443239e-04 6.274957476520e-01 8.148693478679e-02 5.814406564737e-01 2.214442498234e-01 -1.489325392796e-01 -2.365388063148e-02 1.169115206878e-01 1.908106679269e-01 
433 269 294 2 2 1.908041874803e-03 -1.033254729915e-04 -5.641054212244e-04 -1.819816671090e-03 7.222832010430e-01 -3.911353014161e-02 -2.135403183485e-01 -6.888858299518e-01 -2.867527010594e-01 2.130649092877e-01 -4.976446990993e-02 3.606941496616e-01 
434 233 72 2 1 1.715430401090e-03 1.005809552147e-03 6.735271571921e-05 1.387988550918e-03 1.541311729987e-01 9.037184253420e-02 6.051631749008e-03 1.247105702020e-01 4.323058778358e-03 -2.844087132576e-02 -1.752610919440e-03 2.882088902176e-02 
435 233 168 2 2 1.875137678965e-03 1.459594297544e-03 -1.148014070081e-03 -2.603641614093e-04 1.142797956161e+00 8.895460844125e-01 -6.996542961353e-01 -1.586782852555e-01 -3.288473910959e-02 -1.402033898149e-01 4.338426839639e-01 4.571190993723e-01 
436 348 77 2 1 1.711020148393e-03 7.157971419608e-06 7.018992482344e-04 1.560408971065e-03 1.845479486743e-01 7.720475667096e-04 7.570575165894e-02 1.683032633914e-01 6.605705141092e-02 5.857317518360e-02 -2.665025828822e-02 9.222031858014e-02 
437 348 136 2 2 1.896812503618e-03 -1.489252208984e-03 -5.429735942562e-05 1.173489381579e-03 8.585448173047e-01 -6.740728265150e-01 -2.457634396614e-02 5.311506671295e-01 -2.368694676009e-01 1.948855436689e-01 -2.915890103019e-01 4.232158677808e-01 
438 348 119 2 2 1.806822907313e-03 9.724831594143e-04 -6.886712499642e-04 1.358166938384e-03 2.199154771956e+00 1.183647258410e+00 -8.382086919186e-01 1.653078058492e+00 2.736885340953e-01 -1.455584742769e-01 -2.697749566471e-01 4.109394242014e-01 
439 348 5 2 1 1.664707602635e-03 1.138658315191e-03 1.120360217604e-03 -4.685100066468e-04 5.973301529892e-01 4.085732200291e-01 4.020074991698e-01 -1.681106961393e-01 -8.386453553823e-02 2.825192211093e-02 -1.362633033604e-01 1.624780578007e-01 
440 348 224 2 2 1.929314192695e-03 -1.464874891617e-03 -1.199345767009e-03 -3.714357780303e-04 4.867664934334e-01 -3.695883319632e-01 -3.025952618976e-01 -9.371334741231e-02 3.997584090800e-02 -2.959690373547e-02 -6.209063791748e-02 7.955684687083e-02 
441 348 108 2 2 1.902707232466e-03 -4.997777980512e-04 -1.612343511930e-04 -1.828803009909e-03 7.860373017983e-01 -2.064658110169e-01 -6.660836318187e-02 -7.555063432253e-01 2.100320403174e-02 1.631363959537e-01 -2.012252045094e-02 1.657091853026e-01 
442 348 203 2 2 1.982643659945e-03 1.254220647123e-03 -1.002190088045e-03 -1.163366441872e-03 5.922571250494e-02 3.746619373163e-02 -2.993751385033e-02 -3.475218861372e-02 -5.067080809531e-03 1.868015089088e-02 -2.155494479712e-02 2.896962185537e-02 
443 277 192 2 2 1.973654645776e-03 1.199031449163e-03 1.566918048251e-03 -4.903136522473e-05 1.107588417482e-01 6.728803076725e-02 8.793333145191e-02 -2.751574209422e-03 4.289778914303e-02 -3.317631392966e-02 -1.119215805197e-02 5.537285003663e-02 
444 277 281 2 2 1.932283832168e-03 1.889768630894e-03 -3.887198836222e-04 1.067341642880e-04 4.564160547480e-01 4.463737306807e-01 -9.181777166031e-02 2.521119587100e-02 2.288209438075e-02 1.073292071744e-01 -1.424911413394e-02 1.106624878156e-01 
445 277 149 2 2 1.925983079128e-03 -8.235267652346e-04 -1.740495075986e-03 -4.348998157084e-05 5.215775333000e-01 -2.230201622603e-01 -4.713453291940e-01 -1.177756832695e-02 -1.411208010421e-01 7.194845946984e-02 -2.071553561366e-01 2.607776886218e-01 
446 72 413 1 3 1.966447208045e-03 1.181685006470e-03 -6.289653659764e-04 1.440464416747e-03 1.541349061511e-01 9.262333960822e-02 -4.929983233744e-02 1.129070980299e-01 2.071557892063e-03 2.691060959186e-02 1.005086438432e-02 2.880090511733e-02 
447 476 294 3 2 2.162756569828e-03 1.553467551651e-03 1.284139777723e-03 7.843720912756e-04 7.035584652951e-01 5.053528731678e-01 4.177388356337e-01 2.551612291724e-01 -4.108242376401e-03 2.422168207930e-02 -3.151820990548e-02 3.996204566610e-02 
448 476 117 3 2 2.112320733863e-03 1.107819324233e-03 -1.304189471317e-03 1.238436534696e-03 1.394774213094e+00 7.314977320614e-01 -8.611617612894e-01 8.177448222973e-01 -8.616051817077e-02 1.052526742751e-01 1.879141241502e-01 2.319773230051e-01 
449 476 183 3 2 2.227110668805e-03 -8.998950299841e-04 -1.800322413314e-03 9.534411750245e-04 9.454764414452e-02 -3.820329014365e-02 -7.642918031136e-02 4.047648740209e-02 -2.440124011620e-02 2.006351499384e-02 1.485381731522e-02 3.490846662273e-02 
450 476 7 3 1 1.909060675231e-03 -6.057393045810e-04 -1.373847958294e-03 -1.179039585464e-03 6.877579004222e-01 -2.182235471753e-01 -4.949422506862e-01 -4.247606167444e-01 -1.997702569234e-01 8.862824466982e-03 9.230608080448e-02 2.202433149094e-01 
451 476 247 3 2 2.190364591315e-03 -2.030981362658e-03 -7.998239697093e-04 -1.819158181731e-04 3.976100495649e-01 -3.686777093977e-01 -1.451895494934e-01 -3.302261083258e-02 -2.810731340509e-02 9.443677309624e-02 -1.014060529195e-01 1.413913460874e-01 
452 476 88 3 1 1.914538967189e-03 5.489396049629e-04 -1.809917146951e-03 -2.971946974004e-04 6.265564417404e-01 1.796472422397e-01 -5.923176633502e-01 -9.726062268698e-02 2.232174385391e-01 8.172671973670e-02 -8.541773823631e-02 2.525895318343e-01 
453 476 403 3 3 2.428447250450e-03 -1.497108685059e-03 2.667004192643e-04 -1.893381239926e-03 5.542642555114e-01 -3.416972843820e-01 6.087120455294e-02 -4.321417906658e-01 -2.060322773571e-02 2.121785497873e-03 1.658997757193e-02 2.653718754249e-02 
454 149 94 2 1 1.673764706156e-03 1.630598604337e-03 -1.695739191283e-04 3.374628410037e-04 5.047578450322e-01 4.917402276500e-01 -5.113846986860e-02 1.017687944889e-01 -3.868749848352e-02 1.733038183215e-02 1.956439458258e-01 2.001839609250e-01 
455 149 291 2 2 1.967326608957e-03 1.165475578971e-03 -1.285955890976e-03 -9.264761775650e-04 1.529726055253e-01 9.062340496977e-02 -9.999154300951e-02 -7.203962686929e-02 -5.536000891159e-02 -4.967901933457e-02 -6.861599791641e-04 7.438552523343e-02 
456 63 241 1 2 1.659442298447e-03 1.477718597454e-04 1.918993631667e-04 1.641671968987e-03 6.534871410919e-01 5.819244829981e-02 7.556982627870e-02 6.464891985869e-01 -2.700247800285e-01 -1.924354490282e-02 2.655517590868e-02 2.720089579727e-01 
457 63 224 1 2 1.650669028659e-03 1.624139503179e-03 2.759828292018e-04 -1.035016636214e-04 7.507165450352e-01 7.386510410705e-01 1.255156984412e-01 -4.707207197218e-02 -7.674070878463e-03 5.793161793969e-03 -1.049736604160e-01 1.054130991317e-01 
458 63 336 1 2 1.676143301511e-03 -2.447643089979e-04 -3.481587356650e-04 -1.621213217014e-03 4.813198695035e-01 -7.028630855117e-02 -9.997696322608e-02 -4.655461936621e-01 -2.368252162019e-01 -1.678721154772e-02 3.936001389734e-02 2.406599347516e-01 
459 305 108 2 2 1.899485109445e-03 1.026928938663e-03 3.817868826702e-04 1.551676323258e-03 8.254066602077e-01 4.462440802078e-01 1.659025565238e-01 6.742690244506e-01 6.498022899405e-02 2.810255014884e-01 -1.121509203263e-01 3.094763182813e-01 
460 305 379 2 2 1.931409501385e-03 -6.405403452315e-04 1.388521339635e-03 1.179855591820e-03 4.652842080041e-01 -1.543087092675e-01 3.345002969829e-01 2.842318908577e-01 -4.983869287204e-02 1.107751573754e-01 -1.574238108046e-01 1.988398526628e-01 
461 305 153 2 2 1.861143404050e-03 5.994201211457e-05 -1.369899204854e-03 1.258426753595e-03 1.340207763502e+00 4.316419133586e-02 -9.864632384399e-01 9.061920222251e-01 -3.672858582725e-01 -1.375852394093e-01 -1.322779067856e-01 4.139155039545e-01 
462 305 143 2 2 1.860603839458e-03 5.549566482212e-04 1.905726912620e-04 -1.765659031452e-03 1.348026923962e+00 4.020718906244e-01 1.380719061979e-01 -1.279238418441e+00 -1.716070008979e-01 2.692126166991e-01 -2.488015656536e-02 3.202240121194e-01 
463 281 241 2 2 1.915018293070e-03 1.322735298450e-03 1.382192345432e-03 -8.491591875096e-05 6.416682193522e-01 4.432110161571e-01 4.631333832710e-01 -2.845291169111e-02 8.923510518092e-02 -8.839547263047e-02 -4.881443033536e-02 1.347572342666e-01 
464 281 449 2 3 2.144679789060e-03 1.977540599188e-03 -7.151750137375e-04 -4.213184969747e-04 9.331869980058e-01 8.604618668968e-01 -3.111849272431e-01 -1.833229116074e-01 2.761988594901e-02 1.180431020894e-01 -7.073516008061e-02 1.403584515530e-01 
465 281 360 2 2 1.806645646039e-03 -1.029353511253e-04 -1.418645521128e-03 -1.113919965358e-03 2.202182403479e+00 -1.254714334497e-01 -1.729235730456e+00 -1.357795288730e+00 -6.238513636813e-02 2.947157111789e-01 -3.695736681148e-01 4.767955031449e-01 
466 153 224 2 2 1.890463321361e-03 1.889832983141e-06 7.135746717076e-04 1.750616801541e-03 9.389915907858e-01 9.386785023061e-04 3.544319577959e-01 8.695299383817e-01 -2.025970167079e-01 7.723749610743e-02 -3.126432142285e-02 2.190630954267e-01 
467 153 336 2 2 1.883609389900e-03 -1.867013979194e-03 8.943310684077e-05 2.329052481489e-04 1.028488127677e+00 -1.019426703915e+00 4.883225211141e-02 1.271708900366e-01 -6.538466148932e-03 -3.896658218246e-01 9.721385638293e-02 4.016624678890e-01 
468 153 374 2 2 1.878553357723e-03 1.458012370786e-03 -5.518946921270e-04 1.048129234994e-03 1.096227324868e+00 8.508211886982e-01 -3.220574169330e-01 6.116344274544e-01 1.642609934828e-02 2.736482757544e-01 1.212403687437e-01 2.997539367152e-01 
469 153 413 2 3 2.190487107371e-03 1.271598137265e-04 -2.164074954157e-03 3.143942463237e-04 3.963854439471e-01 2.301054365790e-02 -3.916059622318e-01 5.689205039558e-02 -6.837463599447e-02 -2.069077029579e-02 -1.147663236064e-01 1.351832380769e-01 
470 336 248 2 2 1.892722748896e-03 1.436271570702e-04 -1.624053998550e-03 9.613632267444e-04 9.100888865616e-01 6.906108120393e-02 -7.809033288778e-01 4.622578711643e-01 -7.299774445132e-02 1.098171135293e-01 1.964225130227e-01 2.365803726877e-01 
471 88 117 1 2 1.710634473961e-03 5.588797192699e-04 5.057276756337e-04 1.535631232097e-03 1.872936333753e-01 6.119052014629e-02 5.537101894631e-02 1.681329105440e-01 7.568613292847e-02 3.693106205178e-02 -3.970777855047e-02 9.310747413259e-02 
472 88 416 1 3 1.931407349545e-03 1.344408655747e-03 -1.266154053036e-03 -5.654676208314e-04 4.505306667141e-01 3.136041333553e-01 -2.953500357194e-01 -1.319040772411e-01 -3.069030258350e-02 8.920370966752e-03 -9.294055106805e-02 9.828231643426e-02 
473 424 379 3 2 2.167347525867e-03 7.576919991391e-04 -8.412912237297e-04 1.848114501106e-03 6.487612227251e-01 2.268031231465e-01 -2.518272295794e-01 5.532038628618e-01 1.759285991303e-01 -9.175518328784e-02 -1.138958231881e-01 2.287840558077e-01 
474 424 175 3 2 2.166024900063e-03 -2.079197435139e-03 -6.071027004016e-04 -5.310797379730e-06 6.643958435398e-01 -6.377628132368e-01 -1.862197016927e-01 -1.629007914393e-03 -9.908367331092e-03 3.199190370849e-02 2.220157686237e-01 2.245276356346e-01 
475 424 167 3 2 2.126827393598e-03 -8.210401510319e-04 -1.889887710782e-03 5.268892418621e-04 1.180245344093e+00 -4.556217483778e-01 -1.048759846814e+00 2.923878902596e-01 -2.352546707516e-01 7.233278242999e-02 -1.071433789570e-01 2.684334092077e-01 
476 229 136 2 2 1.885245407956e-03 3.271498948552e-04 -1.846006826856e-03 -1.984489599783e-04 1.006879436162e+00 1.747255292506e-01 -9.859227372375e-01 -1.059884172568e-01 2.409188331894e-01 6.965919943893e-02 -2.508190857213e-01 3.546893034952e-01 
477 229 478 2 3 2.162437230146e-03 -1.234508494397e-03 4.991359701364e-06 -1.775415060743e-03 7.074248893198e-01 -4.038600625435e-01 1.632885355037e-03 -5.808135308315e-01 -1.482112033170e-01 1.193564558387e-01 1.033920148902e-01 2.165696956689e-01 
478 182 472 2 3 2.227517007723e-03 6.449278047588e-04 -2.129858127519e-03 -9.800256620363e-05 9.204118159619e-02 2.664846867092e-02 -8.800590882560e-02 -4.049473903709e-03 2.456228898637e-02 6.517631529806e-03 1.999205432777e-02 3.233369445722e-02 
479 182 449 2 3 2.239881747944e-03 -1.636953178241e-03 -1.506847539716e-03 -2.585827315764e-04 2.778812510790e-02 -2.030815231853e-02 -1.869405292963e-02 -3.207994932047e-03 -2.048088754172e-03 -1.310047891909e-04 1.372879626197e-02 1.388134275214e-02 
480 182 224 2 2 1.974846944713e-03 -8.153908355446e-04 6.746032854881e-04 -1.667353785961e-03 1.033257160278e-01 -4.266196028542e-02 3.529583277041e-02 -8.723740554543e-02 1.238410899864e-02 4.815963815163e-02 1.342892032550e-02 5.150779362091e-02 
481 449 241 3 2 2.222810499304e-03 -6.548053007372e-04 2.097367359169e-03 3.364025782237e-04 1.224060700486e-01 -3.605891889358e-02 1.154981479368e-01 1.852506885650e-02 3.278290103817e-02 1.800514537715e-02 -4.844489277152e-02 6.120303502421e-02 
482 449 472 3 3 2.370845630277e-03 2.281880983000e-03 -6.230105878032e-04 1.605801653728e-04 1.344129196418e+00 1.293691505188e+00 -3.532101415840e-01 9.103945271124e-02 -2.432267454083e-02 -3.291868991688e-02 2.179145603151e-01 2.217250284474e-01 
483 449 248 3 2 2.163989048088e-03 -9.037143124103e-04 -6.674473821217e-05 -1.965119381033e-03 6.887026194900e-01 -2.876125527425e-01 -2.124191713655e-02 -6.254111436116e-01 -1.382519745135e-01 1.082414685492e-01 5.990258949811e-02 1.855212769446e-01 
484 214 478 2 3 2.085493963811e-03 2.060603586332e-03 -6.351350111659e-05 -3.149031093281e-04 1.821687412100e+00 1.799945566704e+00 -5.547930010359e-02 -2.750691396132e-01 4.788035075846e-02 -3.107688880876e-01 3.759900720988e-01 4.901411675312e-01 
485 472 187 3 2 2.112602819476e-03 1.142401526199e-03 1.596697517906e-03 -7.801066991836e-04 1.390489899584e+00 7.519150163031e-01 1.050927202629e+00 -5.134568958310e-01 1.463939698531e-01 -1.378607077761e-01 -6.778707996002e-02 2.122071096062e-01 
486 472 429 3 3 2.314765880360e-03 -3.459460853044e-04 -1.681792718041e-03 -1.552428948610e-03 2.308653938553e+00 -3.450326441829e-01 -1.677352087863e+00 -1.548329892428e+00 3.129749240963e-01 1.775202311300e-01 -2.620568768400e-01 4.451298038468e-01 
487 108 41 2 1 1.668360194316e-03 7.659874127377e-04 1.025453423625e-03 -1.070109479204e-03 5.593734715912e-01 2.568228609853e-01 3.438175062449e-01 -3.587899402086e-01 8.411352227383e-02 5.293301404972e-02 1.109327990412e-01 1.489398351980e-01 
488 108 379 2 2 1.982982283305e-03 -1.667469283895e-03 1.006734456965e-03 -3.718207314380e-04 5.750085013077e-02 -4.835186990734e-02 2.919243788449e-02 -1.078174441292e-02 1.528644608721e-02 2.411137142570e-02 -3.270207349083e-03 2.873548193630e-02 
489 294 167 2 2 1.976178707226e-03 1.717708830965e-03 2.764239048571e-04 -9.372024753185e-04 9.522924442171e-02 8.277394828268e-02 1.332047527047e-02 -4.516245583883e-02 1.889994461950e-02 1.136302722053e-02 3.799137867285e-02 4.392802235133e-02 
490 136 77 2 1 1.720692740201e-03 1.496410180404e-03 7.561966076600e-04 3.869195894862e-04 1.203127794122e-01 1.046306895699e-01 5.287412070967e-02 2.705385460897e-02 1.845713857593e-02 -3.113579431881e-02 -1.053104609331e-02 3.769624098094e-02 
491 136 241 2 2 1.912888005261e-03 -1.451990326066e-03 -1.229131873619e-03 2.002484729997e-04 6.659464341176e-01 -5.054910571645e-01 -4.279058606908e-01 6.971383382868e-02 5.653362758825e-02 -2.554518186215e-02 2.531249421435e-01 2.606162767362e-01 
492 136 224 2 2 1.923154663074e-03 2.437731736759e-05 -1.145048407583e-03 -1.544925159609e-03 5.517579920757e-01 6.993914707531e-03 -3.285173170565e-01 -4.432429800578e-01 -1.764222279714e-01 1.427569445165e-02 -1.336444146480e-02 1.775026936982e-01 
493 374 187 2 2 1.882360396685e-03 1.146597628699e-03 5.770546873292e-05 1.491732087121e-03 1.045087556206e+00 6.365916515450e-01 3.203810885736e-02 8.282104979411e-01 5.041318318029e-02 -2.684561105699e-01 -2.836451065802e-02 2.746174025905e-01 
494 374 203 2 2 1.934521358003e-03 1.262973000937e-03 1.462625042798e-03 -8.944309729473e-05 4.339821775463e-01 2.833299156203e-01 3.281189935595e-01 -2.006527866434e-02 2.271413550074e-02 -2.029805109172e-02 -1.119256808501e-02 3.245329582655e-02 
495 374 413 2 3 2.215549764621e-03 -1.330852557060e-03 -1.612180262030e-03 -7.337349886706e-04 1.745779365294e-01 -1.048667454672e-01 -1.270344308908e-01 -5.781587140449e-02 -2.093482170474e-02 7.222376841097e-03 2.210251366729e-02 3.128818622830e-02 
496 167 175 2 2 1.873962117060e-03 -1.258157284107e-03 1.282785010380e-03 -5.322000392418e-04 1.158974831780e+00 -7.781227877691e-01 7.933541068304e-01 -3.291456349827e-01 2.699535937149e-01 2.533740559822e-01 -2.747019591429e-02 3.712518911306e-01 
497 167 57 2 1 1.742295680621e-03 -1.235019184048e-03 -3.237486465338e-04 -1.185541508178e-03 1.621625461249e-02 -1.149482591421e-02 -3.013260344404e-03 -1.103431705888e-02 4.895095887360e-03 -3.019288851671e-03 -4.274879128619e-03 7.166077063539e-03 
498 360 94 2 1 1.632021558648e-03 -9.797614406663e-04 -1.027035903641e-04 1.301158660503e-03 9.717464121318e-01 -5.833744411448e-01 -6.115228375538e-02 7.747423759557e-01 1.474631799034e-01 3.795820563347e-02 1.140346570861e-01 1.902370043364e-01 
499 360 15 2 1 1.700174611527e-03 1.041721832567e-03 -1.082830685102e-03 7.955419791788e-04 2.667012172484e-01 1.634117336515e-01 -1.698603542440e-01 1.247942492381e-01 2.206967833258e-02 1.209684017657e-02 -1.243383285847e-02 2.807141684194e-02 
500 360 291 2 2 1.890832099876e-03 -1.444884466032e-03 -1.219085562212e-03 3.721964193408e-05 9.342536299024e-01 -7.139124395387e-01 -6.023459786476e-01 1.839009692234e-02 3.040918929357e-02 -4.053667241911e-02 -1.472315839232e-01 1.557083167619e-01 
501 360 248 2 2 1.846480299269e-03 1.176761637903e-03 6.367257691785e-04 -1.272517912650e-03 1.558003870733e+00 9.929156501200e-01 5.372498224694e-01 -1.073711879986e+00 4.690271606676e-02 -1.432104243078e-01 -2.828443541354e-02 1.533267742161e-01 
502 360 103 2 2 1.873887616702e-03 9.876866586796e-04 -1.297790075357e-03 -9.228601110677e-04 1.160002577137e+00 6.114129039865e-01 -8.033778645946e-01 -5.712829828394e-01 1.191465338491e-01 -1.329562687656e-01 3.144883654441e-01 3.616299184692e-01 
503 478 379 3 2 2.217065953372e-03 8.836635162909e-04 -9.512007213599e-04 -1.797147022161e-03 1.631806958007e-01 6.503948483028e-02 -7.001036451874e-02 -1.322737833245e-01 4.829946394429e-02 4.116748831917e-03 2.157008814938e-02 5.305708756635e-02 
504 303 143 2 2 1.953546695552e-03 7.692317652663e-04 1.795708409861e-03 -7.647860058977e-06 2.593267109874e-01 1.021129129535e-01 2.383742128519e-01 -1.015227534464e-03 -3.602991828706e-02 1.570800779886e-02 6.428517954391e-02 7.534905991301e-02 
505 303 455 2 3 2.222101526338e-03 1.330554346040e-03 -1.614607811818e-03 -7.485999863771e-04 1.272248041716e-01 7.617991982283e-02 -9.244319408352e-02 -4.286054689259e-02 -3.602772311362e-04 -2.642818330062e-02 5.636091843848e-02 6.225055661987e-02 
506 75 485 1 3 1.999999395329e-03 -9.320047590616e-04 5.792544833501e-04 -1.672073250166e-03 1.154257215300e-08 -5.378867715427e-09 3.343044345230e-09 -9.650015985113e-09 -8.778773199407e-11 5.906918691186e-11 6.939568861240e-11 1.265370156479e-10 
507 413 429 3 3 2.382763572596e-03 9.891025742557e-04 -1.608604505184e-03 1.453144826365e-03 1.162441845546e+00 4.825381062039e-01 -7.847648886633e-01 7.089231903797e-01 -6.870970817979e-03 3.522442143299e-01 3.946046633850e-01 5.289953091796e-01 
508 413 122 3 2 2.179175606883e-03 2.142901569774e-03 -3.878962705125e-04 7.947119740914e-05 5.146066397274e-01 5.060406204092e-01 -9.160069326250e-02 1.876691613317e-02 -3.426535092407e-02 -1.583563435654e-01 1.510162120903e-01 2.214875665483e-01 
509 413 248 3 2 2.143575033977e-03 -1.850546635850e-03 6.294540624485e-04 8.798742285697e-04 9.479084366990e-01 -8.183286056344e-01 2.783503291706e-01 3.890884113106e-01 -7.420800348576e-02 -2.719258182813e-01 3.845940548505e-02 2.844812898937e-01 
510 413 465 3 3 2.397442518296e-03 -3.154717843048e-04 -1.852792029270e-03 -1.488411864410e-03 9.511048320441e-01 -1.251528393845e-01 -7.350330355630e-01 -5.904774381488e-01 -3.268520235173e-01 1.692213030185e-01 -1.413716830488e-01 3.942766128503e-01 
511 117 10 2 1 1.690564659218e-03 -7.326379138635e-04 -1.080016069022e-03 1.074623582851e-03 3.474690346381e-01 -1.505822254602e-01 -2.219803536355e-01 2.208720127305e-01 1.385877261080e-01 2.961610101632e-03 9.746036725966e-02 1.694516218529e-01 
512 57 175 1 2 1.734456928696e-03 -2.313810005965e-05 1.606533656914e-03 6.533414689360e-04 4.646801434557e-02 -6.198952235205e-04 4.304080878631e-02 1.750373863356e-02 4.208875090267e-03 8.659827017920e-03 -2.114501964491e-02 2.323400717244e-02 
513 57 275 1 2 1.731907059170e-03 -1.383706848300e-03 -5.829304273826e-04 -8.631625202713e-04 5.835965833980e-02 -4.662643903533e-02 -1.964286732235e-02 -2.908578119596e-02 -6.202813560678e-04 2.062900427666e-02 -1.293729333626e-02 2.435804025934e-02 
514 10 430 1 3 1.904957967214e-03 -1.730282360728e-03 2.885621527622e-04 7.427783606151e-04 7.348210192955e-01 -6.674414185836e-01 1.113103485076e-01 2.865203124959e-01 -4.967332938530e-02 -1.271664313101e-01 -6.630977568782e-02 1.517752524496e-01 
515 175 485 2 3 2.165420140111e-03 2.983792655762e-04 2.143438920773e-03 -7.539091448017e-05 6.715858571098e-01 9.253968368720e-02 6.647685768252e-01 -2.338182368474e-02 -3.752199592958e-02 9.746559618154e-03 1.286013006989e-01 1.343174975362e-01 
516 175 456 2 3 2.125329370772e-03 -1.846738440187e-03 1.035377714643e-03 -1.859436899239e-04 1.201841884641e+00 -1.044302891550e+00 5.854905696004e-01 -1.051483679699e-01 -1.629661805631e-01 -3.158046958564e-01 -1.399414743848e-01 3.819348088159e-01 
517 288 430 2 3 2.146674489717e-03 -1.269679090710e-03 -1.717953748597e-03 2.115686392096e-04 9.068019572609e-01 -5.363400413356e-01 -7.257009989983e-01 8.937119113740e-02 -1.883273137912e-01 1.322817669495e-01 -5.606357908077e-02 2.368728939462e-01 
518 288 460 2 3 2.220187515947e-03 -1.709551152693e-03 7.578830472498e-04 -1.196779323428e-03 1.405394361953e-01 -1.082157941258e-01 4.797453160933e-02 -7.575697555122e-02 2.968917080131e-02 3.136977740100e-02 -2.254428460722e-02 4.872119216018e-02 
519 248 103 2 2 1.974933284628e-03 -1.890749792231e-04 -1.934515844535e-03 3.496578015820e-04 1.027941833367e-01 -9.841247919574e-03 -1.006904779714e-01 1.819949485924e-02 -2.948550010567e-02 -4.584754465118e-03 -4.130967595272e-02 5.095982748505e-02 
520 456 357 3 2 2.108833330982e-03 -2.835594024192e-04 -1.064164490327e-03 -1.798423204001e-03 1.448102650407e+00 -1.947157777518e-01 -7.307450030646e-01 -1.234948902792e+00 -6.132503175548e-02 1.788220488449e-01 -9.614354664287e-02 2.120888168527e-01 
521 77 119 1 2 1.704828691928e-03 9.653251879947e-04 -1.390570498199e-03 -2.022420326805e-04 2.302199545074e-01 1.303574499404e-01 -1.877825486809e-01 -2.731075080073e-02 5.936072889040e-03 1.657756048262e-04 2.719374369692e-02 2.783458530585e-02 
522 171 268 2 2 1.905286959045e-03 -1.426969231717e-03 5.349245173393e-04 1.143561528204e-03 7.549827532145e-01 -5.654461414328e-01 2.119674324886e-01 4.531439355816e-01 -1.250328095926e-01 -9.882477031006e-02 -1.097922382020e-01 1.935300345447e-01 
523 171 162 2 2 1.909862044209e-03 8.542614457465e-04 3.663766817112e-04 1.668405986959e-03 7.009449450211e-01 3.135253899296e-01 1.344651483063e-01 6.123273386932e-01 2.625766753836e-01 -1.307574532868e-01 -1.057312487752e-01 3.118062202925e-01 
524 1 420 1 3 1.884758411353e-03 1.709335183277e-03 -6.232387345408e-04 4.919969310342e-04 9.811193651234e-01 8.898020243324e-01 -3.244296923519e-01 2.561111884214e-01 1.525341500043e-01 2.590656284630e-01 -2.017741342573e-01 3.620697005049e-01 
525 1 320 1 2 1.608196352473e-03 -3.564777539102e-04 -5.775534495804e-04 1.457961293023e-03 1.280501420418e+00 -2.838398865458e-01 -4.598679827979e-01 1.160879082805e+00 -2.438423546067e-01 1.735123465274e-01 9.114288155749e-03 2.994139251040e-01 
526 1 164 1 2 1.598230491670e-03 -8.172602190972e-04 -3.871566599813e-04 -1.317776976358e-03 1.417835191956e+00 -7.250145117748e-01 -3.434575552041e-01 -1.169036995582e+00 3.044284395650e-02 3.482199317718e-01 -1.211854463639e-01 3.699591869947e-01 
527 104 268 2 2 1.908250243087e-03 1.261625775648e-03 -8.325375664578e-04 1.164731983291e-03 7.198296570116e-01 4.759101447263e-01 -3.140496028146e-01 4.393598937454e-01 8.582010405063e-02 -1.470062841434e-01 -1.980379286189e-01 2.611416454888e-01 
528 104 164 2 2 1.856791960243e-03 -9.446581324499e-04 9.769888046664e-07 1.598529462322e-03 1.403697276484e+00 -7.141424974473e-01 7.385838336384e-04 1.208456036371e+00 8.906476233873e-02 1.463785516971e-01 5.254375593095e-02 1.792206979529e-01 
529 268 417 2 3 2.157845511468e-03 -1.271217126436e-04 -1.634971838826e-03 1.402499343239e-03 7.637932910667e-01 -4.499613653992e-02 -5.787163700743e-01 4.964301584140e-01 -9.601412249204e-02 1.092646229051e-01 1.186732118462e-01 1.877253332569e-01 
530 268 370 2 2 1.966351165679e-03 1.091598547140e-03 1.574646591033e-03 4.420832862715e-04 1.598738392036e-01 8.875222983889e-02 1.280263669538e-01 3.594350462806e-02 -3.888690718610e-02 3.835766262964e-02 -4.060517977886e-02 6.806087317823e-02 
531 268 331 2 2 1.982914759478e-03 -3.720480630713e-04 -1.664717602082e-03 -1.011062059144e-03 5.784342658814e-02 -1.085298030117e-02 -4.856132617184e-02 -2.949359961875e-02 -2.675079093906e-02 3.715823455698e-03 3.725570758894e-03 2.726338271929e-02 
532 467 319 3 2 2.184069500656e-03 -7.432076009236e-05 9.280058508107e-04 1.975712820522e-03 4.622007520617e-01 -1.572803026560e-02 1.963879821744e-01 4.181075516274e-01 -2.948976700001e-02 -2.811058516713e-02 1.209441238803e-02 4.249854311815e-02 
533 467 367 3 2 2.144079360170e-03 1.613086402528e-03 -7.707701744453e-04 1.183613914614e-03 9.411784887015e-01 7.080904982717e-01 -3.383420974974e-01 5.195665683171e-01 6.568951121894e-02 3.102334688278e-02 -6.932242509544e-02 1.004149319429e-01 
534 467 157 3 2 2.090774688676e-03 1.198052857962e-03 1.523354140179e-03 7.844745451167e-04 1.734679558565e+00 9.940037126161e-01 1.263900554056e+00 6.508649473323e-01 -3.923583342413e-01 3.034176282521e-01 1.001118962781e-02 4.960922731716e-01 
535 467 285 3 2 2.106728793530e-03 2.059061352636e-03 3.058325922743e-04 -3.240971784419e-04 1.480605905534e+00 1.447105298001e+00 2.149386971957e-01 -2.277750215602e-01 9.926364537935e-02 -1.617145150818e-01 4.780429351518e-01 5.143247063195e-01 
536 467 314 3 2 2.181282046755e-03 -1.923183344229e-03 -5.194839821016e-04 8.885345149849e-04 4.918202693390e-01 -4.336259731994e-01 -1.171296267599e-01 2.003405681200e-01 -3.941556895119e-02 1.284536911125e-01 -1.021201831043e-02 1.347524513846e-01 
537 467 363 3 2 2.037914743439e-03 -1.744797419394e-03 -2.162165963157e-04 -1.030547839880e-03 2.666654910147e+00 -2.283104639493e+00 -2.829240281403e-01 -1.348493829884e+00 -1.858698573395e-01 2.204108538712e-01 2.684482485043e-01 3.939454410152e-01 
538 467 262 3 2 2.163847648785e-03 1.368457140696e-03 -1.345797891939e-03 -9.991945432604e-04 6.904016212867e-01 4.366227119218e-01 -4.293930060375e-01 -3.188050383470e-01 -1.926354173134e-01 1.644859258378e-02 -2.859801382389e-01 3.452008106431e-01 
539 467 298 3 2 2.135867467769e-03 -5.206372106654e-04 -1.842475255884e-03 -9.466528752395e-04 1.052725836059e+00 -2.566115412833e-01 -9.081187542944e-01 -4.665860380301e-01 7.806374351006e-02 -1.092487237313e-01 1.696980855619e-01 2.163947132697e-01 
540 367 238 2 2 1.894363425843e-03 -6.402553672182e-05 1.908003545559e-04 1.883642414186e-03 8.892908301708e-01 -3.005617714464e-02 8.956940541880e-02 8.842579535713e-01 1.505916986965e-01 -5.415558665073e-02 1.060425237201e-02 1.603843429084e-01 
541 367 89 2 1 1.710873240676e-03 -1.489346489166e-03 -2.342950918508e-06 8.419790920510e-04 1.855922268336e-01 -1.615614324191e-01 -2.541587932931e-04 9.133626672384e-02 -2.052042451681e-02 -4.565617128942e-03 -3.631054441107e-02 4.195698174972e-02 
542 367 285 2 2 1.905560262379e-03 4.459749501074e-04 1.076602766720e-03 -1.507711093056e-03 7.517172432189e-01 1.759309672111e-01 4.247049436422e-01 -5.947712328069e-01 5.316403247668e-02 1.574720258585e-01 1.281708719581e-01 2.098847914826e-01 
543 367 411 2 3 2.150078900523e-03 1.521832978341e-03 -1.184399470382e-03 -9.508215179858e-04 8.623566312414e-01 6.103788843263e-01 -4.750405843591e-01 -3.813568148419e-01 -3.123062433850e-02 -1.149808170754e-01 9.324086929302e-02 1.512937536662e-01 
544 367 204 2 2 1.948528970741e-03 -8.610271557727e-04 -1.595430899308e-03 -7.141411851804e-04 3.024590821063e-01 -1.336523537059e-01 -2.476496745056e-01 -1.108520789823e-01 1.871911849790e-02 -6.960917578905e-02 1.329414443005e-01 1.512258918442e-01 
545 363 314 2 2 1.951068868650e-03 -1.783859248348e-04 -3.032673857859e-04 1.919082354865e-03 2.803497970819e-01 -2.563233857773e-02 -4.357660123266e-02 2.757536432541e-01 3.089387858741e-04 -5.969869280720e-02 -9.405305675618e-03 6.043582663382e-02 
546 363 331 2 2 1.976476839032e-03 -5.548235058107e-04 1.885177486823e-03 2.115122119609e-04 9.344710999328e-02 -2.623185465696e-02 8.913050964676e-02 1.000022087064e-02 -3.900057274387e-02 -1.157580399127e-02 8.699761075216e-04 4.069153193015e-02 
547 363 351 2 2 1.762978152332e-03 -1.684638543520e-03 2.274101550656e-04 4.673002938797e-04 2.988855538809e+00 -2.856042903895e+00 3.855385846104e-01 7.922350426192e-01 3.451870684336e-02 -8.817155552342e-02 1.673498862874e-01 1.922803910074e-01 
548 363 462 2 3 2.219281344143e-03 -1.071940763577e-03 -1.899403348035e-03 4.103895774914e-04 1.469956243954e-01 -7.100073286012e-02 -1.258082855786e-01 2.718243558796e-02 6.434341102022e-02 -3.451526114140e-02 8.318736045026e-03 7.348863288131e-02 
549 285 157 2 2 1.858124219148e-03 -8.610084946735e-04 1.217521547905e-03 1.108571723559e-03 1.384155088081e+00 -6.413830014712e-01 9.069569343181e-01 8.257979611127e-01 -2.254438734506e-01 -2.129027393893e-01 5.872834505669e-02 3.155971087145e-01 
550 285 262 2 2 1.913262628579e-03 -6.906042119395e-04 -1.651630484213e-03 -6.750973648186e-04 6.616552183750e-01 -2.388286238575e-01 -5.711761220773e-01 -2.334659589704e-01 9.914485209780e-03 7.024946104484e-03 -2.732879931326e-02 2.990836265412e-02 
551 148 320 2 2 1.907445049651e-03 3.183730047788e-04 1.582620353286e-03 1.016020700888e-03 7.293262185047e-01 1.217323559029e-01 6.051270089283e-01 3.884832938367e-01 9.363892335927e-02 2.196583460981e-02 -6.355744751469e-02 1.152835417246e-01 
552 148 394 2 2 1.957517201146e-03 9.176943452821e-04 -1.367572563181e-03 1.058043461232e-03 2.267994734577e-01 1.063247843662e-01 -1.584480264403e-01 1.225857426756e-01 1.572193282130e-02 2.350486650217e-02 1.674475795948e-02 3.286403566277e-02 
553 148 417 2 3 2.204630236685e-03 1.936752735046e-03 -6.954692512035e-04 -7.910157042857e-04 2.638462153750e-01 2.317871136647e-01 -8.323251980598e-02 -9.466734893005e-02 3.918743558670e-02 1.249752717644e-01 -1.393156360557e-02 1.317139405111e-01 
554 419 299 3 2 2.203368511800e-03 9.711571619251e-04 2.128950220429e-04 1.966306760204e-03 2.749286937265e-01 1.211776280279e-01 2.656430370029e-02 2.453489491900e-01 -1.180763834124e-01 3.773455517480e-02 5.423224322680e-02 1.353036037192e-01 
555 419 180 3 2 2.192160603491e-03 -9.536454922483e-04 -2.965395985904e-04 1.951459108739e-03 3.797840349250e-01 -1.652156928454e-01 -5.137443173113e-02 3.380833562686e-01 5.912438554137e-02 1.028303696991e-01 4.451898577540e-02 1.266953747876e-01 
556 419 304 3 2 2.049450145554e-03 6.406539415228e-04 1.712554866593e-03 9.257236386912e-04 2.452079952788e+00 7.665151992550e-01 2.048999076914e+00 1.107588970232e+00 -1.724444627328e-01 3.031006485400e-02 6.326896404845e-02 1.861686186510e-01 
557 419 420 3 3 2.400957409915e-03 -2.295022399990e-03 -6.606185376977e-04 2.470866556869e-04 9.026312146964e-01 -8.628053326161e-01 -2.483571389774e-01 9.289133044883e-02 -6.926457218045e-02 2.716922005392e-01 8.305247997132e-02 2.924242589502e-01 
558 419 443 3 3 2.346665042513e-03 7.778391062016e-04 -2.160715769236e-03 4.828151936198e-04 1.738757927093e+00 5.763387136251e-01 -1.600979093263e+00 3.577411901650e-01 -6.490434432155e-02 -1.263583654362e-01 -4.609204071941e-01 4.823138316444e-01 
559 419 330 3 2 2.199399654140e-03 -6.004607931685e-05 1.624964875131e-03 -1.480959979737e-03 3.107644538693e-01 -8.484218414223e-03 2.295996187079e-01 -2.092524286975e-01 5.342308692128e-02 -5.883112508304e-02 -6.671777769653e-02 1.037612131555e-01 
560 419 295 3 2 2.158252443348e-03 1.124294049475e-03 8.995057793567e-05 -1.840088419904e-03 7.587397971720e-01 3.952487771712e-01 3.162238201965e-02 -6.468883280078e-01 -5.484948743645e-02 5.155233738876e-02 -3.099296163221e-02 8.140438214876e-02 
561 419 370 3 2 2.199583145791e-03 -1.523735347127e-03 3.165955726319e-04 -1.554401444465e-03 3.090755956359e-01 -2.141084827395e-01 4.448659527790e-02 -2.184175457176e-01 -1.016509908135e-01 -8.157841489560e-02 8.302992980882e-02 1.545377978176e-01 
562 419 162 3 2 2.076664233793e-03 -3.341032168027e-04 -1.426598854029e-03 -1.471640271982e-03 1.970304626710e+00 -3.169915979449e-01 -1.353533362213e+00 -1.396267913491e+00 6.194613512289e-01 -3.547476877685e-01 2.032552522396e-01 7.422203077298e-01 
563 435 160 3 2 2.168738754639e-03 8.689733283420e-05 -1.748362149756e-03 1.280275920543e-03 6.324501547537e-01 2.534110274052e-02 -5.098594331904e-01 3.733555746826e-01 1.462199616937e-02 -1.256265240116e-01 -1.725497359615e-01 2.139374620949e-01 
564 435 394 3 2 2.176831274145e-03 1.173949428568e-03 1.503959343431e-03 -1.048114224962e-03 5.403676572913e-01 2.914163858394e-01 3.733366920642e-01 -2.601795715835e-01 1.045272975941e-01 -1.215306085846e-01 -5.730991111025e-02 1.702353390949e-01 
565 435 386 3 2 2.160780558601e-03 -6.172293255995e-04 -6.385684884481e-04 -1.969830162123e-03 7.275960869516e-01 -2.078386165917e-01 -2.150241178337e-01 -6.632976737109e-01 -1.739436181841e-01 8.157148604199e-02 2.806034885621e-02 1.941588855037e-01 
566 420 180 3 2 2.199256906604e-03 1.341376907742e-03 3.640789391073e-04 1.704372453052e-03 3.120804240790e-01 1.903449628649e-01 5.166377305609e-02 2.418549994499e-01 -7.518193985866e-02 1.332414220379e-01 3.070744446717e-02 1.560402120394e-01 
567 420 129 3 2 2.202026907471e-03 5.756636031993e-04 -1.759590539270e-03 1.192214347878e-03 2.868782757291e-01 7.499698633361e-02 -2.292380252860e-01 1.553207162267e-01 -1.167443464496e-01 1.707540192470e-02 8.157189768701e-02 1.434391378637e-01 
568 420 417 3 3 2.427185139690e-03 -4.474332069199e-04 -2.232404319529e-03 -8.410720431848e-04 5.689936211695e-01 -1.048896668300e-01 -5.233320676334e-01 -1.971685718121e-01 6.180190209025e-02 1.810681596391e-02 -8.093713014650e-02 1.034318660891e-01 
569 420 370 3 2 2.189792344112e-03 7.712870528635e-04 9.772141103296e-04 -1.801488100152e-03 4.033468560383e-01 1.420665337113e-01 1.799970851745e-01 -3.318235006805e-01 1.877495271111e-01 -5.191536178121e-02 5.222146923983e-02 2.016734280189e-01 
570 319 250 2 2 1.913764806125e-03 4.720809601633e-04 7.081996833601e-05 1.853272735541e-03 6.559174251596e-01 1.617994681824e-01 2.427260190603e-02 6.351845727981e-01 -6.543465246968e-02 5.429550385095e-02 1.459323667207e-02 8.627084118532e-02 
571 319 475 2 3 2.125918944905e-03 -1.256892235615e-03 -1.196118102135e-03 1.228435897433e-03 1.193326589455e+00 -7.055221594563e-01 -6.714082579804e-01 6.895489705105e-01 7.975809472366e-02 -3.853547803706e-02 4.408398283426e-02 9.894308608500e-02 
572 319 417 2 3 2.158972843192e-03 -1.980373814684e-03 7.707008029520e-04 -3.811870460583e-04 7.498209354702e-01 -6.877926931734e-01 2.676678397597e-01 -1.323879679014e-01 2.535947086948e-02 1.112860557040e-01 9.325348497944e-02 1.473903029977e-01 
573 319 89 2 1 1.713336462707e-03 1.980606734549e-04 -1.701118976175e-03 4.988018614340e-05 1.683451100005e-01 1.946059433468e-02 -1.671446720486e-01 4.901013668904e-03 -1.878480206033e-02 2.178079390060e-04 8.201749204408e-02 8.414145963759e-02 
574 319 157 2 2 1.841853099019e-03 1.272373618054e-03 5.953482893682e-04 -1.191238275405e-03 1.628971114496e+00 1.125312258487e+00 5.265377390642e-01 -1.053554565319e+00 2.062661086401e-02 6.108827229536e-02 5.256173783247e-02 8.318635928887e-02 
575 443 489 3 3 2.485590387314e-03 1.657413951976e-03 7.429662842582e-04 1.696802777508e-03 5.009053951989e-02 3.340082078125e-02 1.497253216520e-02 3.419459900473e-02 -1.464163686724e-02 1.262024622744e-02 8.775820018212e-03 2.122882855895e-02 
576 443 250 3 2 2.128760015565e-03 -1.067839938264e-03 -1.432187922606e-03 1.157659200482e-03 1.152576881386e+00 -5.781617546667e-01 -7.754310853860e-01 6.267926968013e-01 -5.645850048764e-02 1.298350221057e-01 1.085462014631e-01 1.784011577725e-01 
577 443 276 3 2 2.146856678971e-03 1.339155762685e-03 -1.610653649925e-03 -4.705850223843e-04 9.044046088988e-01 5.641450850768e-01 -6.785187845098e-01 -1.982429788127e-01 2.310013628785e-02 -1.768069412744e-02 1.262516915845e-01 1.295596884424e-01 
578 443 157 3 2 2.110838045473e-03 -2.675472803727e-04 -9.076596015740e-04 -1.886851810465e-03 1.417365567365e+00 -1.796501174762e-01 -6.094666850061e-01 -1.266965408648e+00 -4.029802141208e-01 -2.335447851249e-01 1.694862443778e-01 4.956428216621e-01 
579 157 162 2 2 1.847431561186e-03 -8.443950426316e-04 1.641776516782e-03 -6.760365513739e-05 1.543545402997e+00 -7.054995236363e-01 1.371718795147e+00 -5.648345156890e-02 2.689305211033e-01 1.544989681840e-01 3.930139420067e-01 5.006530884379e-01 
580 157 415 2 3 2.126930717010e-03 7.035517036737e-04 1.277167170623e-03 -1.548448673190e-03 1.178760579465e+00 3.899135064784e-01 7.078153990055e-01 -8.581615943968e-01 3.447825245721e-01 -2.280462293655e-01 -3.143844914926e-02 4.145701967858e-01 
581 22 299 1 2 1.701291730852e-03 -1.432978271990e-03 -2.983697452572e-04 8.671460779964e-04 2.577822437273e-01 -2.171269909019e-01 -4.520942587209e-02 1.313912585194e-01 4.434299680576e-02 -2.723181922222e-02 6.390780211427e-02 8.241407959169e-02 
582 22 375 1 2 1.706516878231e-03 -6.507420483840e-06 -7.788001097043e-04 -1.518429418278e-03 2.174352912656e-01 -8.291408578145e-04 -9.923056188390e-02 -1.934701889217e-01 9.292978915241e-02 6.964458526514e-03 -3.970322367780e-03 9.327493154209e-02 
583 200 416 2 3 2.220727168823e-03 -4.170497854311e-04 -8.780792395994e-04 1.996666092217e-03 1.367408228936e-01 -2.567975555397e-02 -5.406755024852e-02 1.229443077594e-01 4.754998925757e-02 -4.782853811780e-02 -1.110177292734e-02 6.835071249819e-02 
584 200 111 2 2 1.972545834371e-03 1.676116649969e-03 1.037907130397e-03 -6.571782910561e-05 1.178242685871e-01 1.001179363785e-01 6.199635332646e-02 -3.925462725669e-03 -1.252760063642e-04 -6.143874016080e-04 -1.289839103706e-02 1.291362293479e-02 
585 200 475 2 3 2.198526307512e-03 3.771592030086e-04 1.228395962167e-03 -1.783903646652e-03 3.188446037358e-01 5.469808399278e-02 1.781499827633e-01 -2.587133250925e-01 1.155585131027e-01 2.098987847933e-02 3.888541782244e-02 1.237191200596e-01 
586 314 321 2 2 1.905457289234e-03 -1.661543833526e-03 6.826412642645e-04 6.356417817379e-04 7.529470438210e-01 -6.565639254686e-01 2.697477003669e-01 2.511757168176e-01 -1.106405301214e-02 -1.245044408525e-01 1.047893038390e-01 1.631090655363e-01 
587 314 76 2 1 1.697427642846e-03 9.570767584285e-04 -1.401384254204e-03 -3.724047858115e-05 2.890580968731e-01 1.629823736633e-01 -2.386443199598e-01 -6.341750065563e-03 6.280656237740e-03 1.449845161820e-03 1.068536194900e-01 1.070478616876e-01 
588 351 266 2 2 1.776650622534e-03 -1.551522491197e-03 4.724542849012e-04 7.252946591142e-04 2.734006075106e+00 -2.387566729662e+00 7.270382081577e-01 1.116122651865e+00 -1.049779864420e-01 -9.025936459762e-02 -1.657702588575e-01 2.159789555875e-01 
589 351 462 2 3 2.214039989738e-03 6.126977799429e-04 -2.126813503101e-03 -5.691071638840e-05 1.861790490666e-01 5.152187429481e-02 -1.788441570092e-01 -4.785633099673e-03 -7.204811799734e-02 -2.149891036858e-02 2.777070853409e-02 8.015202247280e-02 
590 417 394 3 2 2.215676569652e-03 -1.019058389764e-03 -6.721033119772e-04 1.849059165518e-03 1.736149625689e-01 -7.985090722073e-02 -5.266436128343e-02 1.448877251338e-01 -5.152488737873e-02 -4.812639051897e-02 -4.588970260674e-02 8.412388655495e-02 
591 417 321 3 2 2.168838557342e-03 -1.530032602978e-03 -1.535549371600e-03 -7.034947774093e-05 6.312853849337e-01 -4.453476804265e-01 -4.469534502020e-01 -2.047667263441e-02 1.166765843873e-03 -6.236137664866e-03 1.107429337684e-01 1.109245154830e-01 
592 52 358 1 2 1.650121404556e-03 -2.458017413296e-05 -1.329715039852e-03 9.768082604113e-04 7.569332813434e-01 -1.127526242074e-02 -6.099584949249e-01 4.480753232791e-01 -9.981632700720e-02 1.501307302625e-01 2.018590497320e-01 2.706466538959e-01 
593 52 89 1 1 1.439606245029e-03 1.464660177452e-04 1.428100750440e-03 1.074341331499e-04 3.329208822659e-01 3.387148119012e-02 3.302601412315e-01 2.484503420100e-02 -7.608716899607e-02 -1.980366543924e-04 1.063628534738e-01 1.307759653126e-01 
594 52 76 1 1 1.451468563549e-03 -9.433804814174e-04 2.803456394989e-04 -1.066864837112e-03 2.398212757799e-01 -1.558715884594e-01 4.632056843143e-02 -1.762744938101e-01 -4.455459657966e-02 6.856334862480e-02 5.741437006752e-02 9.991223519306e-02 
595 52 204 1 2 1.651122242561e-03 7.747853511383e-04 -1.649871979494e-04 -1.448686144082e-03 7.455845035724e-01 3.498638298928e-01 -7.450199319470e-02 -6.541719999435e-01 3.869626282346e-03 8.938375126767e-02 -8.110138263577e-03 8.983431048826e-02 
596 89 475 1 3 1.939305910630e-03 -1.454952909070e-03 5.050008740392e-04 1.178555711290e-03 3.749968267998e-01 -2.813391745230e-01 9.765025943448e-02 2.278932114413e-01 5.771741646711e-02 6.066522128010e-02 4.525889842984e-02 9.518370198560e-02 
597 129 337 2 2 1.858262819133e-03 -1.614473223077e-03 5.071747849935e-04 7.677178221239e-04 1.382127283092e+00 -1.200802957720e+00 3.772233402177e-01 5.710084368843e-01 -3.947855356949e-02 1.346023997009e-01 -1.719433975771e-01 2.219028935538e-01 
598 129 250 2 2 1.859770841837e-03 1.429357964728e-03 -1.172694614875e-03 2.011733905365e-04 1.360128199669e+00 1.045349261056e+00 -8.576406186232e-01 1.471265143728e-01 1.531848772379e-01 1.336522822391e-01 -3.092989220096e-01 3.701274946805e-01 
599 475 250 3 2 2.232689288814e-03 1.728973195778e-03 1.266938070471e-03 6.248368381077e-04 6.218325771522e-02 4.815411905025e-02 3.528584874754e-02 1.740250662225e-02 -1.763468496979e-02 2.545204977736e-02 -2.810770915737e-03 3.109162885720e-02 
600 475 111 3 2 2.162345704938e-03 1.298957446961e-03 -1.904888317700e-04 1.718185817547e-03 7.085343225322e-01 4.256284888114e-01 -6.241734384095e-02 5.629967592323e-01 -2.125009757698e-01 1.070342313552e-02 1.618384954146e-01 2.673255067666e-01 
601 475 394 3 2 2.184047553155e-03 -1.742539968833e-03 1.294715593110e-03 2.394362220261e-04 4.624315689217e-01 -3.689505251533e-01 2.741320179428e-01 5.069617996563e-02 -1.993697998015e-02 -5.276112975608e-02 1.402029843367e-01 1.511227871659e-01 
602 475 125 3 2 2.223559550724e-03 1.524655571677e-03 -1.554511613139e-03 4.507062324678e-04 1.173827690290e-01 8.048729468959e-02 -8.206340935579e-02 2.379299693974e-02 -3.342267866997e-02 -4.010329144360e-02 -2.525582782652e-02 5.799315712469e-02 
603 475 327 3 2 2.159910278260e-03 -1.635829277392e-03 -1.155929315242e-03 -8.081475134690e-04 7.382678657451e-01 -5.591344240078e-01 -3.951022767498e-01 -2.762287609727e-01 -2.116428643503e-02 -6.287906120087e-02 1.327788649592e-01 1.484315678609e-01 
604 181 295 2 2 1.954967114863e-03 1.476585193310e-03 -9.290608339016e-05 1.277873642722e-03 2.475238230460e-01 1.869545576099e-01 -1.176309758365e-02 1.617951355864e-01 -6.687361585029e-02 -4.777087664887e-02 7.379946092235e-02 1.104558626109e-01 
605 181 370 2 2 1.958287370251e-03 -1.171444203291e-03 1.337389113061e-04 1.563560618160e-03 2.206600478167e-01 -1.319984685801e-01 1.506971602434e-02 1.761821916481e-01 8.070010961256e-02 -3.791239737063e-02 6.370462214010e-02 1.095816428417e-01 
606 181 251 2 2 1.959389787767e-03 -6.322026963211e-04 1.854546060794e-03 -1.367477838796e-05 2.119704119180e-01 -6.839285720047e-02 2.006282235835e-01 -1.479362822997e-03 -2.095852845327e-02 -6.742560830164e-03 5.452728705568e-02 5.880431170524e-02 
607 488 485 3 3 2.450208027207e-03 5.614877709156e-04 8.592542588148e-04 2.224844484095e-03 3.217483504572e-01 7.373160241415e-02 1.128327216821e-01 2.921548027077e-01 -8.868454266751e-02 3.446861847659e-02 9.069388497130e-03 9.557869833568e-02 
608 488 180 3 2 2.195079503953e-03 2.002975191573e-03 -5.338271894153e-04 -7.221446824953e-04 3.514008440475e-01 3.206476902808e-01 -8.545810053724e-02 -1.156050386769e-01 1.591601017134e-02 5.579516321191e-02 2.900247605459e-03 5.809329611746e-02 
609 488 337 3 2 2.232459209428e-03 -3.772113360456e-04 -2.150321882800e-03 -4.665849655454e-04 6.342710253606e-02 -1.071707021032e-02 -6.109347304975e-02 -1.325629257925e-02 -3.091520017291e-02 6.171913603999e-03 -3.450683225131e-03 3.171355126735e-02 
610 488 320 3 2 2.198024923255e-03 -1.404214653355e-03 -8.522208435622e-04 -1.460552773558e-03 3.235145611675e-01 -2.066782239633e-01 -1.254334513253e-01 -2.149703056597e-01 -8.238417685095e-02 2.811540526372e-02 6.280124596107e-02 1.073388331538e-01 
611 180 354 2 2 1.917098158548e-03 7.415748598012e-04 1.142025172540e-03 1.349485302663e-03 6.182564230841e-01 2.391549009765e-01 3.682985115282e-01 4.352035666556e-01 8.665081384369e-02 -1.709114469789e-01 9.702003369784e-02 2.147835496190e-01 
612 180 299 2 2 1.991132678394e-03 1.924802654173e-03 5.094346206333e-04 1.484765146516e-05 2.162774114348e-02 2.090726248857e-02 5.533493686354e-03 1.612756226452e-04 -1.077546139009e-03 3.777662099009e-03 1.007511588563e-02 1.081387057093e-02 
613 331 395 2 2 1.974246087325e-03 -1.951166993756e-03 2.896895161479e-04 -8.170042857324e-05 1.070501230278e-01 -1.057986985870e-01 1.570791936355e-02 -4.430066234571e-03 2.962491246001e-03 1.700128687374e-02 -1.046776120669e-02 2.018400689720e-02 
614 275 193 2 2 1.999998864197e-03 1.892867897931e-03 -4.403769571975e-04 -4.723502020143e-04 3.065542896087e-08 2.901335516538e-08 -6.749976097005e-09 -7.240053142887e-09 3.739158676696e-10 1.192354333671e-08 -9.618034188530e-09 1.532374890261e-08 
615 275 403 2 3 2.205781952196e-03 -2.149559035326e-03 -3.871841893994e-04 3.081531725662e-04 2.538636154285e-01 -2.473929155787e-01 -4.456105829491e-02 3.546537245693e-02 -2.605058285871e-02 1.201121001229e-01 -3.080208307119e-02 1.267056343844e-01 
616 275 365 2 2 1.947961811258e-03 5.334608499371e-04 -1.811835298779e-03 4.766839516952e-04 3.074720270010e-01 8.420303103885e-02 -2.859854175209e-01 7.524119827171e-02 9.979456851863e-02 3.370791347699e-02 1.644001670487e-02 1.066088808967e-01 
617 275 337 2 2 1.957867082503e-03 7.202489068556e-04 1.323326863456e-03 -1.250316374914e-03 2.240034264201e-01 8.240509504086e-02 1.514044310449e-01 -1.430511573502e-01 -4.020596374063e-02 2.630817013140e-02 4.683620038954e-03 4.827603580085e-02 
618 415 295 3 2 2.187282390218e-03 -8.954948002790e-05 1.881158778123e-03 1.112396870131e-03 4.288301929813e-01 -1.755672745937e-02 3.688127721682e-01 2.180922621712e-01 -1.044873190189e-01 -2.947648466627e-03 -3.426646002729e-03 1.045850389400e-01 
619 415 162 3 2 2.173011981604e-03 -1.547946746305e-03 3.646093461586e-04 1.480845018052e-03 5.832245746435e-01 -4.154604716070e-01 9.785916167266e-02 3.974507333959e-01 -2.654234045629e-02 8.049641070664e-02 -4.756464881207e-02 9.719343491288e-02 
620 394 337 2 2 1.954103072479e-03 4.276819768066e-04 1.652091877229e-03 9.519450476689e-04 2.546817205764e-01 5.574055086788e-02 2.153200656449e-01 1.240686870867e-01 -5.801345680162e-02 2.212300283319e-02 -1.233046322128e-02 6.330109594377e-02 
621 238 454 2 3 2.161361803349e-03 9.188899993776e-04 1.459659977893e-03 1.302504803429e-03 7.204974688402e-01 3.063151748441e-01 4.865827265986e-01 4.341945030067e-01 -1.667097873336e-01 -3.981184105358e-02 1.622256646288e-01 2.359964028224e-01 
622 238 125 2 2 1.930585963476e-03 -1.355618289837e-03 -1.242654044575e-03 5.875986216224e-04 4.736889986301e-01 -3.326148031664e-01 -3.048978709855e-01 1.441733276521e-01 3.252888139080e-02 4.503034244587e-02 1.702758992642e-01 1.791081844461e-01 
623 375 326 2 2 1.907004734898e-03 -7.177860871281e-04 1.759232669450e-03 -1.629435693314e-04 7.345368862012e-01 -2.764756414860e-01 6.776182898103e-01 -6.276233081801e-02 9.357803110624e-02 2.195832422280e-02 -1.751477988381e-01 1.997893073871e-01 
624 375 295 2 2 1.941108997706e-03 -1.273333963957e-03 3.574859203399e-04 -1.420819683834e-03 3.701653426628e-01 -2.428220690591e-01 6.817180197305e-02 -2.709472810387e-01 -1.394492418609e-02 1.701111132824e-01 5.529827209537e-02 1.794161382637e-01 
625 111 233 2 2 1.829020619891e-03 -4.964585508685e-04 -5.916378487667e-04 1.657953555189e-03 1.831209197887e+00 -4.970526055493e-01 -5.923457935341e-01 1.659937436961e+00 1.231234817103e-01 9.875216340920e-02 7.210770309643e-02 1.735249329990e-01 
626 111 303 2 2 1.897395383243e-03 1.289659064862e-03 7.755879413882e-04 1.155574351542e-03 8.512805434136e-01 5.786151264257e-01 3.479732954139e-01 5.184570230451e-01 -3.325200718801e-02 -2.463400874970e-02 5.364396728304e-02 6.775105604324e-02 
627 111 250 2 2 1.872009270930e-03 4.300157488174e-04 1.457426902241e-03 -1.093348979439e-03 1.186014831160e+00 2.724372489226e-01 9.233554278985e-01 -6.926932069112e-01 -1.241792086050e-01 1.144259929492e-02 -3.358695526682e-02 1.291491095304e-01 
628 111 125 2 2 1.875633836917e-03 2.256981247164e-04 -1.364022781369e-03 -1.267479585079e-03 1.135993150290e+00 1.366959364161e-01 -8.261316819821e-01 -7.676594964550e-01 -1.432678045509e-01 7.125607100587e-02 -1.021950811023e-01 1.898602804105e-01 
629 298 262 2 2 1.954002686559e-03 1.889094351362e-03 4.966773639454e-04 -5.254166802099e-05 2.555177377710e-01 2.470299137336e-01 6.494867039353e-02 -6.870680497926e-03 -1.220665439127e-02 3.344789958976e-02 -1.226970422646e-01 1.277588688854e-01 
630 337 357 2 2 1.879740313221e-03 -1.489978001221e-03 8.373504451569e-04 7.824534701959e-04 1.080195728091e+00 -8.562182023490e-01 4.811847505807e-01 4.496381175586e-01 1.478522888259e-02 5.447184161171e-02 -3.013898711176e-02 6.398549105699e-02 
631 337 320 2 2 1.930744448445e-03 -1.027003317310e-03 1.298101039237e-03 -9.939678080131e-04 4.720676585679e-01 -2.511026520026e-01 3.173861350065e-01 -2.430254590132e-01 -1.494519454635e-01 1.901713081620e-02 1.792551022102e-01 2.341579102565e-01 
632 295 325 2 2 1.921169859772e-03 5.755247838302e-04 1.265170968522e-03 -1.326275715568e-03 5.732720934340e-01 1.717350998254e-01 3.775237290898e-01 -3.957572268099e-01 -6.795678860407e-02 -4.817596104360e-02 -7.544558204316e-02 1.123880962989e-01 
633 320 357 2 2 1.892698926285e-03 -4.629746839113e-04 -4.607505940804e-04 1.776421278209e-03 9.103920572266e-01 -2.226917705063e-01 -2.216219787457e-01 8.544622705227e-01 -1.844926059557e-01 1.516366608663e-01 -8.752836133022e-03 2.389724057530e-01 
634 320 470 2 3 2.145608773588e-03 -9.273186690322e-04 1.875955009267e-03 4.738247551235e-04 9.208673976458e-01 -3.979931197392e-01 8.051355068779e-01 2.033594262672e-01 -1.967504754630e-01 -1.553277592308e-01 2.299109487070e-01 3.401418920362e-01 
635 250 454 2 3 2.142970116324e-03 2.070190665113e-03 -1.191356611427e-04 5.407755761669e-04 9.560017407810e-01 9.235340542181e-01 -5.314768440958e-02 2.412457309831e-01 -8.447789407261e-02 -2.423326607291e-01 2.700101343433e-01 3.725145711124e-01 
636 160 131 2 2 1.928095348972e-03 -1.764141341445e-03 6.208542682875e-04 4.689317430948e-04 4.994106990336e-01 -4.569437196115e-01 1.608122047952e-01 1.214615914835e-01 8.018551810060e-02 2.332349711745e-01 -7.136091615938e-03 2.467370926621e-01 
637 160 422 2 3 2.176648377235e-03 -7.577101497201e-04 -1.999870094806e-03 -4.052074666496e-04 5.423950178848e-01 -1.888124028241e-01 -4.983439618382e-01 -1.009729056007e-01 1.207571210340e-01 -6.451820530251e-02 9.261708182708e-02 1.652961129066e-01 
638 321 327 2 2 1.913325245912e-03 6.176849046551e-04 -1.587198848729e-03 8.718249077636e-04 6.609388486480e-01 2.133730010526e-01 -5.482817842372e-01 3.011630939335e-01 -2.852323303462e-01 -9.746302281928e-02 2.465002664153e-02 3.024304001010e-01 
639 321 266 2 2 1.976757923955e-03 -1.396231276357e-03 3.204905614882e-04 -1.362129183609e-03 9.177717628314e-02 -6.482440891185e-02 1.487977784348e-02 -6.324111247491e-02 -2.095731797691e-02 -3.891847112114e-02 1.232501320120e-02 4.588858814131e-02 
640 455 168 3 2 2.130343307271e-03 -1.657077664226e-03 -9.006320484180e-04 9.906150286144e-04 1.130073242881e+00 -8.790222323916e-01 -4.777540672081e-01 5.254869175367e-01 2.349067296904e-01 -3.193832686593e-01 1.025745465456e-01 4.095221380492e-01 
641 455 398 3 2 2.219955938099e-03 7.727458688450e-04 -2.017224239251e-03 5.117368052653e-04 1.421801803753e-01 4.949158905861e-02 -1.291959454112e-01 3.277489882956e-02 3.818299030313e-02 2.530251322309e-02 4.208236489757e-02 6.220195623344e-02 
642 455 454 3 3 2.382397379872e-03 -1.200069969716e-04 2.177311111529e-03 -9.595477684369e-04 1.167892472944e+00 -5.882950915239e-02 1.067355630885e+00 -4.703869411779e-01 1.348083443480e-01 -2.680658857538e-02 -7.768683360358e-02 1.578832702101e-01 
643 276 454 2 3 2.195815242117e-03 -3.368050358356e-04 5.933006617624e-05 2.169019799033e-03 3.443632368602e-01 -5.282014174351e-02 9.304559527462e-03 3.401609864447e-01 -2.371618125758e-02 -3.960579931724e-02 -2.599291445250e-03 4.623670521368e-02 
644 276 215 2 2 1.961193000608e-03 7.643944330656e-04 1.797358112841e-03 1.774343555687e-04 1.980101537920e-01 7.717642231140e-02 1.814687061562e-01 1.791450613135e-02 7.891283798923e-02 -3.186714150597e-02 -1.715490073549e-02 8.681613517382e-02 
645 276 243 2 2 1.885560287880e-03 4.480634453427e-04 -1.831434125421e-03 2.063473828118e-05 1.002738033716e+00 2.382794446037e-01 -9.739538245523e-01 1.097352178199e-02 1.042933085717e-01 2.614144679583e-02 5.555284957221e-02 1.210230909744e-01 
646 276 191 2 2 1.949071605740e-03 3.924117770662e-04 1.107951916720e-03 -1.554778335248e-03 2.976886803818e-01 5.993445481279e-02 1.692214606399e-01 -2.374668583459e-01 -5.210503000822e-02 6.427335324164e-02 3.265105792953e-02 8.894992789767e-02 
647 276 227 2 2 1.952347835804e-03 8.310457002672e-04 -7.591375582776e-04 -1.595222643912e-03 2.694302143744e-01 1.146869513063e-01 -1.047633988757e-01 -2.201458013997e-01 -9.973155084099e-02 3.579303859592e-02 -6.898931434647e-02 1.264399040615e-01 
648 327 333 2 2 1.934708354377e-03 8.536519374557e-04 -1.546961932994e-03 -7.882154299675e-04 4.321243870474e-01 1.906663706654e-01 -3.455197655857e-01 -1.760508806227e-01 1.420957602831e-01 2.293673708283e-02 1.088764044104e-01 1.804754011930e-01 
649 454 143 3 2 2.146336632084e-03 -4.413155838019e-04 1.233005110151e-03 1.700499894755e-03 9.112531846599e-01 -1.873658703710e-01 5.234872370583e-01 7.219678038597e-01 -8.234159756200e-02 -4.146879839188e-02 8.698977390667e-03 9.260384515112e-02 
650 454 303 3 2 2.167908817298e-03 -1.210547349068e-03 -5.627032997104e-04 1.708147754814e-03 6.421638700701e-01 -3.585804736704e-01 -1.666803168842e-01 5.059764341243e-01 2.544639549638e-01 -1.434826149213e-01 1.330695922163e-01 3.210088496181e-01 
651 454 371 3 2 2.171032598332e-03 1.858756456524e-03 -1.069843266259e-03 3.374053407860e-04 6.058608281600e-01 5.187152541896e-01 -2.985566074848e-01 9.415827258941e-02 1.123944477137e-01 1.637536846366e-01 -9.994841370942e-02 2.223453766372e-01 
652 125 439 2 3 2.237149391960e-03 1.373767486398e-03 -1.511377904927e-03 9.128730052749e-04 3.977284210441e-02 2.442332976111e-02 -2.686981700408e-02 1.622938281666e-02 -1.356348785978e-02 -1.419243784071e-02 -3.085925789000e-03 1.987250444106e-02 
653 125 255 2 2 1.938856345824e-03 -1.794119830820e-03 -6.718248924934e-04 -2.982436524488e-04 3.916060992724e-01 -3.623725244462e-01 -1.356937692213e-01 -6.023862140163e-02 2.409233101648e-02 1.760082689805e-02 -1.845779518001e-01 1.869739281612e-01 
654 462 498 3 3 2.470253980616e-03 -1.417197210566e-03 -6.956219263403e-04 1.899951823260e-03 1.485664177074e-01 -8.523330572925e-02 -4.183620732363e-02 1.142672123649e-01 -2.057144769889e-02 3.359920171303e-02 -3.042949190793e-03 3.951392610156e-02 
655 462 401 3 3 2.456749211929e-03 1.802231105222e-03 -1.569467571014e-03 5.695184608212e-04 2.604764101554e-01 1.910812411293e-01 -1.664025276850e-01 6.038309627684e-02 1.904081141162e-03 -1.501286456952e-02 -4.739758270649e-02 4.975482362538e-02 
656 299 489 2 3 2.201835592048e-03 1.464095896253e-03 -1.630644507021e-03 2.133112109236e-04 2.885960437598e-01 1.919000150917e-01 -2.137296513893e-01 2.795884115258e-02 1.323663694312e-02 1.348372443191e-02 1.222371456285e-02 2.250419027279e-02 
657 395 266 2 2 1.959155337606e-03 -7.301705351508e-04 -1.475002563004e-03 1.062783169606e-03 2.138086803034e-01 -7.968576841275e-02 -1.609715908619e-01 1.159848137514e-01 7.913954954440e-02 1.189474593535e-02 7.088007237755e-02 1.069043401514e-01 
658 370 209 2 2 1.948728922133e-03 -9.889377255625e-04 5.842375891180e-04 -1.574234107870e-03 3.006983370900e-01 -1.525978940347e-01 9.015069747151e-02 -2.429119684376e-01 3.133009969664e-02 3.884541420880e-02 -5.265142178810e-03 5.018229841506e-02 
659 357 290 2 2 1.893801154063e-03 -1.629512777262e-03 9.649616277865e-04 -4.469538133944e-06 8.964004218202e-01 -7.713037547606e-01 4.567491197966e-01 -2.115584236504e-03 -5.202376932053e-02 -8.741994647957e-02 9.318702936914e-02 1.379584794764e-01 
660 464 483 3 3 2.448328582678e-03 1.188255693256e-03 7.101297368155e-04 2.019424921381e-03 3.401362524720e-01 1.650794919203e-01 9.865541298592e-02 2.805504252030e-01 1.941396882630e-02 5.654743374914e-02 -3.130830591166e-02 6.748869881884e-02 
661 464 429 3 3 2.355117713855e-03 -2.153939164751e-03 7.910570700324e-04 5.304283482403e-04 1.596983014819e+00 -1.460565746172e+00 5.364083065411e-01 3.596784388885e-01 7.697716664781e-02 1.554110837093e-01 8.081222936638e-02 1.913340156376e-01 
662 464 92 3 1 1.934472711357e-03 1.631363302056e-03 -6.696252999255e-04 7.952612183367e-04 4.206697602674e-01 3.547556939707e-01 -1.456164838795e-01 1.729372268234e-01 -9.349989696313e-03 1.188625537883e-01 1.192647159772e-01 1.686410432769e-01 
663 464 96 3 1 1.956598191987e-03 1.890865054633e-03 5.024615914856e-04 -2.093272881983e-05 2.267617130262e-01 2.191435117573e-01 5.823323954902e-02 -2.426017495538e-03 -2.213216065807e-03 6.314092535520e-03 -4.835986478023e-02 4.882051424825e-02 
664 464 97 3 1 1.912566879313e-03 -1.468739978524e-03 -1.020307343471e-03 -6.780028526416e-04 6.483685756206e-01 -4.979093061440e-01 -3.458886725148e-01 -2.298459460889e-01 -8.896761993139e-02 5.168973787831e-02 1.149418188996e-01 1.542682343521e-01 
665 464 391 3 2 2.207875569166e-03 1.577023024817e-04 -2.202157503169e-03 -1.862374684944e-05 2.360489964423e-01 1.686031167577e-02 -2.354376650072e-01 -1.991107114549e-03 1.014154459701e-01 7.768670716293e-03 -5.983689332190e-02 1.180080451852e-01 
666 464 286 3 2 2.116277885828e-03 1.215424724283e-03 -1.180735946534e-03 -1.267768691129e-03 1.335075882531e+00 7.667633099077e-01 -7.448795342103e-01 -7.997850450022e-01 7.691378584459e-02 3.156130462894e-02 4.434353862867e-02 9.422417853683e-02 
667 426 142 3 2 2.212754650060e-03 -3.910568847049e-04 6.668093162824e-04 2.073336198016e-03 1.962497681149e-01 -3.468293375454e-02 5.913948647390e-02 1.838847104327e-01 9.119541699905e-02 3.575625998280e-02 5.700951147563e-03 9.812041099371e-02 
668 426 220 3 2 2.085286069003e-03 1.094089685727e-03 1.419759595956e-03 1.065677455356e-03 1.825141720436e+00 9.575994205314e-01 1.242641242411e+00 9.327316828179e-01 3.939479368532e-01 -1.285965326415e-01 -2.331270235641e-01 4.754789735353e-01 
669 426 463 3 3 2.395601243425e-03 -2.266510057458e-03 1.053438350444e-04 7.685962225769e-04 9.768330287411e-01 -9.241946631040e-01 4.295511939980e-02 3.134036509788e-01 -9.848382751693e-02 -1.323005996058e-01 -2.722854042091e-01 3.183423538955e-01 
670 426 368 3 2 2.222664358177e-03 2.208298706807e-03 2.510854489671e-04 2.469347971966e-05 1.233942800981e-01 1.225967511314e-01 1.393935530770e-02 1.370892614494e-03 -6.685282882072e-03 5.652724100703e-02 2.308033818668e-02 6.142250396957e-02 
671 426 273 3 2 2.172124997999e-03 1.203579220752e-03 9.288032515949e-04 -1.551402135533e-03 5.933325994770e-01 3.287668934260e-01 2.537097304156e-01 -4.237773897715e-01 -9.941830814227e-02 -3.616086545116e-02 -9.877783182471e-02 1.447365477136e-01 
672 426 67 3 1 1.921457390139e-03 -1.236042285260e-03 2.837322969207e-04 -1.443500590528e-03 5.520341938453e-01 -3.551146176875e-01 8.151621295500e-02 -4.147173332579e-01 1.382385546129e-01 2.901171410189e-02 -1.126685640014e-01 1.806814402498e-01 
673 342 339 2 2 1.934071874912e-03 7.150302770094e-04 8.389652939182e-04 1.589183109616e-03 4.384584384110e-01 1.620989699198e-01 1.901953166395e-01 3.602713806191e-01 5.730027958315e-02 1.739982808732e-01 -1.176390263060e-01 2.177100463859e-01 
674 342 428 2 3 2.220690718933e-03 -3.805216176171e-04 2.175412399320e-03 2.329194293462e-04 1.369963071889e-01 -2.347470360218e-02 1.342030489788e-01 1.436899853767e-02 -5.140841081683e-02 -1.307565216334e-02 3.813732595602e-02 6.533186828252e-02 
675 342 179 2 2 1.949299610197e-03 -8.778469075485e-05 -1.678127389541e-03 9.879024662654e-04 2.956918160331e-01 -1.331617494480e-02 -2.545573460091e-01 1.498562215811e-01 6.959052869865e-02 -6.781409794173e-02 -1.090104699604e-01 1.460303945252e-01 
676 342 451 2 3 2.198102259638e-03 1.999790792999e-03 -4.431054451983e-04 -7.975887991308e-04 3.227927558305e-01 2.936705871286e-01 -6.507032470938e-02 -1.171264372993e-01 -2.543997379539e-03 -6.504812916336e-02 2.975934184166e-02 7.157757649690e-02 
677 342 318 2 2 1.924991876730e-03 -1.784009469537e-03 -4.980919273717e-04 -5.242216801757e-04 5.320896401617e-01 -4.931204999698e-01 -1.376782715847e-01 -1.449008323316e-01 1.203416434966e-03 1.048471820246e-01 -1.037165064489e-01 1.474838753884e-01 
678 339 206 2 2 1.879247555468e-03 1.050167011375e-03 1.410308970582e-03 6.631359064667e-04 1.086841575592e+00 6.073522170919e-01 8.156362471773e-01 3.835171536176e-01 6.176147668097e-02 -6.496136308782e-02 4.034727641632e-02 9.829731130736e-02 
679 339 219 2 2 1.984233697617e-03 1.956946530057e-03 -3.098158674605e-04 -1.075070859342e-04 5.127635447714e-02 5.057120241861e-02 -8.006228430463e-03 -2.778186588499e-03 -2.626265224786e-03 -1.882887936252e-02 6.455620725967e-03 2.007732566944e-02 
680 339 286 2 2 1.895232792610e-03 -9.918765359894e-04 -1.371757372986e-03 8.522734216180e-04 8.783354289804e-01 -4.596798378178e-01 -6.357335654790e-01 3.949815264406e-01 -1.063993099210e-02 -9.243509125647e-02 -1.611595672723e-01 1.860910001868e-01 
681 339 115 2 2 1.951398269001e-03 1.075930720087e-03 1.050446621204e-03 -1.243740401303e-03 2.775236232153e-01 1.530165299982e-01 1.493922368088e-01 -1.768820583640e-01 -3.426161793182e-02 2.114714257572e-02 -1.177832829682e-02 4.194984052284e-02 
682 339 428 2 3 2.196764891784e-03 -1.095551894627e-03 1.336447105402e-03 -1.356263680269e-03 3.353500100849e-01 -1.672429035467e-01 2.040170761790e-01 -2.070422012647e-01 2.114837484003e-02 -6.033983241025e-03 -2.302888591894e-02 3.184324573273e-02 
683 263 228 2 2 1.944408837643e-03 7.364443433836e-04 1.718968338706e-03 5.324690672069e-04 3.394931296504e-01 1.285829348789e-01 3.001312942932e-01 9.296892020259e-02 -9.923775804244e-02 3.123339018509e-02 3.642254157223e-02 1.102282124428e-01 
684 263 35 2 1 1.737693433808e-03 -6.963180750035e-04 1.048418000404e-03 1.198139935380e-03 3.273816241154e-02 -1.311863979344e-02 1.975220605925e-02 2.257296887534e-02 -1.232256897707e-03 1.162464844023e-02 -1.088815507819e-02 1.597506899602e-02 
685 263 232 2 2 1.971100383965e-03 1.020691572843e-03 -1.904325982382e-04 1.675458403638e-03 1.272507882078e-01 6.589406009860e-02 -1.229399498037e-02 1.081646598047e-01 4.320539340006e-02 4.129679195838e-02 -2.162699203143e-02 6.355987593785e-02 
686 263 106 2 2 1.945681215246e-03 -7.331331066234e-04 -1.802194300135e-03 -1.693941837935e-05 3.279045199543e-01 -1.235544946964e-01 -3.037227538713e-01 -2.854790295790e-03 -6.563122308490e-02 2.652120051671e-02 1.889474963201e-02 7.326556547331e-02 
687 263 368 2 2 1.978217826362e-03 4.336620748826e-04 1.276103786405e-03 -1.448047685563e-03 8.326723436940e-02 1.825372370280e-02 5.371381839063e-02 -6.095128878382e-02 1.224485509204e-02 -5.591966355815e-03 -1.260870200743e-03 1.352022032412e-02 
688 474 149 3 2 2.230064945995e-03 1.183984050604e-03 1.874282660251e-03 2.417352699842e-04 7.684705411793e-02 4.079956800132e-02 6.458695352496e-02 8.330090748275e-03 -4.715415100425e-03 3.830344211071e-03 -6.602973032317e-03 8.972509638340e-03 
689 474 59 3 1 1.947212951410e-03 -1.230276925780e-03 1.419275924203e-03 5.135297605841e-04 3.041578811181e-01 -1.921712890534e-01 2.216932449608e-01 8.021419730044e-02 1.904180705614e-02 3.324239694174e-02 -4.625523120029e-02 6.005991827990e-02 
690 474 133 3 2 2.234605885411e-03 1.945753186739e-03 -1.067766834367e-03 2.595804053410e-04 5.214746126288e-02 4.540670441934e-02 -2.491774052707e-02 6.057649458679e-03 4.990540707061e-03 1.425967988936e-02 2.124834021118e-02 2.607174579551e-02 
691 474 418 3 3 2.467518042419e-03 -6.905197665846e-04 -2.365606134273e-03 1.254406597125e-04 1.695276971024e-01 -4.744128465137e-02 -1.625259687266e-01 8.618241406339e-03 4.432443451493e-02 -1.384417703079e-02 -1.708355117688e-02 4.947892938960e-02 
692 474 45 3 1 1.946818387242e-03 -5.286613560716e-04 -1.195527664908e-03 -1.442682434196e-03 3.075744405133e-01 -8.352228532479e-02 -1.888793300197e-01 -2.279268808248e-01 2.610407902427e-02 -4.203620725402e-02 2.526906132735e-02 5.556069764117e-02 
693 97 105 1 2 1.674115806985e-03 -5.095734970434e-05 -5.245562577683e-04 1.588995851519e-03 5.012748746867e-01 -1.525798811578e-02 -1.570661188921e-01 4.757876922400e-01 8.331687769508e-02 8.964874369701e-02 3.226655171169e-02 1.265690709244e-01 
694 97 82 1 1 1.391002442495e-03 2.120529897706e-04 -1.360070595325e-03 -2.003229899206e-04 8.071943917059e-01 1.230536905314e-01 -7.892447369831e-01 -1.162468080959e-01 3.254408184411e-01 2.229604283614e-02 1.931206511109e-01 3.790836658565e-01 
695 97 120 1 2 1.701023027434e-03 5.716611256484e-04 3.753822610164e-04 -1.557488701531e-03 2.599183045107e-01 8.735048740485e-02 5.735884773646e-02 -2.379860919386e-01 1.847476789502e-02 2.609984488039e-02 1.307150758856e-02 3.454537975176e-02 
696 97 457 1 3 1.878741483181e-03 -1.761077741242e-03 -4.424221705063e-04 -4.822212904577e-04 1.058952220636e+00 -9.926310785685e-01 -2.493711583582e-01 -2.718039234987e-01 -1.351492776373e-02 2.812233196250e-01 -2.086564714964e-01 3.504379144309e-01 
697 210 26 2 1 1.688632470377e-03 1.097875909085e-03 1.179577771810e-03 -5.047220903792e-04 3.645498078424e-01 2.370145420703e-01 2.546527190445e-01 -1.089617452520e-01 -3.183789234811e-02 3.595202325152e-02 1.476882548030e-02 5.024258722553e-02 
698 210 139 2 2 1.918166825902e-03 -1.824902477421e-03 -4.749487732177e-04 -3.514521058604e-04 6.063403402459e-01 -5.768591001226e-01 -1.501332401663e-01 -1.110954410064e-01 -2.729234083493e-02 9.425125902130e-02 1.434431727181e-02 9.916617938262e-02 
699 115 206 2 2 1.940706554923e-03 -2.576370871134e-05 3.598623493778e-04 1.906876307770e-03 3.739662375661e-01 -4.964561586133e-03 6.934400695310e-02 3.674472869233e-01 -1.721593176893e-02 -1.440953734469e-01 2.696082233638e-02 1.476033566574e-01 
700 115 219 2 2 1.979274877939e-03 8.810158099705e-04 -1.360262488665e-03 1.136233315369e-03 7.728016078617e-02 3.439898328855e-02 -5.311101808399e-02 4.436386996118e-02 5.097595831731e-03 -4.958057613068e-03 -9.888217637171e-03 1.217968253274e-02 
701 115 37 2 1 1.749995880186e-03 1.555517652128e-03 2.602585224189e-04 7.583639733621e-04 1.984130868140e-07 1.763633060209e-07 2.950789621134e-08 8.598268063770e-08 2.696259205413e-08 5.856205847811e-08 -7.540187127185e-08 9.920654340702e-08 
702 115 428 2 3 2.193124372048e-03 -2.171482614713e-03 2.860004841978e-04 -1.125232789661e-04 3.703313012676e-01 -3.666768709682e-01 4.829408346651e-02 -1.900069729447e-02 1.300640115514e-02 9.228192299312e-02 -1.644547986881e-02 9.463389239819e-02 
703 115 131 2 2 1.933174595862e-03 1.360633940396e-03 1.165181226565e-03 -7.267681938485e-04 4.474399319824e-01 3.149234213231e-01 2.696852161606e-01 -1.682130066878e-01 -9.034766135709e-02 1.046861318213e-02 -1.523625605636e-01 1.774447565755e-01 
704 184 483 2 3 2.171502554923e-03 -1.655050634285e-03 1.395389233012e-03 -1.706447549229e-04 6.004604140607e-01 -4.576519548187e-01 3.858507993605e-01 -4.718641475508e-02 -2.901214399242e-02 -3.671277344879e-02 -1.882297232572e-02 5.043646022982e-02 
705 184 418 2 3 2.171960602998e-03 1.872114317991e-03 -1.095369101077e-03 -1.129928039817e-04 5.952123857178e-01 5.130413636463e-01 -3.001791353830e-01 -3.096497990528e-02 -2.425078183184e-02 -3.988987032829e-02 -1.509923186300e-02 4.906413126833e-02 
706 349 122 2 2 1.976134738030e-03 4.654166659547e-04 5.324128803352e-04 1.845272975675e-03 9.549304404259e-02 2.249039669454e-02 2.572786442759e-02 8.916939222086e-02 4.327425458687e-02 -1.450307011364e-02 -6.730135931351e-03 4.613344646160e-02 
707 349 40 2 1 1.691791293923e-03 1.424173161584e-03 -7.100519520193e-04 5.742079879718e-04 3.367680438606e-01 2.834959675394e-01 -1.413429704834e-01 1.143018654683e-01 -3.890620225031e-02 -3.417976894354e-02 5.423079795250e-02 7.498618956275e-02 
708 349 465 2 3 2.217734394286e-03 -1.992956688124e-03 -9.324828784218e-04 2.773899138553e-04 1.582380477958e-01 -1.421998849289e-01 -6.653378811487e-02 1.979210790968e-02 8.446617289946e-03 -1.519240436323e-02 9.614933066787e-03 1.986457731384e-02 
709 349 405 2 3 2.202496361545e-03 -7.397572947252e-04 2.072389559104e-03 -9.460910547101e-05 2.826776583518e-01 -9.494356652415e-02 2.659792034113e-01 -1.214253102082e-02 -5.080655126819e-02 -2.177229633997e-02 -7.965578605117e-02 9.695557122267e-02 
710 349 398 2 2 1.964691489791e-03 2.443836817927e-05 -7.826844598093e-04 -1.801893574158e-03 1.718468093118e-01 2.137564914499e-03 -6.845951530559e-02 -1.576072696642e-01 -3.298856491290e-02 7.027678547800e-02 -3.097338010175e-02 8.358482079338e-02 
711 384 185 2 2 1.971450980763e-03 1.174630376398e-03 1.566605707602e-03 -2.293665304809e-04 1.249421974159e-01 7.444308877604e-02 9.928482194181e-02 -1.453627739750e-02 2.085652779450e-03 -5.971304390699e-03 -3.010381861755e-02 3.076111699859e-02 
712 384 29 2 1 1.686335442793e-03 -4.956743627362e-04 1.578113445067e-03 3.280123568478e-04 3.852082191834e-01 -1.132264872808e-01 3.604871571914e-01 7.492759307853e-02 5.473116297115e-02 3.575144568500e-02 -8.929847365620e-02 1.106701561672e-01 
713 384 147 2 2 1.976576045486e-03 1.551836455923e-03 -1.220532714568e-03 9.463810188464e-05 9.285657516561e-02 7.290294691327e-02 -5.733879453370e-02 4.445955945510e-03 1.193738710773e-02 1.509899347449e-02 -1.014993001111e-03 1.927462128538e-02 
714 384 14 2 1 1.682783847596e-03 -4.120580129410e-04 -1.601111031958e-03 3.137086786273e-04 4.178875496914e-01 -1.023268161295e-01 -3.976056502351e-01 7.790361858759e-02 4.689636126949e-02 -2.845592596143e-02 -8.363515999956e-02 1.000192402030e-01 
715 228 249 2 2 1.893107937639e-03 -2.538829641429e-04 -2.408062058657e-04 1.860487429489e-03 9.051916494275e-01 -1.213944194649e-01 -1.151417530645e-01 8.895941174588e-01 1.412537712480e-01 -1.367331998495e-01 1.577932259993e-03 1.965987937478e-01 
716 228 392 2 2 1.866987543441e-03 1.725453194253e-03 4.255673206630e-04 5.721417808461e-04 1.256495176449e+00 1.161241607307e+00 2.864096697086e-01 3.850552674565e-01 8.169060615530e-02 -1.863196465046e-01 -1.077735740644e-01 2.302249097605e-01 
717 228 35 2 1 1.716264434309e-03 -1.432762418387e-03 -6.705503383019e-04 6.656708681735e-04 1.485870495068e-01 -1.240426219507e-01 -5.805346444424e-02 5.763102017805e-02 -3.049253963999e-02 3.835556221687e-02 -2.699416556699e-02 5.594308805676e-02 
718 228 178 2 2 1.979749944565e-03 9.465540009568e-04 1.466016342949e-03 -9.350087959379e-04 7.463828631271e-02 3.568590504463e-02 5.527008491380e-02 -3.525064082346e-02 -2.215692670880e-02 -4.592547252862e-03 -2.963124739361e-02 3.728312907402e-02 
719 228 220 2 2 1.848617245890e-03 -1.416991289581e-03 7.258095946890e-04 -9.395327771343e-04 1.525586921381e+00 -1.169383972751e+00 5.989804690679e-01 -7.753573219072e-01 7.694377699092e-02 -1.468104849853e-01 -2.294599249342e-01 2.830645164447e-01 
720 177 368 2 2 1.965317646284e-03 -4.362723008890e-04 4.760392963235e-04 1.856212950776e-03 1.672958601804e-01 -3.713727904905e-02 4.052240802328e-02 1.580084231499e-01 -7.994322386329e-02 7.894995081167e-03 -2.081406774366e-02 8.298479020294e-02 
721 177 452 2 3 2.203850864039e-03 1.090266869426e-03 -1.035086963626e-03 1.611481232310e-03 2.706739586498e-01 1.339050905611e-01 -1.271279697565e-01 1.979199280481e-01 -5.917455744515e-02 -1.161713324427e-01 -3.458394125071e-02 1.348831187464e-01 
722 177 212 2 2 1.924478272135e-03 3.259908297523e-04 1.888688473563e-03 -1.737885170816e-04 5.375640672208e-01 9.105894249659e-02 5.275669111270e-01 -4.854430597183e-02 -2.851206695927e-03 1.288848771264e-02 1.347204715784e-01 1.353656084736e-01 
723 177 273 2 2 1.867104307499e-03 -1.440991786944e-03 1.153757098951e-03 2.801173355239e-04 1.254841039078e+00 -9.684598894498e-01 7.754155732364e-01 1.882608952059e-01 -6.283384088296e-03 -5.748810137026e-02 2.044607489173e-01 2.124819064357e-01 
724 177 278 2 2 1.868294585705e-03 1.361947532205e-03 -8.510623774813e-04 -9.546289374045e-04 1.238020380771e+00 9.024908680419e-01 -5.639541947459e-01 -6.325822970442e-01 -1.678432292222e-03 -2.043653141203e-01 1.797993825441e-01 2.722054678248e-01 
725 177 158 2 2 1.967049164387e-03 2.967777038527e-04 3.285310972760e-04 -1.916578390710e-03 1.549251736484e-01 2.337426950824e-02 2.587517293206e-02 -1.509500857260e-01 2.313793360410e-02 7.218369850397e-02 1.595625445738e-02 7.746258682415e-02 
726 273 132 2 2 1.930650263550e-03 9.128147433536e-04 1.214766754757e-03 1.191016967134e-03 4.730309777948e-01 2.236498545314e-01 2.976314854346e-01 2.918125209781e-01 -7.449799260736e-02 -1.260765516694e-01 1.856870856094e-01 2.364845482172e-01 
727 273 368 2 2 1.988175056195e-03 1.004719486055e-03 -6.777178026279e-04 1.576095615252e-03 3.330588903556e-02 1.683105097318e-02 -1.135312198059e-02 2.640273828377e-02 -1.423378656784e-02 -5.394938482760e-03 6.753852220824e-03 1.665294451778e-02 
728 273 179 2 2 1.847592286761e-03 -1.461020315013e-03 1.054234970005e-03 4.093965378915e-04 1.541106935315e+00 -1.218660933062e+00 8.793546256756e-01 3.414843460646e-01 1.541065387172e-01 1.952410467689e-01 4.719835878314e-02 2.531710423619e-01 
729 273 212 2 2 1.966820331430e-03 1.766982616697e-03 7.349313746116e-04 -4.539058526056e-04 1.565418379356e-01 1.406364892602e-01 5.849416253216e-02 -3.612696863110e-02 6.237993284270e-03 2.958985290658e-02 7.219324622702e-02 7.827091896766e-02 
730 273 62 2 1 1.647356390910e-03 3.247645756935e-04 -4.809921185342e-04 -1.541738509266e-03 7.885819489527e-01 1.554633128960e-01 -2.302487211375e-01 -7.380231534119e-01 1.648816049301e-01 -9.203771370633e-02 6.344598570930e-02 1.992041101263e-01 
731 273 497 2 3 2.185756521702e-03 -1.130866513911e-03 7.142677184787e-04 -1.728726157093e-03 4.445746310381e-01 -2.300139828858e-01 1.452793594584e-01 -3.516163789629e-01 -6.979484116209e-02 -2.050031418703e-01 -3.904521108757e-02 2.200503045633e-01 
732 286 440 2 3 2.189773716779e-03 1.957272305093e-03 3.506401574147e-04 9.171943820273e-04 4.035340766219e-01 3.606884429570e-01 6.461638070852e-02 1.690216597259e-01 7.640197491153e-02 -1.536191842616e-01 -1.043120373328e-01 2.007912265915e-01 
733 286 391 2 2 1.929363058047e-03 -1.057722421801e-03 -1.021421556635e-03 1.249144944279e-03 4.862618311860e-01 -2.665802268610e-01 -2.574312359047e-01 3.148248876688e-01 6.680406133806e-02 -6.581459910631e-02 2.750444012693e-03 9.381848969714e-02 
734 286 179 2 2 1.860203394735e-03 1.890615682252e-04 -1.145335310474e-03 -1.453554064968e-03 1.353839849971e+00 1.375973648289e-01 -8.335650764250e-01 -1.057884004949e+00 -1.554291217444e-03 -1.956731683027e-01 1.539795027279e-01 2.489981764495e-01 
735 178 216 2 2 1.966214927628e-03 1.209582886343e-03 7.840933443579e-04 1.337201559236e-03 1.608457694431e-01 9.894965566857e-02 6.414257948934e-02 1.093894724701e-01 -5.464191280451e-02 -8.198594003012e-03 5.423444587537e-02 7.742306308827e-02 
736 178 392 2 2 1.990156019611e-03 7.788991932967e-04 -1.040449022287e-03 1.507150576784e-03 2.529755019197e-02 9.900852617954e-03 -1.322550147029e-02 1.915790369566e-02 -6.037054237457e-03 -7.995431896226e-03 -2.399615989665e-03 1.030199553344e-02 
737 178 245 2 2 1.987113069139e-03 4.533654350921e-04 6.530129803746e-04 -1.821167806455e-03 3.789192061584e-02 8.645148252143e-03 1.245219328369e-02 -3.472753867007e-02 -1.732200060607e-02 7.457285218070e-03 -1.638230305829e-03 1.893004507008e-02 
738 178 132 2 2 1.961064590180e-03 -1.341241012160e-03 -1.639633786519e-05 -1.430586604950e-03 1.989937741959e-01 -1.360988375663e-01 -1.663774447371e-03 -1.451649421741e-01 3.759460011810e-03 4.647614689634e-04 -3.529994154189e-03 5.177876160362e-03 
739 142 147 2 2 1.901406102474e-03 -2.647498934480e-04 -5.999749282359e-04 1.784736043770e-03 8.018578895883e-01 -1.116498945453e-01 -2.530204510941e-01 7.526559821533e-01 3.674314026231e-02 -3.258436053954e-01 -1.040883619720e-01 3.440327028516e-01 
740 142 61 2 1 1.685340497750e-03 5.747899904361e-04 1.573112146217e-03 1.879021971046e-04 3.942734076359e-01 1.344680250114e-01 3.680183840063e-01 4.395838090499e-02 -2.772095203643e-03 -1.742772105314e-03 2.307023880568e-02 2.330145242212e-02 
741 142 35 2 1 1.711753510619e-03 1.469375441626e-03 -6.434096533172e-04 5.975449026473e-04 1.793644306136e-01 1.539670798453e-01 -6.741905619159e-02 6.261316279742e-02 4.243206030649e-02 5.004293447692e-02 -5.045732980215e-02 8.276905921706e-02 
742 142 16 2 1 1.722509365444e-03 -1.402473698992e-03 -8.357603679567e-04 5.491909003559e-04 1.093014950561e-01 -8.899369440417e-02 -5.303301076843e-02 3.484880122242e-02 -9.561616155192e-03 1.765562106100e-02 2.450792920637e-03 2.022750218116e-02 
743 142 471 2 3 2.201143141545e-03 -2.100773371481e-05 -2.175723413290e-03 3.328925255322e-04 2.948420352191e-01 -2.813975541576e-03 -2.914370751909e-01 4.459078916070e-02 8.943416003963e-02 6.531741952668e-03 4.833413702366e-02 1.018691387848e-01 
744 142 391 2 2 1.891020080734e-03 -1.113168199582e-03 1.440142659156e-03 -5.126427864096e-04 9.318415632165e-01 -5.485380117269e-01 7.096618383036e-01 -2.526159612616e-01 5.306278818617e-02 -4.232102807258e-02 -2.341125817716e-01 2.437528048064e-01 
745 142 220 2 2 1.946270947475e-03 1.485146570432e-03 7.529502796737e-04 -1.007658742660e-03 3.225790291026e-01 2.461513076514e-01 1.247955586527e-01 -1.670114735545e-01 6.458321947992e-02 -1.469933190254e-01 -1.465090622607e-02 1.612224461101e-01 
746 61 145 1 2 1.703547121822e-03 5.147905953237e-04 -5.785969711860e-04 1.517329556875e-03 2.400865853952e-01 7.255115789967e-02 -8.154360355085e-02 2.138423220367e-01 1.065949746805e-02 2.592216670146e-03 -2.628012030040e-03 1.128055498486e-02 
747 61 92 1 1 1.420403123696e-03 -2.142971904435e-04 1.399562716183e-03 1.133399816720e-04 5.037290733921e-01 -7.599794971707e-02 4.963382707454e-01 4.019467642209e-02 2.352642860097e-02 7.370895954297e-03 -4.653594896597e-02 5.266324615944e-02 
748 61 220 1 2 1.711952262992e-03 9.103565799960e-04 -8.201618665428e-04 -1.195560939765e-03 1.779681204496e-01 9.463724718448e-02 -8.526094389920e-02 -1.242860200793e-01 6.319558301897e-03 2.677878334578e-02 -1.355839331501e-02 3.067360565528e-02 
749 105 29 2 1 1.674115806980e-03 4.783071181855e-04 1.012346703129e-04 1.601136339417e-03 5.012748747325e-01 1.432178943371e-01 3.031235740569e-02 4.794228778106e-01 -7.515899907529e-02 -9.772972644402e-02 2.863136618886e-02 1.265690708770e-01 
750 147 16 2 1 1.696048947613e-03 -1.137723805544e-03 -2.357854397208e-04 -1.235545143414e-03 3.005030167268e-01 -2.015799344995e-01 -4.177605607201e-02 -2.189117498175e-01 1.061979979694e-01 2.662069912002e-02 -1.028701899848e-01 1.502296654521e-01 
751 147 471 2 3 2.156442238974e-03 2.437421597332e-04 -1.575748485054e-03 -1.451843518238e-03 7.813053947813e-01 8.831076524719e-02 -5.709129463060e-01 -5.260206615676e-01 -7.499997629890e-02 -1.661951399164e-01 1.677874238151e-01 2.477870871680e-01 
752 368 220 2 2 1.921173766745e-03 -1.114209021080e-03 1.168674146989e-03 1.040983975636e-03 5.732294754765e-01 -3.324516833307e-01 3.487026940914e-01 3.106031888747e-01 5.526663879151e-02 -2.939640328156e-02 9.215646566263e-02 1.114063016738e-01 
753 368 132 2 2 1.933450244228e-03 -9.190474270165e-05 1.892484557384e-03 -3.850786481181e-04 4.446743291799e-01 -2.113717688434e-02 4.352526285848e-01 -8.856425969306e-02 -8.259711427530e-02 -1.792212463758e-02 -6.836597600639e-02 1.087078309665e-01 
754 368 452 2 3 2.161878355976e-03 1.526539170315e-03 -1.511126259949e-03 -2.447317184658e-04 7.142084512261e-01 5.043147657003e-01 -4.992228830739e-01 -8.085073849238e-02 -9.146862144657e-02 -8.715611900564e-02 -3.238866379767e-02 1.304289972823e-01 
755 391 82 2 1 1.664736400818e-03 -1.414389291235e-03 -1.782204356263e-04 -8.597020957128e-04 5.970276637063e-01 -5.072451913122e-01 -6.391554257744e-02 -3.083166400606e-01 -6.973043342075e-02 1.803415323261e-01 7.733543071958e-02 2.082454572646e-01 
756 185 483 2 3 2.237280476509e-03 5.593411641650e-04 2.165266405206e-03 6.467447041600e-05 3.916583105768e-02 9.791826178843e-03 3.790515275649e-02 1.132191251233e-03 -7.437936137115e-03 1.394359431546e-03 1.764504940150e-02 1.919934635829e-02 
757 185 92 2 1 1.722308605619e-03 1.002448772965e-03 7.855113684650e-04 -1.159489232628e-03 1.105009982708e-01 6.431576185976e-02 5.039735044304e-02 -7.439126604351e-02 9.859084446548e-03 3.616659010067e-03 1.097393017561e-02 1.518910504337e-02 
758 179 306 2 2 1.899746386317e-03 -1.860616598832e-03 -1.789380412636e-04 3.392983670239e-04 8.221904129262e-01 -8.052554492058e-01 -7.744251711404e-02 1.468447928091e-01 -1.714900550263e-02 -2.044507058480e-01 -2.018628434634e-01 2.878242294919e-01 
759 179 497 2 3 2.190010941365e-03 3.301538011012e-04 -3.399672515259e-04 -2.138122694985e-03 4.011521910325e-01 6.047546073304e-02 -6.227302578858e-02 -3.916476340774e-01 -1.103079769410e-01 6.715223851198e-02 -2.771036477954e-02 1.320800409987e-01 
760 14 406 1 3 1.944553979690e-03 -6.440391413556e-05 -1.858986557896e-03 -5.668432705215e-04 3.274263018697e-01 -1.084440733021e-02 -3.130183580577e-01 -9.544574115455e-02 -6.191498718743e-02 -3.647217818466e-02 1.266467474617e-01 1.456127881149e-01 
761 14 284 1 2 1.652882710603e-03 -8.335116044068e-04 1.737664798139e-04 -1.416716228051e-03 7.257612720221e-01 -3.659850988693e-01 7.629880850922e-02 -6.220633594682e-01 1.877993322399e-01 -5.306667386645e-02 -1.169988234310e-01 2.275376578706e-01 
762 29 383 1 2 1.659302016749e-03 1.165319888195e-04 1.623047008919e-03 -3.246873653349e-04 6.550061973966e-01 4.600077267505e-02 6.406946045849e-01 -1.281696968749e-01 -9.201177157270e-02 -4.936667102547e-02 -2.797975906010e-01 2.986468248989e-01 
763 440 45 3 1 1.921610969012e-03 1.704582026670e-03 2.195456612103e-04 8.595280875150e-04 5.504158602331e-01 4.882512629648e-01 6.288547261864e-02 2.461985798963e-01 -1.881874853050e-02 -1.365500063239e-01 7.219899249852e-02 1.556044473694e-01 
764 440 92 3 1 1.927277741483e-03 -1.541333727319e-03 1.604704891939e-04 1.145835527438e-03 4.918232271127e-01 -3.933339297763e-01 4.095056573995e-02 2.924064937374e-01 1.979194502680e-03 4.789954393512e-04 2.595254363529e-03 3.298786552927e-03 
765 440 346 3 2 2.100084028945e-03 1.247020888863e-03 1.686079779827e-03 1.114755911804e-04 1.584794485893e+00 9.410441683402e-01 1.272372867474e+00 8.412325401245e-02 -7.299220573603e-02 5.275208685852e-02 1.864604095375e-02 9.196912313048e-02 
766 440 96 3 1 1.878154933846e-03 -1.281831974743e-03 1.332557380605e-03 3.296415802818e-04 1.066645026387e+00 -7.279802511943e-01 7.567883121798e-01 1.872106213186e-01 4.059604095629e-02 5.969393255378e-02 -8.344908117173e-02 1.103410769998e-01 
767 440 220 3 2 2.107306321091e-03 -4.166799568798e-04 -2.059254093532e-03 -1.630653939987e-04 1.471662410720e+00 -2.909933993472e-01 -1.438104566593e+00 -1.138786556255e-01 4.331026857725e-01 -6.781459230889e-02 -2.503151072085e-01 5.048112600271e-01 
768 440 219 3 2 2.238784772033e-03 9.915507609539e-04 7.113013481109e-04 -1.876974889580e-03 3.242748709858e-02 1.436203243389e-02 1.030278371428e-02 -2.718688271269e-02 -8.802522571767e-03 2.851543938179e-03 -3.569488830743e-03 9.917507598719e-03 
769 440 132 3 2 2.162294731628e-03 6.056243214986e-04 -1.335443683136e-03 -1.589128017753e-03 7.091524716210e-01 1.986223146098e-01 -4.379759959429e-01 -5.211750484463e-01 -1.679462162833e-01 -2.676342047739e-01 1.609046546020e-01 3.545762358104e-01 
770 96 92 1 1 1.451654711005e-03 -2.595017525766e-04 -1.172086891411e-03 8.161939471566e-04 2.384428028562e-01 -4.262468530661e-02 -1.925221483183e-01 1.340646442703e-01 -2.083412641378e-02 7.011237498676e-02 9.406012332895e-02 1.191516376319e-01 
771 96 450 1 3 1.888185500537e-03 -7.547094997005e-04 1.379680482769e-03 -1.045054936818e-03 9.376811257199e-01 -3.747920175583e-01 6.851553239067e-01 -5.189788234872e-01 -4.821914050602e-02 6.170005904363e-02 1.162788733921e-01 1.401882990640e-01 
772 346 430 2 3 2.088273994290e-03 7.752232090196e-04 1.761369525945e-03 8.108604346590e-04 1.775705327919e+00 6.591893527129e-01 1.497731265250e+00 6.894924698388e-01 1.275000794630e-01 -1.173463807694e-01 1.330060190672e-01 2.184423137829e-01 
773 346 45 2 1 1.708703325089e-03 4.575611378070e-04 -1.466534118617e-03 7.480524963345e-04 2.012433686587e-01 5.388948648227e-02 -1.727217720888e-01 8.810224811149e-02 8.011174670359e-02 4.553029567588e-02 4.025881900716e-02 1.005568112665e-01 
774 346 206 2 2 1.841037909747e-03 -1.162249646590e-03 7.453464063265e-04 -1.217807488359e-03 1.641582433696e+00 -1.036333143012e+00 6.645966175741e-01 -1.085871925792e+00 -1.889944318376e-01 -1.524510615047e-01 8.706619225528e-02 2.579549248480e-01 
775 145 249 2 2 1.974020715528e-03 1.558674310110e-03 -1.208180695912e-03 8.712970998272e-05 1.084583852817e-01 8.563805715152e-02 -6.638092821233e-02 4.787157287893e-03 -3.148994217477e-03 -3.078504584196e-03 1.364478991470e-02 1.433783968640e-02 
776 26 67 1 1 1.439555427306e-03 -7.317946961945e-04 4.062611968151e-04 1.171216543117e-03 3.333411544567e-01 -1.694532105035e-01 9.407319356279e-02 2.712050312172e-01 3.517245506001e-02 7.034706700441e-02 -2.425057591002e-03 7.868730733346e-02 
777 26 25 1 1 1.432012298050e-03 8.771273412900e-04 -1.071782776213e-04 -1.126862753725e-03 3.976477353588e-01 2.435647384875e-01 -2.976175514262e-02 -3.129124119181e-01 1.695181263907e-02 7.888709996596e-02 5.691833195917e-03 8.088841361975e-02 
778 452 138 3 2 2.162054586719e-03 5.530169297554e-04 6.982483210261e-04 1.970051165209e-03 7.120670521222e-01 1.821346867760e-01 2.299662675755e-01 6.488312248716e-01 1.204903721800e-01 6.077330159178e-02 -5.536306539395e-02 1.458642964685e-01 
779 452 141 3 2 2.189955304712e-03 -1.147927975434e-03 -9.834232797090e-04 -1.584627480760e-03 4.017104089242e-01 -2.105680492359e-01 -1.803924340316e-01 -2.906732169004e-01 -3.296755045985e-02 -1.881346048199e-02 3.555786401710e-02 5.201122352040e-02 
780 452 456 3 3 2.371695980057e-03 1.319557472047e-03 -1.209760919060e-03 -1.555695477431e-03 1.330876493697e+00 7.404692829083e-01 -6.788569798612e-01 -8.729780543851e-01 1.226602073517e-01 5.915807708987e-02 5.803839165692e-02 1.480326297094e-01 
781 249 418 2 3 2.232693026734e-03 7.962952475981e-04 2.075337085932e-03 -2.093036312009e-04 6.216311444495e-02 2.217062176291e-02 5.778197685033e-02 -5.827476246977e-03 2.350132741721e-02 -7.207071030294e-03 1.794949053450e-02 3.043745182591e-02 
782 249 35 2 1 1.732634815013e-03 -1.178879454244e-03 -4.297441324362e-04 -1.194816561315e-03 5.487418116132e-02 -3.733622583306e-02 -1.361040259146e-02 -3.784096906748e-02 9.823136014721e-03 1.930756555059e-02 -1.663653390048e-02 2.731392225361e-02 
783 249 232 2 2 1.894358993272e-03 5.381301936022e-04 -1.668594731078e-03 -7.174980930576e-04 8.893468089906e-01 2.526365763836e-01 -7.833570114501e-01 -3.368446222622e-01 -1.800772707837e-02 7.348547936441e-02 -1.844018634356e-01 1.993199466949e-01 
784 40 450 1 3 1.929765619233e-03 1.177539228536e-03 1.112841601906e-03 1.048322602781e-03 4.668019165686e-01 2.848416218202e-01 2.691915471130e-01 2.535846816230e-01 4.642928328251e-02 -7.401474883545e-02 2.641781178802e-02 9.127848690118e-02 
785 40 120 1 2 1.657387421126e-03 -8.556951792722e-04 -1.414225554803e-03 -1.211812857543e-04 6.758556079256e-01 -3.489385633162e-01 -5.766981575354e-01 -4.941575548885e-02 4.344526749099e-02 -3.952053861034e-02 1.544384477557e-01 1.652289272029e-01 
786 40 428 1 3 1.938960139272e-03 1.153133039249e-03 7.581680595048e-04 -1.361995524598e-03 3.782058892526e-01 2.249255658755e-01 1.478852604240e-01 -2.656654554703e-01 -6.113408267041e-03 9.763389899390e-02 4.917294475848e-02 1.094884947819e-01 
787 306 82 2 1 1.708078832000e-03 -8.005566824301e-04 1.246313594760e-04 1.503698546511e-03 2.058254267160e-01 -9.646798361088e-02 1.501821945553e-02 1.811973716842e-01 -1.867265166568e-02 1.516786796386e-02 -1.119832702558e-02 2.653553592767e-02 
788 306 120 2 2 1.917243015985e-03 -4.409485465523e-04 1.860084215817e-03 1.465328349003e-04 6.166366519739e-01 -1.418208506547e-01 5.982528524908e-01 4.712888035780e-02 1.153211470887e-01 1.693987754725e-02 1.319915315815e-01 1.760900077415e-01 
789 306 492 2 3 2.140886242321e-03 -1.214214724804e-03 -1.669728648291e-03 -5.666416378152e-04 9.840572661429e-01 -5.581131771416e-01 -7.674899190610e-01 -2.604565389642e-01 -5.319080995592e-02 -5.272647008449e-03 1.295156399912e-01 1.401119697690e-01 
790 306 261 2 2 1.949017835343e-03 2.005118074831e-04 -5.807282641030e-04 -1.849654081394e-03 2.981602642935e-01 3.067424649945e-02 -8.883966558327e-02 -2.829596218974e-01 -1.001343791470e-01 -6.566980282800e-02 9.763006732027e-03 1.201446344664e-01 
791 16 284 1 2 1.660367751713e-03 -1.659682267727e-03 2.897360214498e-05 3.789949210580e-05 6.434953269980e-01 -6.432296595025e-01 1.122906510763e-02 1.468840022972e-02 8.719085997500e-03 1.251219327207e-01 2.861695165396e-01 3.124492162014e-01 
792 16 471 1 3 1.936681223906e-03 1.381465965277e-03 -1.339963045333e-03 -2.162983748237e-04 3.995827907256e-01 2.850288518750e-01 -2.764658254102e-01 -4.462743128535e-02 9.827112224003e-02 1.122952484145e-01 -6.802303691453e-02 1.639956396795e-01 
793 16 463 1 3 1.932875308887e-03 -4.729794737616e-04 2.742948867187e-04 -1.853930875795e-03 4.361455555093e-01 -1.067259198665e-01 6.189354025643e-02 -4.183320610396e-01 1.639992740795e-01 -8.460667974067e-02 -5.435772783575e-02 1.923767520539e-01 
794 383 483 2 3 2.185208230352e-03 2.113113914479e-03 5.307116588224e-04 -1.680170515778e-04 4.502781426278e-01 4.354225814075e-01 1.093570199335e-01 -3.462114267348e-02 -5.032904633045e-03 4.952013487997e-02 9.312038268226e-02 1.055887283684e-01 
795 383 429 2 3 2.151844877036e-03 -1.229080943528e-03 6.116389920393e-04 -1.657013624718e-03 8.395963855075e-01 -4.795568345536e-01 2.386463320065e-01 -6.465255302075e-01 1.698706658480e-04 2.394983191436e-01 8.827792576824e-02 2.552498107866e-01 
796 278 456 2 3 2.015346543973e-03 1.047876809268e-03 -1.393785505205e-03 1.010414692284e-03 3.103426990065e+00 1.613622819297e+00 -2.146286735723e+00 1.555935001139e+00 -3.826713090645e-01 -2.959229780547e-01 -1.134263695044e-02 4.838764254796e-01 
797 278 290 2 2 1.898841424317e-03 -8.651953704130e-04 -1.492988367745e-03 -7.924780498511e-04 8.333480521190e-01 -3.797098943612e-01 -6.552305696324e-01 -3.477963092300e-01 3.924430882176e-02 -1.810418214426e-01 2.982282464808e-01 3.510788285915e-01 
798 278 470 2 3 2.115493717297e-03 2.999734217280e-04 -1.212443921843e-04 -2.090605034803e-03 1.346836733255e+00 1.909791648542e-01 -7.719068119178e-02 -1.330991263448e+00 1.739297104641e-01 -2.411775248049e-02 2.635525678852e-02 1.775607212399e-01 
799 120 87 2 1 1.705740495313e-03 -1.130019800981e-03 8.098002997219e-04 9.883467819089e-04 2.232845988642e-01 -1.479216907051e-01 1.060043632548e-01 1.293764293829e-01 -7.824523136069e-02 -2.357215165445e-02 -7.014736786543e-02 1.076968698837e-01 
800 45 418 1 3 1.963235036152e-03 -1.618584105130e-04 -1.170078469365e-03 1.568123093909e-03 1.767906106725e-01 -1.457545668763e-02 -1.053663383775e-01 1.412105195133e-01 8.377080732609e-02 -2.606663196971e-02 -1.080335795816e-02 8.839530533621e-02 
801 67 261 1 2 1.675921840485e-03 -6.815036003496e-04 9.396396193123e-04 -1.208860721483e-03 4.834863854137e-01 -1.966068490903e-01 2.710764620152e-01 -3.487440085686e-01 -1.545499605169e-01 3.871742017334e-03 9.013809018883e-02 1.789568550934e-01 
802 82 463 1 3 1.937666944277e-03 6.521043180643e-04 -1.823387704768e-03 6.760490668326e-05 3.902883598436e-01 1.313480242288e-01 -3.672700299474e-01 1.361710185784e-02 -1.674787061602e-01 -6.278928681846e-02 -7.803614163268e-02 1.951441799213e-01 
803 261 492 2 3 2.198520850093e-03 -1.414726532287e-03 -1.089000384188e-03 1.283012443578e-03 3.188953257524e-01 -2.052060040026e-01 -1.579594445263e-01 1.861008828376e-01 -7.951648749783e-02 -5.865461592935e-03 -9.265816177990e-02 1.222407884796e-01 
804 261 318 2 2 1.940038846989e-03 -3.611998743316e-05 1.939701767536e-03 -1.768432071516e-06 3.803008682503e-01 -7.080509033796e-03 3.802347914247e-01 -3.466612296361e-04 -8.535495110546e-02 -1.700056099855e-03 -1.213402870454e-01 1.483638201490e-01 
805 261 497 2 3 2.128700998864e-03 1.990258592450e-03 4.196990538406e-04 -6.277669806150e-04 1.153418577759e+00 1.078404734296e+00 2.274103718775e-01 -3.401502128912e-01 1.676372785197e-01 -3.075795908967e-01 3.258385309894e-01 4.784121760188e-01 
806 92 483 1 3 1.897009511373e-03 -4.431076088005e-04 1.379755036741e-03 1.224163703044e-03 8.289029208982e-01 -1.936169476247e-01 6.028873198695e-01 5.349013080996e-01 1.059124322870e-01 -1.528982865712e-01 2.106685445697e-01 2.810276944012e-01 
807 212 245 2 2 1.943852099131e-03 9.404385739087e-04 1.149244698385e-03 1.254341618235e-03 3.446058516215e-01 1.667208301518e-01 2.037379532040e-01 2.223695217189e-01 2.571608187514e-02 6.263206245558e-02 -7.666488913557e-02 1.022819502191e-01 
808 212 132 2 2 1.914579805281e-03 -8.541678733430e-04 4.798353801449e-04 1.644922819740e-03 6.466409236477e-01 -2.884914491656e-01 1.620622930211e-01 5.555654606571e-01 -2.985264714493e-03 -2.128625148656e-01 6.054329560709e-02 2.213252192663e-01 
809 212 316 2 2 1.919943476711e-03 1.388336442229e-03 -1.138721701672e-03 6.797188853397e-04 5.867018336966e-01 4.242518315377e-01 -3.479738432640e-01 2.077104463045e-01 -7.434101569680e-02 -1.976992729000e-02 1.187224567706e-01 1.414653964103e-01 
810 212 451 2 3 2.137038831775e-03 -1.140427447956e-03 1.554325539736e-03 -9.221888748992e-04 1.036560997861e+00 -5.531591639160e-01 7.539185570770e-01 -4.473035333605e-01 4.526207830378e-02 -5.077865992310e-02 -1.415595959436e-01 1.570549179099e-01 
811 428 450 3 3 2.436395382306e-03 2.440618928664e-05 3.546735424008e-04 2.410318127378e-03 4.645263248688e-01 4.653315917322e-03 6.762252070256e-02 4.595544013943e-01 -7.856987278244e-02 -1.079505348275e-01 1.668028355638e-02 1.345539844750e-01 
812 428 399 3 2 2.171559260647e-03 -1.456807955142e-03 1.562667176484e-03 -3.891677014799e-04 5.998099111139e-01 -4.023872918963e-01 4.316268393929e-01 -1.074926430345e-01 3.929933749152e-02 5.485879347245e-03 -1.250848507749e-01 1.312278655349e-01 
813 463 284 3 2 2.246657115535e-03 -1.186702793965e-03 -2.453212845737e-04 1.891830367901e-03 5.276953388103e-03 -2.787330245451e-03 -5.762111961162e-04 4.443535509083e-03 2.200569497716e-03 -3.499182771124e-05 1.375830399929e-03 2.595503772229e-03 
814 463 499 3 3 2.393203808115e-03 -6.768517721688e-04 -2.294823595064e-03 -5.550507386259e-05 1.010673745649e+00 -2.858412281928e-01 -9.691268042292e-01 -2.344034415833e-02 2.661542758480e-01 -8.566546929165e-02 2.961917866066e-01 4.073159039792e-01 
815 463 492 3 3 2.389037720148e-03 -1.065762360438e-03 2.902769700032e-05 -2.137945091009e-03 1.070386043652e+00 -4.775048743858e-01 1.300558860434e-02 -9.578863356617e-01 -3.605643680921e-01 3.482743287809e-01 1.844694399956e-01 5.341635011097e-01 
816 232 364 2 2 1.968124866057e-03 1.703968322653e-03 7.617285393763e-04 6.243212923534e-04 1.474009816695e-01 1.276172095707e-01 5.704898932288e-02 4.675799435147e-02 -1.247219276328e-03 -3.351944523022e-02 4.430081198857e-02 5.556681300301e-02 
817 232 163 2 2 1.995172056649e-03 1.244273660802e-03 -1.418314086600e-03 6.487524523422e-04 8.688914196467e-03 5.418774305504e-03 -6.176715116392e-03 2.825297384435e-03 2.172460665280e-03 2.334255054048e-03 9.365224559335e-04 3.323462999644e-03 
818 232 402 2 3 2.209878786766e-03 -1.559564615136e-03 -1.492220149272e-03 4.739213959286e-04 2.194129020489e-01 -1.548449626238e-01 -1.481585123168e-01 4.705437666830e-02 -2.604455471420e-02 5.563368146845e-02 8.946533089053e-02 1.085240562057e-01 
819 232 366 2 2 1.888315710271e-03 5.064415178342e-04 -1.048626083627e-03 -1.486484627370e-03 9.667417827535e-01 2.592777114274e-01 -5.368544274740e-01 -7.610204114083e-01 1.313788883675e-01 -7.117655660911e-02 9.497125954218e-02 1.770481704464e-01 
820 483 34 3 1 1.952376098173e-03 1.101793782366e-03 1.545976815459e-03 4.558273531944e-04 2.606426337469e-01 1.470897095855e-01 2.063882411129e-01 6.085305079367e-02 1.012129164490e-02 4.798214137821e-04 -2.609182821417e-02 2.799025317335e-02 
821 483 244 3 2 2.145010198069e-03 -5.367445581147e-04 2.072931733209e-03 -1.262064127223e-04 9.287990759812e-01 -2.324128109337e-01 8.975887760857e-01 -5.464794508897e-02 3.590521950966e-02 7.728777965599e-04 -1.400072139886e-01 1.445399671267e-01 
822 318 123 2 2 1.895689216963e-03 -1.568269896986e-03 -1.019452799095e-03 -3.080310502739e-04 8.726019108509e-01 -7.218880060060e-01 -4.692628161581e-01 -1.417893189798e-01 -6.028552884517e-02 6.453138124414e-02 9.335839006541e-02 1.285084944625e-01 
823 245 219 2 2 1.972812047101e-03 -1.408680007796e-03 1.377335713007e-03 1.027343296780e-04 1.161146728925e-01 -8.291130346445e-02 8.106645841608e-02 6.046679967777e-03 -1.008972066166e-02 -9.316602856027e-03 -1.344339276428e-02 1.921786566770e-02 
824 245 132 2 2 1.954808126347e-03 -1.794606447252e-03 -6.694093182398e-04 3.905812015048e-04 2.488358074150e-01 -2.284430570321e-01 -8.521194788901e-02 4.971873573043e-02 4.044272695652e-02 -4.498596983115e-02 1.087219532460e-01 1.244179037074e-01 
825 418 392 3 2 2.132860938682e-03 1.183040910798e-03 -1.408963559403e-03 -1.079042017442e-03 1.094595633148e+00 6.071429183734e-01 -7.230876291173e-01 -5.537701304641e-01 -1.381000889235e-02 5.150473302763e-02 -8.239354534414e-02 9.814351829964e-02 
826 132 220 2 2 1.898068005804e-03 -1.022304278378e-03 -7.238104103953e-04 1.426062623754e-03 8.429234470048e-01 -4.540007226209e-01 -3.214409411269e-01 6.333079841101e-01 -8.172202487178e-02 2.251903049048e-02 -4.715449784093e-02 9.700073582198e-02 
827 471 402 3 3 2.372920154966e-03 1.647828208051e-03 -1.198756987941e-03 1.215892241301e-03 1.311874763884e+00 9.110058915532e-01 -6.627357592369e-01 6.722090263460e-01 -1.847131983229e-01 1.985635123299e-01 4.460962890272e-01 5.220616181518e-01 
828 471 106 3 2 2.180385935662e-03 1.453568143721e-03 -1.318298540566e-03 -9.504269766447e-04 5.014718802526e-01 3.343094165968e-01 -3.031984554014e-01 -2.185908445039e-01 -8.102615320461e-02 7.335022060538e-02 -2.256612334398e-01 2.507358862300e-01 
829 471 198 3 2 2.157956519206e-03 -2.658581058260e-04 -2.035517539923e-03 -6.654052532214e-04 7.624136423015e-01 -9.392860560173e-02 -7.191555194785e-01 -2.350900206746e-01 -1.228478438805e-01 3.511681140363e-02 -5.834157509085e-02 1.404582591852e-01 
830 471 332 3 2 2.158192315644e-03 -4.885225205376e-04 -3.584402721425e-04 -2.071390931123e-03 7.594857591835e-01 -1.719151229940e-01 -1.261381018905e-01 -7.289396327131e-01 -1.076534323665e-01 3.180133111742e-01 -2.964078421476e-02 3.370464414188e-01 
831 37 173 1 2 1.749994293331e-03 1.708353031910e-03 -8.833944893228e-05 3.690610881927e-04 3.237133393429e-07 3.160105532021e-07 -1.634100072129e-08 6.826879249586e-08 -2.298690389285e-08 -1.429774827739e-07 7.218099055649e-08 1.618056047504e-07 
832 37 131 1 2 1.749994947324e-03 -1.948837117322e-04 9.049227041459e-04 -1.485132167211e-03 2.696226051100e-07 -3.002583186373e-08 1.394218979249e-07 -2.288150628482e-07 3.077213470373e-08 -1.101668582567e-07 -7.116503261006e-08 1.347149687257e-07 
833 206 432 2 3 2.121040058145e-03 -4.361997120536e-04 2.075698938816e-03 -3.828166614980e-06 1.264396584616e+00 -2.600278217344e-01 1.237367789850e+00 -2.282050626405e-03 2.710217272080e-01 5.665548859291e-02 -1.619212919759e-01 3.207508780996e-01 
834 206 450 2 3 2.175233354282e-03 -2.121312716715e-03 2.808116772208e-04 3.909185406424e-04 5.581654171435e-01 -5.443293681970e-01 7.205634588409e-02 1.003097942928e-01 -4.505891287878e-02 -1.780105823824e-01 -1.166396319149e-01 2.175382191781e-01 
835 392 490 2 3 2.112608728031e-03 1.969475892390e-03 -7.408761602135e-04 -1.881033287176e-04 1.390400184070e+00 1.296198206022e+00 -4.876029980686e-01 -1.237990260113e-01 4.046660408143e-04 -2.519506773909e-02 1.034718793391e-01 1.064959389223e-01 
836 392 138 2 2 1.874547000219e-03 5.132063731623e-05 -1.681309811886e-03 -8.273390868732e-04 1.150916802998e+00 3.150936403351e-02 -1.032274844706e+00 -5.079619005276e-01 2.165172778844e-01 -7.014382155336e-02 1.559763126837e-01 2.759139312231e-01 
837 451 222 3 2 2.231385047492e-03 3.561446258593e-04 2.087777761866e-03 -7.024416365091e-04 6.934162134529e-02 1.106740668458e-02 6.487893928442e-02 -2.182879285255e-02 5.134664087141e-03 -9.543871717752e-03 -2.576270991706e-02 2.794937360520e-02 
838 451 422 3 3 2.374176466055e-03 2.158235336218e-03 8.769742237915e-04 -4.578758961498e-04 1.292469137401e+00 1.174913745121e+00 4.774127512224e-01 -2.492613640960e-01 -3.501439801960e-02 1.162620727359e-01 5.763467811287e-02 1.344047385575e-01 
839 451 497 3 3 2.386099508171e-03 -1.757421682652e-03 -1.574989195869e-03 -3.526314295884e-04 1.113180930944e+00 -8.198854649846e-01 -7.347757012148e-01 -1.645122434019e-01 3.734898394256e-02 -5.982408770413e-02 8.106020955821e-02 1.074459196284e-01 
840 138 490 2 3 2.229878335307e-03 1.918155255073e-03 9.404336516730e-04 6.392357581556e-04 7.792862154021e-02 6.703468640473e-02 3.286578328715e-02 2.233967687095e-02 -4.994133559301e-03 -1.418953131403e-02 3.586131719786e-02 3.888853610109e-02 
841 138 366 2 2 1.969246796729e-03 -9.860850842763e-04 -1.702284529348e-03 -8.829798491143e-05 1.396876282010e-01 -6.994749812760e-02 -1.207507808685e-01 -6.263377504383e-03 -5.960715207278e-02 3.403887272994e-02 9.443897686232e-03 6.928812768766e-02 
842 492 17 3 1 1.902095437834e-03 -1.164859438108e-03 9.664933712353e-04 1.151937544938e-03 7.682673729855e-01 -4.704934792503e-01 3.903722749960e-01 4.652742516961e-01 -1.902357894746e-01 1.346550480066e-01 -3.053474276087e-01 3.841336864920e-01 
843 492 139 3 2 2.203454102009e-03 -9.475355767477e-05 -1.911426976967e-03 -1.092098280693e-03 2.741720212588e-01 -1.179002294873e-02 -2.378355860854e-01 -1.358879192255e-01 -7.679372536842e-03 -3.862356942479e-02 6.826654864624e-02 7.881037077530e-02 
844 404 497 3 3 2.396677902572e-03 1.754251811381e-03 5.340078232355e-04 1.543211325666e-03 9.617610596564e-01 7.039623802631e-01 2.142915947899e-01 6.192741036473e-01 -1.167789086160e-02 1.217975948582e-02 9.060246126828e-03 1.915222535338e-02 
845 404 261 3 2 2.186758446151e-03 -2.360067810684e-04 1.143087693949e-04 2.170978306281e-03 4.342150821374e-01 -4.686283663702e-02 2.269779352137e-02 4.310816886244e-01 -1.081561701869e-01 -1.701336042831e-01 -2.799579641946e-03 2.016210259423e-01 
846 404 322 3 2 2.237808547522e-03 -1.228277653328e-03 -1.295436334833e-03 1.349431659660e-03 3.675225973076e-02 -2.017240455471e-02 -2.127537348767e-02 2.216215632014e-02 1.530515551831e-02 -8.085893962933e-03 6.168685612994e-03 1.837612986489e-02 
847 404 397 3 2 2.162697907947e-03 -2.070678849443e-03 6.185728056481e-04 -8.318069258587e-05 7.042682145388e-01 -6.743028190956e-01 2.014341271591e-01 -2.708724026425e-02 -2.293530963667e-02 -7.205215436011e-02 3.513023461698e-02 8.337670394245e-02 
848 404 234 3 2 2.150028552127e-03 -3.646779575918e-04 1.852841091195e-03 -1.027916656635e-03 8.630084829800e-01 -1.463795309352e-01 7.437192300230e-01 -4.125995413384e-01 8.622374706652e-02 -1.066716805260e-01 -2.228678477510e-01 2.616934457445e-01 
849 404 480 3 3 2.412752851355e-03 2.045958294014e-03 -9.972525384086e-04 -8.005737664435e-04 7.462841660221e-01 6.328316131950e-01 -3.084583564046e-01 -2.476240056224e-01 1.434085431040e-02 6.030115871593e-02 -3.846577935403e-02 7.294865335391e-02 
850 404 259 3 2 2.187556676006e-03 -1.640398178370e-03 -1.346971957197e-03 -5.293057468622e-04 4.260201318363e-01 -3.194626479299e-01 -2.623187673622e-01 -1.030807139917e-01 -5.710060716641e-02 2.491996438580e-02 1.135473006393e-01 1.295163057156e-01 
851 404 207 3 2 2.194192195509e-03 1.770376632289e-04 -2.121599714424e-03 -5.309912507609e-04 3.599511039059e-01 2.904253439722e-02 -3.480425100484e-01 -8.710763226075e-02 -7.465607252373e-02 1.749473868665e-02 -9.479208770316e-02 1.219226596556e-01 
852 174 373 2 2 1.851285824136e-03 -2.896264076029e-04 -1.197863573804e-03 1.381484203753e-03 1.485425610586e+00 -2.323890118676e-01 -9.611358804342e-01 1.108468498014e+00 2.673583941805e-01 -1.185476270636e-01 -4.673946522750e-02 2.961733081001e-01 
853 174 205 2 2 1.954830738879e-03 4.976461284934e-04 1.695601612990e-03 8.358508948891e-04 2.486490734299e-01 6.329921372980e-02 2.156758442513e-01 1.063179263586e-01 -1.295812467687e-04 3.853939756651e-02 -7.810361807060e-02 8.709464456445e-02 
854 174 477 2 3 2.188504729146e-03 1.497763362597e-03 -1.592813034452e-03 9.594006688423e-05 4.163548988189e-01 2.849439185504e-01 -3.030267657020e-01 1.825224150000e-02 5.680171667017e-02 6.329117104789e-02 1.640135611729e-01 1.847502519563e-01 
855 174 218 2 2 1.829660336623e-03 -6.127232508798e-04 1.535421720164e-03 -7.840327202929e-04 1.820941658679e+00 -6.098035085724e-01 1.528105144941e+00 -7.802966559270e-01 3.864568583861e-01 3.453677264931e-01 3.743389766519e-01 6.393414106230e-01 
856 174 353 2 2 1.875275519367e-03 -5.326959500378e-04 -7.558506568803e-04 -1.631435896027e-03 1.140906121547e+00 -3.240889480210e-01 -4.598549026550e-01 -9.925555906133e-01 1.075509426728e-01 -3.484141064442e-01 1.263041227062e-01 3.858915990945e-01 
857 158 62 2 1 1.595007464706e-03 -1.413004915103e-03 3.442338831412e-04 6.549572169675e-04 1.463238543052e+00 -1.296271835119e+00 3.157955663422e-01 6.008490023550e-01 4.386381144039e-02 6.374295817074e-02 6.112963432992e-02 9.861050077829e-02 
858 158 278 2 2 1.857787468909e-03 1.065169828352e-03 -1.179593474757e-03 9.619494533053e-04 1.389086064913e+00 7.964380156998e-01 -8.819937078214e-01 7.192591203780e-01 4.502302321388e-01 7.626945568363e-02 -4.050157785824e-01 6.103786306079e-01 
859 158 373 2 2 1.820556937930e-03 -1.121384291449e-03 1.159337837185e-03 -8.443107333256e-04 1.968848788114e+00 -1.212725654018e+00 1.253770672150e+00 -9.130833150374e-01 4.138569539720e-02 -3.147263307767e-01 -4.871232781862e-01 5.814245670924e-01 
860 158 470 2 3 2.197648441165e-03 1.365143250080e-03 -1.300837866942e-03 -1.128655581497e-03 3.270359702536e-01 2.031493932162e-01 -1.935799948659e-01 -1.679572429617e-01 8.597176823323e-03 1.032691608388e-02 -1.503794095300e-03 1.352102221787e-02 
861 208 353 2 2 1.828749244704e-03 8.542262749485e-04 1.588762848261e-03 3.007555206082e-04 1.835570618298e+00 8.574126038408e-01 1.594689054367e+00 3.018773615454e-01 -1.642464637207e-01 1.018517463081e-01 -7.153526425571e-02 2.060775900066e-01 
862 208 308 2 2 1.824055204564e-03 2.065236542978e-05 -1.601981437828e-03 8.720128106604e-04 1.911555846718e+00 2.164306748341e-02 -1.678829114464e+00 9.138436065201e-01 -5.277494517527e-05 -1.247919159050e-01 -2.292549380893e-01 2.610188723038e-01 
863 208 124 2 2 1.902148863407e-03 -1.614259279788e-03 7.073098846726e-04 -7.155766927604e-04 7.928137359130e-01 -6.728216465924e-01 2.948060495702e-01 -2.982516468788e-01 1.490874491775e-01 1.541689102803e-01 -1.839364046423e-01 2.825379998372e-01 
864 208 287 2 2 1.977360681145e-03 1.661060559035e-03 -1.071581572549e-03 5.045806112136e-05 8.823022842510e-02 7.411685381884e-02 -4.781418373676e-02 2.251448762522e-03 1.403481616544e-02 2.071498514978e-02 -2.209524501082e-02 3.338093058382e-02 
865 208 112 2 2 1.924928892692e-03 -3.716191804471e-04 -5.638207935322e-04 -1.802597165044e-03 5.327599728401e-01 -1.028525392462e-01 -1.560479204137e-01 -4.989023856084e-01 -1.763213675293e-01 -1.587476029481e-01 8.600346466242e-02 2.523620851537e-01 
866 308 480 2 3 2.164376095024e-03 -3.789017786737e-04 1.597626890491e-03 1.410158020084e-03 6.840591385145e-01 -1.197533205514e-01 5.049359383009e-01 4.456857025016e-01 -2.675518698003e-01 -4.666798873047e-02 -1.901761737804e-02 2.722564489163e-01 
867 308 376 2 2 1.989974740958e-03 1.537880384627e-03 4.851150346468e-04 1.166013205496e-03 2.599954548030e-02 2.009281333094e-02 6.338156031267e-03 1.523427043718e-02 7.791431721289e-03 -6.237968072698e-03 -7.681008988423e-03 1.259430637327e-02 
868 308 287 2 2 1.909768379994e-03 1.640408193605e-03 5.303998652786e-04 -8.215547495390e-04 7.020377820660e-01 6.030200007422e-01 1.949769139174e-01 -3.020065052151e-01 7.610376521119e-02 -3.263594616010e-01 -5.874200646266e-02 3.402247853685e-01 
869 259 322 2 2 1.924098097863e-03 4.121205250422e-04 5.153562236377e-05 1.878737406522e-03 5.416282447945e-01 1.160107776575e-01 1.450713387030e-02 5.288593367743e-01 -2.408621964019e-02 -4.471407124942e-04 5.295827442856e-03 2.466559749280e-02 
870 259 207 2 2 1.975632567438e-03 1.817435841599e-03 -7.746277572273e-04 -1.685503898749e-06 9.852286537964e-02 9.063374926556e-02 -3.862992921990e-02 -8.405443221087e-05 -1.535991098550e-02 -3.609998153818e-02 2.871247772331e-02 4.861627206554e-02 
871 259 22 2 1 1.713490264905e-03 -4.991583581793e-05 -1.709108795893e-03 -1.118231687012e-04 1.672869401435e-01 -4.873250586663e-03 -1.668591801735e-01 -1.091722323279e-02 -7.237401306809e-02 1.368965820251e-03 1.138313139338e-02 7.327651407727e-02 
872 259 425 2 3 2.173889426430e-03 7.487317195253e-04 8.921249774608e-04 -1.835567780037e-03 5.732823405743e-01 1.974500944772e-01 2.352647236541e-01 -4.840626116622e-01 2.129584152621e-02 9.708888727920e-02 5.587387973908e-02 1.140248014097e-01 
873 431 446 3 3 2.390567279941e-03 -3.968363107807e-04 4.621262371430e-04 2.311660053580e-03 1.048330339223e+00 -1.740237757737e-01 2.026552270722e-01 1.013727322578e+00 -8.404297245116e-02 -2.496348460921e-01 3.547732235947e-02 2.657807705679e-01 
874 431 121 3 2 2.234167833524e-03 -2.042635353058e-03 -4.361007829057e-05 9.040159754445e-04 5.438906564928e-02 -4.972635745982e-02 -1.061653191638e-03 2.200756071172e-02 3.247651305225e-03 -2.475476370704e-02 6.143929244112e-03 2.571173723707e-02 
875 431 466 3 3 2.346145248493e-03 3.092372108474e-04 -2.226202659644e-03 6.728979065582e-04 1.747606822432e+00 2.303459514170e-01 -1.658263467962e+00 5.012311036822e-01 -6.947160903962e-02 -4.922894357834e-02 -1.309417040680e-01 1.561906630135e-01 
876 431 44 3 1 1.804582079838e-03 -3.109401713635e-04 1.264117660189e-03 -1.249735665612e-03 2.166479446541e+00 -3.732972292528e-01 1.517628352518e+00 -1.500362141134e+00 2.065243425271e-01 -5.239723601240e-01 -5.813864868859e-01 8.094501747259e-01 
877 431 242 3 2 2.187153627296e-03 1.826320235285e-03 -7.758217441255e-04 -9.199434813761e-04 4.301514832076e-01 3.591857234971e-01 -1.525822739543e-01 -1.809269582358e-01 -8.353763020057e-02 3.472052479983e-02 -1.951243811635e-01 2.150757416036e-01 
878 431 231 3 2 2.133090226737e-03 -1.516675291576e-03 -1.186148544647e-03 -9.180531604204e-04 1.091383365202e+00 -7.759982034005e-01 -6.068860913899e-01 -4.697166275930e-01 7.069974229350e-02 -7.408211611611e-02 -2.108391841031e-02 1.045521166890e-01 
879 493 130 3 2 2.148602398207e-03 6.118151389510e-04 -4.513409122027e-04 2.009593461948e-03 8.815412274545e-01 2.510191131761e-01 -1.851788037077e-01 8.245078236012e-01 2.326343942356e-01 -3.968854856517e-02 -7.973867000455e-02 2.491027855378e-01 
880 493 64 3 1 1.988253116139e-03 1.980113447976e-03 6.710566101195e-05 -1.667273739912e-04 3.192949307441e-02 3.179877758547e-02 1.077654409865e-03 -2.677486327045e-03 8.208740800005e-04 1.468313793431e-03 1.033996956698e-02 1.047591286224e-02 
881 493 48 3 1 1.945962260328e-03 -1.507185220394e-03 -1.157678800603e-03 -4.182602355946e-04 3.150313411556e-01 -2.439978364589e-01 -1.874163300166e-01 -6.771204439970e-02 -2.301733106686e-03 5.399121156068e-02 -1.411450047303e-01 1.511365649385e-01 
882 493 234 3 2 2.198292004189e-03 -1.276421134147e-04 -2.179020435923e-03 -2.608930171473e-04 3.210241006347e-01 -1.864001442209e-02 -3.182098076023e-01 -3.809909967919e-02 1.044635454455e-01 8.090039725552e-03 -1.186781845427e-01 1.583116943127e-01 
883 493 382 3 2 2.244117722960e-03 8.672678316313e-04 -6.298470178892e-04 -1.971599248523e-03 1.231740301357e-02 4.760217030333e-03 -3.457073341947e-03 -1.082161701093e-02 5.009943798403e-03 3.050353659262e-03 1.229310135052e-03 5.992945662849e-03 
884 102 382 2 2 1.969072343806e-03 -3.641547784766e-04 4.299037332974e-04 1.886748518629e-03 1.408778979400e-01 -2.605356775131e-02 3.075759732952e-02 1.349880140676e-01 -5.318368075071e-02 6.371485938556e-03 -1.171656786864e-02 5.483044495424e-02 
885 102 317 2 2 1.896345509797e-03 -1.124011308524e-03 1.502062685799e-03 -2.766451856888e-04 8.643796519147e-01 -5.123393909978e-01 6.846602661793e-01 -1.260985764853e-01 3.335882303600e-02 5.422724078102e-02 1.588931344029e-01 1.711736921301e-01 
886 102 231 2 2 1.926147260947e-03 1.900695168562e-03 1.589979648284e-04 -2.685531497471e-04 5.198430776420e-01 5.129738759428e-01 4.291156395518e-02 -7.247913942281e-02 -1.775580012041e-02 -4.680456196387e-02 -1.533781809427e-01 1.613406391701e-01 
887 102 469 2 3 2.182978236718e-03 1.187189187207e-03 -1.831258079462e-03 4.969569569584e-05 4.737234438978e-01 2.576293894562e-01 -3.973974039121e-01 1.078435676360e-02 3.135210638921e-02 2.632748923852e-02 2.211770160493e-01 2.249341318989e-01 
888 102 301 2 2 1.930602938937e-03 -1.120915458725e-03 -1.555030961943e-03 -2.294666634213e-04 4.735152546208e-01 -2.749247699471e-01 -3.813994410955e-01 -5.628084541130e-02 4.894301200681e-02 -1.965422896776e-02 -1.058892119016e-01 1.182972203298e-01 
889 497 62 3 1 1.892742012911e-03 1.455631089605e-03 -1.195259837013e-03 1.869876478270e-04 8.809524315563e-01 6.775047730165e-01 -5.563183215543e-01 8.703099624805e-02 1.179626184272e-01 1.244620263435e-01 -1.227118137594e-01 2.108652759082e-01 
890 497 26 3 1 1.973068193038e-03 -5.769602959057e-04 -1.765599869968e-03 6.654111589816e-04 1.108424284484e-01 -3.241230107612e-02 -9.918733571698e-02 3.738126692144e-02 -4.652862216310e-02 2.212813791329e-02 1.837100213013e-02 5.469973388575e-02 
891 497 373 3 2 2.217991577325e-03 1.747251713259e-03 -3.801558829694e-04 -1.312280302466e-03 1.563498598909e-01 1.231666356875e-01 -2.679781097756e-02 -9.250478835255e-02 -1.075790726256e-02 6.845426566051e-02 -3.415433701745e-02 7.725437070413e-02 
892 497 25 3 1 1.952008150473e-03 3.001670453843e-04 -1.872778147589e-03 -4.614515947435e-04 2.636690849842e-01 4.054530724152e-02 -2.529670280493e-01 -6.233094862899e-02 -6.333182426514e-02 1.708385654281e-02 -1.105303359445e-01 1.285291145349e-01 
893 124 65 2 1 1.619165738189e-03 2.186289022030e-04 -6.361090804582e-05 1.603076025404e-03 1.134831001242e+00 1.532312907417e-01 -4.458322503062e-02 1.123554141536e+00 -3.941887915357e-02 -1.655409270818e-01 -1.192770885822e-03 1.701736444789e-01 
894 124 425 2 3 2.216133949351e-03 -1.681614886314e-03 -1.692588733366e-04 1.433447763050e-03 1.701562470676e-01 -1.291155158523e-01 -1.299580951697e-02 1.100610781218e-01 1.530021423760e-02 7.878131833583e-02 2.725143266223e-02 8.475395717364e-02 
895 124 469 2 3 2.139074666796e-03 1.391627525668e-03 1.426440802869e-03 -7.773544209952e-04 1.008665601278e+00 6.562121634751e-01 6.726281192739e-01 -3.665560050943e-01 -6.897027342207e-02 1.415950428740e-01 1.363548117929e-01 2.083235211912e-01 
896 124 49 2 1 1.569168915506e-03 -7.184415958356e-04 5.383144582101e-05 -1.393999617720e-03 1.843990119196e+00 -8.442680649925e-01 6.325938094688e-02 -1.638142009976e+00 -2.667051323604e-01 -2.841689320656e-01 1.264812660932e-01 4.097329865306e-01 
897 466 218 3 2 2.210386639396e-03 -1.542587755551e-03 7.960826084710e-04 1.368387588562e-03 2.152601465745e-01 -1.502260556799e-01 7.752709681222e-02 1.332614428782e-01 -2.489816415905e-03 -8.989851392742e-02 4.949320185819e-02 1.026524184923e-01 
898 466 55 3 1 1.930887923315e-03 1.212900399300e-03 -7.241791293398e-04 1.316345464691e-03 4.556579032018e-01 2.862246151442e-01 -1.708944054354e-01 3.106359551415e-01 4.628077949526e-02 2.072729890751e-02 -3.124081004499e-02 5.956105844390e-02 
899 466 353 3 2 2.155481451123e-03 -1.462560454709e-03 -1.495189768573e-03 5.209844128282e-04 7.933716286240e-01 -5.383270495366e-01 -5.503369751462e-01 1.917595959259e-01 -2.239349800235e-01 1.638993256552e-01 -1.582731640059e-01 3.194687131360e-01 
900 466 221 3 2 2.197347747212e-03 2.163115421237e-03 3.414695112153e-04 -1.807411671381e-04 3.298576297991e-01 3.247188009891e-01 5.126012655986e-02 -2.713218837342e-02 -1.510333621649e-02 1.282489300839e-02 -1.565274252845e-01 1.577764986040e-01 
901 466 494 3 3 2.376979997771e-03 3.761239907219e-04 -2.314455331066e-03 -3.896936924175e-04 1.249513519406e+00 1.977181178725e-01 -1.216646008355e+00 -2.048513397502e-01 2.360132649149e-01 -5.955245527788e-03 2.631641283871e-01 3.535436106548e-01 
902 137 140 2 2 1.884152358849e-03 1.061222969720e-03 6.082572129790e-04 -1.433129122847e-03 1.021299556774e+00 5.752329653827e-01 3.297041341176e-01 -7.768236634842e-01 -4.653522718513e-03 -1.752578292709e-01 -7.782987741365e-02 1.918187994245e-01 
903 292 234 2 2 1.948869438249e-03 -3.237209055523e-04 3.152746391256e-04 1.895758097589e-03 2.994630219174e-01 -4.974291182975e-02 4.844505963996e-02 2.913019402871e-01 3.111987147963e-02 1.107613011595e-02 3.472030552201e-03 3.321418455133e-02 
904 292 382 2 2 1.990202371059e-03 6.711890394937e-04 1.864448057159e-03 1.850518662129e-04 2.511908402359e-02 8.471326395708e-03 2.353189207612e-02 2.335608400291e-03 7.165721104276e-03 -3.541161048532e-03 9.687864317103e-03 1.255954201165e-02 
905 292 42 2 1 1.741759068827e-03 1.611946636292e-03 -5.636468237561e-04 3.430086786936e-04 1.793962483145e-02 1.660259356241e-02 -5.805402559167e-03 3.532892189180e-03 -2.201836813810e-03 -7.754560323199e-03 -2.395245080651e-03 8.409428646297e-03 
906 292 425 2 3 2.237336941483e-03 -8.507094068055e-04 -1.992413431806e-03 5.588012273243e-04 3.890531925514e-02 -1.479308746548e-02 -3.464631509693e-02 9.717061273213e-03 9.629310945124e-03 -7.504524012330e-04 1.198374955956e-02 1.539146067112e-02 
907 292 301 2 2 1.936809564230e-03 -8.557164075433e-05 -1.204866380813e-04 -1.931163315837e-03 4.114332436871e-01 -1.817784173178e-02 -2.559477671024e-02 -4.102338205048e-01 8.800582782244e-02 6.422388644004e-03 -4.300317334916e-03 8.834458407728e-02 
908 151 177 2 2 1.912510122745e-03 1.110358016793e-03 1.007323738104e-03 1.187475865353e-03 6.702843387561e-01 3.891511894330e-01 3.530403931874e-01 4.161789606921e-01 -1.689981819253e-02 2.178957490709e-01 -1.690364559949e-01 2.762923900028e-01 
909 151 62 2 1 1.681734246634e-03 -5.869194457716e-06 1.680088718521e-03 -7.414530838936e-05 4.277138392873e-01 -1.492706531997e-03 4.272953337189e-01 -1.885730434510e-02 1.222975336354e-01 1.095427077258e-03 1.514089956932e-02 1.232360886005e-01 
910 151 25 2 1 1.695868729422e-03 -1.161333238678e-03 1.002570407945e-03 -7.225845509599e-04 3.020099760095e-01 -2.068168470042e-01 1.785434565767e-01 -1.286819782181e-01 -1.161200601808e-02 -3.433858902197e-02 -2.898130692969e-02 4.641005851253e-02 
911 151 78 2 1 1.749999110615e-03 2.046841415990e-04 -8.023010459515e-04 -1.541724463384e-03 1.973283601905e-08 2.308000374042e-09 -9.046676013514e-09 -1.738434941936e-08 -7.694665707685e-11 -4.453552566150e-11 1.296025247445e-11 8.984525154647e-11 
912 151 481 2 3 2.143536655704e-03 -1.779630815427e-03 -8.884289632798e-04 -7.989727982443e-04 9.484212337266e-01 -7.874088129325e-01 -3.930909654333e-01 -3.535105243050e-01 9.045663420178e-02 -7.996411953649e-02 -1.125657520921e-01 1.650688087690e-01 
913 112 272 2 2 1.937256375779e-03 8.104367213460e-04 -1.549814233206e-03 8.332049140169e-04 4.070771792227e-01 1.702976945069e-01 -3.256636624148e-01 1.750819924266e-01 -4.594888096732e-03 8.923985931391e-02 1.704611527971e-01 1.924626459860e-01 
914 112 54 2 1 1.694258132777e-03 -8.089350071447e-04 -9.018921515617e-04 1.184367055287e-03 3.155885403780e-01 -1.506798835588e-01 -1.679949602621e-01 2.206114068563e-01 4.715641950712e-02 -7.734609262837e-02 -2.669050547182e-02 9.443796391255e-02 
915 112 73 2 1 1.749999561815e-03 1.347846360200e-03 1.113296221488e-03 7.987602187339e-05 6.801289134963e-09 5.238340057479e-09 4.326772223501e-09 3.104343175652e-10 -2.123876135964e-09 2.508816051122e-09 8.713915270224e-10 3.400636853981e-09 
916 112 140 2 2 1.938432599523e-03 -1.914831773782e-03 -3.015522096943e-04 2.546730123664e-06 3.956840840981e-01 -3.908665469192e-01 -6.155458277477e-02 5.198532962534e-04 -1.392022460418e-02 8.832912579860e-02 -7.478333862336e-03 8.973144707811e-02 
917 54 256 1 2 1.707732479522e-03 -7.253134054627e-04 -4.243271812013e-04 1.486679901244e-03 2.083814698855e-01 -8.850442055202e-02 -5.177738480200e-02 1.814081226336e-01 1.134927684274e-02 6.620633800426e-02 2.443359285279e-02 7.147786885801e-02 
918 54 140 1 2 1.726300954420e-03 -1.105896766638e-03 6.003399418674e-04 -1.181820325163e-03 8.748734497596e-02 -5.604583122249e-02 3.042467622030e-02 -5.989356735421e-02 1.275528192723e-02 -3.125532696237e-02 -2.781289634775e-02 4.373956885725e-02 
919 469 353 3 2 2.161931243594e-03 1.076858029069e-03 -5.449878392805e-04 1.793686634364e-03 7.135655818607e-01 3.554270416187e-01 -1.798783221231e-01 5.920230121647e-01 1.027000893246e-01 -3.048646377638e-01 -1.542861114869e-01 3.567827909302e-01 
920 469 24 3 1 1.971385303609e-03 -2.211197435248e-04 1.199128049685e-03 1.549050675339e-03 1.213924612701e-01 -1.361594298829e-02 7.383899284567e-02 9.538626151228e-02 1.002675200396e-02 -9.127500522471e-04 2.137836459092e-03 1.029267764640e-02 
921 469 231 3 2 2.138104823176e-03 7.135059813553e-04 1.990256044290e-03 -3.182488454430e-04 1.021922941429e+00 3.410254367746e-01 9.512575290652e-01 -1.521093786965e-01 3.360431132341e-02 -4.447505879758e-02 -2.027968942782e-01 2.103184749931e-01 
922 469 73 3 1 1.999998574770e-03 1.198858933873e-03 -1.584275259586e-03 -2.297900294155e-04 4.193700064681e-08 2.513829185655e-08 -3.321989996599e-08 -4.818355739746e-09 -2.284315328023e-09 -2.423820131924e-09 4.793186336912e-09 5.836748736251e-09 
923 24 218 1 2 1.724915373556e-03 1.217950471752e-03 5.471564880788e-04 1.092039134759e-03 9.527093275664e-02 6.727012772570e-02 3.022067620375e-02 6.031576306303e-02 -1.196121770778e-02 6.944065690421e-03 9.861075314839e-03 1.698621746390e-02 
924 24 382 1 2 1.726371174500e-03 -1.330224222158e-03 1.062033763074e-03 2.880021475941e-04 8.709879902048e-02 -6.711241121799e-02 5.358167852272e-02 1.453027109192e-02 7.092830771359e-03 8.066820547130e-03 3.013239724309e-03 1.115622945833e-02 
925 24 42 1 1 1.488854131209e-03 -3.894666253603e-04 -1.366061117841e-03 4.459589600748e-04 2.639513098791e-02 -6.904653972686e-03 -2.421819665680e-02 7.906177589639e-03 8.026131959348e-03 -1.668792409609e-03 1.897569466813e-03 8.414536957945e-03 
926 382 166 2 2 1.967799464381e-03 8.197796808434e-04 -9.614146770144e-04 1.508601281226e-03 1.496638747862e-01 6.234954614374e-02 -7.312180353885e-02 1.147388833784e-01 4.822229117592e-02 3.984995422121e-02 -8.082477604633e-04 6.256246064638e-02 
927 382 213 2 2 1.965908901030e-03 -4.305592293055e-04 1.904321288445e-03 2.301673034663e-04 1.630361308458e-01 -3.570700087330e-02 1.579285665743e-01 1.908816150366e-02 -4.528432311193e-02 -1.479782664360e-02 3.772140055652e-02 6.076635296795e-02 
928 382 144 2 2 1.953094025937e-03 -1.944667162949e-03 -1.542614322794e-04 -9.512786137534e-05 2.631265009349e-01 -2.619912094730e-01 -2.078254828792e-02 -1.281590183202e-02 -2.905316854514e-03 2.858428021382e-02 1.303952679131e-02 3.155203955861e-02 
929 382 121 2 2 1.973455222405e-03 1.738889885555e-03 8.716326978870e-04 -3.332325325114e-04 1.120188168851e-01 9.870423481719e-02 4.947630048414e-02 -1.891520700129e-02 2.276215674700e-02 -4.877531796183e-02 -8.802495402071e-03 5.454018103523e-02 
930 217 235 2 2 1.858568633150e-03 -4.176584799148e-04 -8.313358304084e-04 1.608949811325e-03 1.377656562362e+00 -3.095876769993e-01 -6.162243577454e-01 1.192627609520e+00 -1.102276323175e-01 -1.334121886104e-01 -9.754675811542e-02 1.986562685016e-01 
931 217 494 2 3 2.111137659698e-03 -7.456555874802e-04 1.973570833866e-03 -7.692936219597e-05 1.412790682975e+00 -4.989988510985e-01 1.320729831837e+00 -5.148176181614e-02 5.768707394442e-01 2.182548424540e-01 7.727885885360e-03 6.168263503627e-01 
932 217 287 2 2 1.875498923216e-03 -1.777505748825e-03 1.324919755482e-04 5.834512835629e-04 1.137842145655e+00 -1.078390891150e+00 8.038125315547e-02 3.539727227547e-01 -1.152631458168e-01 -3.786525048535e-01 -2.651677872076e-01 4.764213131126e-01 
933 217 164 2 2 1.921929737128e-03 6.117932548977e-04 -1.794910444359e-03 3.127609701540e-04 5.650030837359e-01 1.798531283160e-01 -5.276623367136e-01 9.194452283842e-02 1.808093182306e-01 8.219904171520e-02 1.180518054489e-01 2.310517707953e-01 
934 234 134 2 2 1.996925282669e-03 -1.103466948397e-03 6.138701643110e-04 1.547008306289e-03 4.416011767609e-03 -2.440212997242e-03 1.357515923559e-03 3.421062843187e-03 4.679005753516e-04 3.979867910735e-04 1.758236219082e-04 6.389353490802e-04 
935 234 166 2 2 1.918177569160e-03 1.814689625889e-03 5.877587410193e-04 -2.021049501501e-04 6.062209152362e-01 5.735145815294e-01 1.857552958847e-01 -6.387325648238e-02 -3.168891030890e-02 7.006017151507e-02 -8.078505062201e-02 1.115295434999e-01 
936 234 274 2 2 1.924078184425e-03 -1.502620122669e-03 -3.626542491024e-04 -1.145727507892e-03 5.418414644154e-01 -4.231542638535e-01 -1.021274036579e-01 -3.226493994486e-01 -2.796486925474e-03 1.985308305986e-01 -5.917287601843e-02 2.071804534544e-01 
937 317 411 2 3 2.090366019536e-03 -1.517666556773e-03 7.822163825457e-04 1.206008229225e-03 1.741362205406e+00 -1.264279632216e+00 6.516189185458e-01 1.004655227914e+00 2.881912877971e-02 -2.065395820204e-01 1.702280861242e-01 2.691964755161e-01 
938 373 62 2 1 1.731254294093e-03 -2.916206236547e-04 -8.151039540435e-04 1.499267950293e-03 6.154625396525e-02 -1.036714076389e-02 -2.897702269090e-02 5.329911749276e-02 -3.372398981014e-03 -2.538430754001e-02 -1.445659565766e-02 2.940627997863e-02 
939 373 128 2 2 1.956765595517e-03 1.699672777539e-03 7.870764175515e-04 5.661755540687e-04 2.328448182178e-01 2.022521245378e-01 9.365795565302e-02 6.737191427963e-02 -4.979472241077e-02 6.225916754572e-02 6.293456395217e-02 1.015700628301e-01 
940 373 477 2 3 2.236821627873e-03 1.787389770200e-03 -3.949494606484e-04 -1.285544136869e-03 4.130415581723e-02 3.300514652332e-02 -7.292961521506e-03 -2.373828770140e-02 3.713194106447e-03 1.957836055843e-02 -8.521977205609e-04 1.994558230744e-02 
941 373 480 2 3 2.123124011989e-03 -1.455545230627e-03 -1.151104478675e-03 -1.031504789643e-03 1.233872424920e+00 -8.459030716781e-01 -6.689746177889e-01 -5.994681935333e-01 -3.534949818018e-01 4.561507230241e-01 -1.022700563882e-02 5.771800203739e-01 
942 64 166 1 2 1.709925786160e-03 -2.930659355018e-04 -1.658367355916e-03 -2.962705933062e-04 1.923740408661e-01 -3.297118431044e-02 -1.865734946393e-01 -3.333172216326e-02 -2.015034879601e-02 1.360032743431e-02 -5.619510877240e-02 6.122822643898e-02 
943 65 480 1 3 1.855058280140e-03 1.037380964342e-03 -6.480535239634e-04 1.394671498101e-03 1.383878969653e+00 7.738892709946e-01 -4.834498477075e-01 1.040429067086e+00 1.281156488589e-02 1.911919672395e-01 7.931054356228e-02 2.073853101159e-01 
944 65 42 1 1 1.488455470768e-03 5.624122545802e-04 1.323118642759e-03 -3.854208109851e-04 2.782385154521e-02 1.051323024838e-02 2.473319317630e-02 -7.204710948962e-03 -6.865995386424e-03 3.051932880415e-03 4.580690525770e-04 7.527683190058e-03 
945 65 425 1 3 1.910722820232e-03 -1.900243788517e-03 -1.056479652908e-04 -1.696282623544e-04 6.689885620101e-01 -6.653196089394e-01 -3.698981329515e-02 -5.939080546225e-02 -1.121604694266e-02 9.133843526252e-02 6.875920036493e-02 1.148753110988e-01 
946 480 25 3 1 1.913082688894e-03 8.460562752083e-06 -3.415177859452e-04 1.882333497366e-03 6.426395145798e-01 2.842057989252e-03 -1.147220794241e-01 6.323102979538e-01 -6.083589768990e-03 1.393666854730e-01 2.531308744995e-02 1.417774152694e-01 
947 480 376 3 2 2.229650910217e-03 1.916782163301e-03 -1.112511855844e-03 -2.441448145883e-04 7.925352774276e-02 6.813252588550e-02 -3.954452637732e-02 -8.678191616255e-03 -5.040158588316e-03 -2.108433694306e-03 -2.996266217365e-02 3.045668753773e-02 
948 480 207 3 2 2.197656849726e-03 -1.868920630785e-03 -1.124347176016e-03 2.695825156826e-04 3.269571731311e-01 -2.780493261830e-01 -1.672751477710e-01 4.010723387691e-02 6.536854358831e-02 -1.106875104703e-01 -8.467055354993e-03 1.288272583398e-01 
949 222 115 2 2 1.945472871398e-03 -5.649744217617e-04 2.447395984550e-04 1.845473143952e-03 3.297928968754e-01 -9.577339985184e-02 4.148779576484e-02 3.128411314275e-01 -1.347599247376e-01 7.588230458969e-02 -5.131871770702e-02 1.629477592734e-01 
950 222 131 2 2 1.967854559617e-03 7.956595186346e-04 1.409920825020e-03 1.118704950104e-03 1.492799322453e-01 6.035811866871e-02 1.069555085774e-01 8.486409645361e-02 2.097596415731e-02 -6.627454339214e-03 -6.566109902115e-03 2.295709090006e-02 
951 222 422 2 3 2.184808581440e-03 1.802090710359e-03 -1.210803538074e-03 2.445657403593e-04 4.544506740302e-01 3.748435194477e-01 -2.518529488901e-01 5.087084813525e-02 -5.174250811951e-02 -4.640978589289e-02 1.514993890907e-01 1.666829933375e-01 
952 222 328 2 2 1.986060329477e-03 2.947777211145e-04 1.838170818938e-03 -6.918596446252e-04 4.262860134175e-02 6.327079681980e-03 3.945431559936e-02 -1.485000658713e-02 -8.204823871721e-03 -4.380960286740e-03 -1.513537134547e-02 1.776489272597e-02 
953 222 211 2 2 1.968816049551e-03 -1.412072671210e-03 9.539289016018e-04 -9.860563162827e-04 1.426326808255e-01 -1.022988971778e-01 6.910825243598e-02 -7.143575239972e-02 -2.617430640671e-02 2.484005684563e-02 6.151339423157e-02 7.131634041266e-02 
954 222 33 2 1 1.693888655906e-03 1.110414307994e-03 4.605077233849e-04 -1.193386559297e-03 3.187314868623e-01 2.089417165562e-01 8.665168804000e-02 -2.245542356755e-01 -7.592606659074e-02 1.365962069023e-01 -1.793700646150e-02 1.573055228809e-01 
955 222 335 2 2 1.959504907113e-03 -1.675605553283e-03 -8.909649597476e-04 -4.880440055021e-04 2.110697257965e-01 -1.804892671567e-01 -9.597104302501e-02 -5.257007218714e-02 -3.099525003123e-02 5.491428344215e-03 9.639119079479e-02 1.014008036092e-01 
956 222 205 2 2 1.942378532749e-03 4.209579408443e-04 -1.149457653911e-03 -1.508103404409e-03 3.582604174028e-01 7.764324257766e-02 -2.120107754146e-01 -2.781608970861e-01 -2.652312798059e-02 8.612048511989e-02 -7.304338138963e-02 1.159980596389e-01 
957 121 446 2 3 2.223934702059e-03 1.645799042278e-03 5.057363154336e-04 1.407644078135e-03 1.148934164769e-01 8.502564154725e-02 2.612746366286e-02 7.272202604274e-02 -2.589771249931e-02 -2.737137600086e-02 4.011321479684e-02 5.503593133776e-02 
958 121 218 2 2 1.967418045642e-03 8.092848083544e-04 -1.386509972882e-03 1.137269519676e-03 1.523309167860e-01 6.266034667654e-02 -1.073530538006e-01 8.805515886608e-02 3.792377901125e-02 2.272530102812e-02 7.190189054375e-04 4.421729649695e-02 
959 121 127 2 2 1.957649050291e-03 -6.036237193316e-04 6.336103917236e-04 -1.751161352094e-03 2.257444515861e-01 -6.960629918043e-02 7.306418399028e-02 -2.019335176590e-01 -1.511807037573e-02 -1.230794604095e-02 7.578875433574e-04 1.950938187542e-02 
960 33 446 1 3 1.926791525124e-03 -9.633115125994e-04 1.221010181945e-04 -1.664225901835e-03 4.967639057166e-01 -2.483602315979e-01 3.147999038785e-02 -4.290694391222e-01 -6.910023488345e-02 -7.729239303363e-03 3.943052667854e-02 7.993341000673e-02 
961 301 49 2 1 1.694631067364e-03 1.980355244273e-04 -1.648836474567e-03 -3.374828376077e-04 3.124267339425e-01 3.651036104138e-02 -3.039839198483e-01 -6.221924213829e-02 -5.711876674634e-02 -5.248279524956e-04 -3.095324644605e-02 6.496870342367e-02 
962 42 353 1 2 1.740955185209e-03 1.687444397954e-03 -3.780547711241e-04 -2.013230010502e-04 2.062759222130e-02 1.999357320213e-02 -4.479356919878e-03 -2.385362245802e-03 -8.241063776910e-04 -7.182454721290e-03 6.580110469141e-03 9.775717924083e-03 
963 73 20 1 1 1.499998906517e-03 1.004773445331e-03 -1.086796151203e-03 -2.435183131552e-04 2.527406207654e-08 1.692981662841e-08 -1.831184894249e-08 -4.103134300110e-09 -5.531250700863e-10 5.815568314397e-10 -4.877658248224e-09 4.943248494444e-09 
964 166 218 2 2 1.919154974738e-03 1.728395013066e-03 4.465374020191e-04 -7.045642940614e-04 5.953910534651e-01 5.362104369784e-01 1.385319985615e-01 -2.185812416386e-01 6.306553631294e-02 -8.896153438214e-02 9.832673415696e-02 1.468317510624e-01 
965 128 422 2 3 2.193766734527e-03 4.687325280718e-04 2.045042885079e-03 6.408602818360e-04 3.640751694380e-01 7.779034657284e-02 3.393931192294e-01 1.063564835875e-01 2.300916454675e-02 -3.906566985589e-02 1.078329056176e-01 1.169764238997e-01 
966 128 154 2 2 1.952964777538e-03 1.213426844750e-03 1.898815854228e-04 1.518424083800e-03 2.642148147764e-01 1.641634056680e-01 2.568890565716e-02 2.054262025959e-01 -1.440738223200e-02 4.536965334573e-02 5.839898584923e-03 4.795917558688e-02 
967 128 11 2 1 1.731810860755e-03 2.540301264132e-04 8.818211410520e-04 -1.468682752502e-03 5.882570751266e-02 8.628830234538e-03 2.995347453785e-02 -4.988783936251e-02 5.173015034811e-03 -1.575660858850e-02 -8.565776969146e-03 1.866556545746e-02 
968 128 477 2 3 2.198578008928e-03 8.771699266105e-05 -1.182025878200e-03 -1.851719690938e-03 3.183643495556e-01 1.270182963720e-02 -1.711628599680e-01 -2.681376474115e-01 -1.246018072511e-01 -5.850288294293e-02 3.144224585943e-02 1.411977779838e-01 
969 11 43 1 1 1.485265303296e-03 7.684446723963e-04 9.544983869762e-04 -8.393084271594e-04 4.012035615267e-02 2.075741880709e-02 2.578314806631e-02 -2.267160819340e-02 1.382099443191e-02 -5.819566228538e-03 6.035806141615e-03 1.616533927743e-02 
970 11 205 1 2 1.728434161929e-03 -1.166430367856e-03 1.224567628190e-03 3.568738895697e-04 7.594487512595e-02 -5.125124843116e-02 5.380571482246e-02 1.568051799487e-02 -8.833640538553e-03 -1.783814325610e-02 3.233687453170e-02 3.797243756290e-02 
971 11 55 1 1 1.471844103337e-03 4.786884076220e-04 -4.558740024466e-04 -1.315051849484e-03 1.059758790026e-01 3.446657472152e-02 -3.282388944194e-02 -9.468650610961e-02 4.841744090096e-03 -8.910394102658e-03 4.851294495352e-03 1.124155981967e-02 
972 422 223 3 2 2.137932584537e-03 1.117957199670e-03 -1.059023164511e-05 1.822310424358e-03 1.024283399861e+00 5.356132413434e-01 -5.073779478936e-03 8.730688378879e-01 2.005058218571e-01 1.555515456859e-01 -1.221030167267e-01 2.816167868888e-01 
973 422 442 3 3 2.403870887848e-03 1.149225443875e-03 1.234698948095e-03 -1.712715572466e-03 8.630973009146e-01 4.126233999358e-01 4.433122156976e-01 -6.149415907912e-01 9.335069488440e-02 -6.222417555287e-02 1.778045932490e-02 1.135884897005e-01 
974 422 205 3 2 2.232294822723e-03 -1.381132769515e-03 6.134588416336e-05 -1.752669144769e-03 6.432081350047e-02 -3.979563200303e-02 1.767605754459e-03 -5.050099298765e-02 -1.578791004186e-02 -2.552814492828e-02 1.154761773526e-02 3.216040675006e-02 
975 130 428 2 3 2.173276514511e-03 7.565817886440e-04 1.146994248708e-03 1.683781161271e-03 5.802211963269e-01 2.019921476145e-01 3.062244361090e-01 4.495357646493e-01 1.318741173455e-01 5.872355590661e-02 -9.925822919871e-02 1.751897111923e-01 
976 130 398 2 2 1.942958251591e-03 -1.796286044010e-03 3.161936814127e-04 6.696751237386e-04 3.528674408341e-01 -3.262297884357e-01 5.742503992386e-02 1.216220404687e-01 -3.547615142016e-02 3.940313960316e-02 -1.137631319681e-01 1.255118118958e-01 
977 130 318 2 2 1.899310995702e-03 -6.469060632754e-04 -1.526510077984e-03 9.266400517487e-04 8.275522467961e-01 -2.818646168747e-01 -6.651184812026e-01 4.037480215358e-01 8.404362607112e-02 -8.531660581326e-02 -8.187464719208e-02 1.450714036725e-01 
978 130 388 2 2 1.957724652684e-03 3.016490078635e-04 1.900097157680e-03 -3.623872005979e-04 2.251402342950e-01 3.468992854135e-02 2.185130164638e-01 -4.167487962941e-02 -1.456000770763e-03 5.280148239273e-03 2.647332314400e-02 2.703399234223e-02 
979 130 335 2 2 1.914974467895e-03 1.817433271836e-03 -2.747107936929e-04 -5.372127092176e-04 6.421646406990e-01 6.094553235926e-01 -9.212110191829e-02 -1.801480971038e-01 6.662492162864e-02 -6.788048900746e-02 2.601089846698e-01 2.769536511329e-01 
980 218 205 2 2 1.970431598267e-03 1.110369379373e-03 1.601798928258e-04 1.619883615182e-03 1.316934396168e-01 7.421133671598e-02 1.070559417654e-02 1.082646285463e-01 -4.734609914020e-02 -2.907528786962e-02 3.532904134135e-02 6.584198228026e-02 
981 218 446 2 3 2.086493345559e-03 8.365142339234e-04 1.892246288316e-03 2.703745584594e-04 1.805112397515e+00 7.237033454078e-01 1.637061168424e+00 2.339123048182e-01 -3.714620962861e-01 2.445174372148e-01 -5.620125014886e-01 7.166804852295e-01 
982 477 470 3 3 2.399240103811e-03 6.991377713290e-04 -2.065226243478e-03 1.001199288697e-03 9.262088626621e-01 2.698969557061e-01 -7.972652870686e-01 3.865055660787e-01 -2.924848840382e-01 -9.677107774352e-02 4.627510864927e-03 3.081127435457e-01 
983 477 55 3 1 1.967296623686e-03 6.450015413741e-04 1.607973016805e-03 -9.320149110486e-04 1.483190338841e-01 4.862815516410e-02 1.212287976774e-01 -7.026675566258e-02 -6.382397975221e-02 1.789939797063e-02 -1.328821698446e-02 6.760521836181e-02 
984 477 390 3 2 2.179012099443e-03 1.638977523484e-03 2.734798358761e-04 -1.409629450033e-03 5.163897339715e-01 3.884104946245e-01 6.481018610714e-02 -3.340588043945e-01 -8.406274861972e-02 2.329820466504e-01 -5.253938451531e-02 2.531947209010e-01 
985 353 494 2 3 2.209364425153e-03 1.838684445431e-03 -8.192655624925e-04 -9.106781052457e-04 2.236457827843e-01 1.861232205109e-01 -8.293122037535e-02 -9.218457371425e-02 5.539481515761e-03 8.836059663764e-02 -6.830672119043e-02 1.118216841825e-01 
986 494 287 3 2 2.211422328572e-03 -1.031850161345e-03 -1.841078858318e-03 6.603806457588e-04 2.068736182657e-01 -9.652727732172e-02 -1.722288140134e-01 6.177713404432e-02 3.182471992196e-02 -1.766618552859e-02 4.747288120703e-04 3.640236636109e-02 
987 494 459 3 3 2.407861891041e-03 2.130845918174e-03 6.620304240058e-04 -9.049918657188e-04 8.099091426264e-01 7.167319675098e-01 2.226807505423e-01 -3.044033334202e-01 -9.031952623597e-02 3.373808004199e-01 3.414324671283e-02 3.509261782876e-01 
988 140 49 2 1 1.656349661354e-03 -4.624992139463e-05 1.626514333720e-03 -3.095258755595e-04 6.872472146238e-01 -1.918986696870e-02 6.748680375140e-01 -1.284274696313e-01 -2.782653418978e-01 3.002558659678e-02 1.993590909637e-01 3.436236073116e-01 
989 287 376 2 2 1.990725757954e-03 -1.025278089779e-04 -4.528483063188e-05 1.987567955035e-03 2.313343329004e-02 -1.191434942702e-03 -5.262370290272e-04 2.309673771665e-02 1.774805488461e-03 -5.199632327900e-04 7.970568804674e-05 1.851121087890e-03 
990 287 347 2 2 1.973834291661e-03 -2.474685172269e-04 -1.901763061104e-03 4.669886544005e-04 1.096279023697e-01 -1.374454510226e-02 -1.056250243872e-01 2.593682095234e-02 -1.839016045655e-02 -1.004449609596e-02 -5.065056111295e-02 5.481395118486e-02 
991 287 272 2 2 1.902589828618e-03 -1.222243018136e-03 -1.042053454189e-03 -1.019850312149e-03 7.874605681307e-01 -5.058726620831e-01 -4.312942247013e-01 -4.221045935037e-01 -1.519229320943e-01 3.736505327340e-02 1.438940190198e-01 2.125610811318e-01 
992 425 274 3 2 2.184395178945e-03 -9.756316214160e-04 1.945033821829e-03 1.912293623730e-04 4.587802801752e-01 -2.049082294886e-01 4.085081171804e-01 4.016318168656e-02 -9.625093956906e-02 -3.927882320926e-02 -9.154881024143e-02 1.385216733123e-01 
993 425 326 3 2 2.224441819820e-03 -1.522941062955e-03 -1.620801213608e-03 4.237162372678e-05 1.115567849677e-01 -7.637619791394e-02 -8.128392968107e-02 2.124956505810e-03 2.765110539814e-02 -2.654103013097e-02 -2.139946295007e-02 4.389700359596e-02 
994 152 49 2 1 1.584407266400e-03 1.540078667256e-03 2.263878716366e-04 -2.953855380005e-04 1.615886578565e+00 1.570677250179e+00 2.308857899640e-01 -3.012543154019e-01 7.530003063908e-02 -3.639583951421e-01 1.136555456474e-01 3.886558774353e-01 
995 25 62 1 1 1.488153779002e-03 1.155464044220e-03 6.775183105764e-04 6.484392425706e-04 2.892162822776e-02 2.245594641429e-02 1.316727677776e-02 1.260213760603e-02 7.074479798849e-03 -1.259251462163e-02 5.510958769578e-04 1.445418263292e-02 
996 25 481 1 3 1.990981084719e-03 -6.182975767485e-04 -1.890999371225e-03 -7.638824728434e-05 2.148024976302e-02 -6.670674311455e-03 -2.040156941087e-02 -8.241357204347e-04 -6.800110241490e-03 1.918469983406e-03 7.549147585459e-03 1.033980926520e-02 
997 205 446 2 3 2.212741587545e-03 -2.738551454498e-04 1.732066395490e-03 -1.349509056723e-03 1.963530374083e-01 -2.430120621478e-02 1.536991484508e-01 -1.197519872130e-01 4.978775770030e-02 -3.153685620601e-02 -5.058029225295e-02 7.766440678056e-02 
998 335 451 2 3 2.142567171910e-03 1.319460927424e-03 -1.196812802118e-03 1.190485642011e-03 9.614055180827e-01 5.920640590181e-01 -5.370298057178e-01 5.341907037656e-01 -1.728626426922e-03 -1.815815422806e-01 -1.806307038254e-01 2.561294512757e-01 
999 376 235 2 2 1.976825649581e-03 1.462375077888e-03 -9.185429753247e-04 -9.620694272727e-04 9.137633285236e-02 6.759648828943e-02 -4.245851862063e-02 -4.447047529568e-02 2.396348542027e-02 -1.404536383063e-04 3.655933300705e-02 4.371330679132e-02 
1000 144 274 2 2 1.957150266267e-03 -5.528629047664e-04 -1.757566234857e-03 6.601065848598e-04 2.297441908949e-01 -6.489897220492e-02 -2.063156005601e-01 7.748799663309e-02 -2.483037735598e-02 -4.067616261636e-03 -3.162655856916e-02 4.041450666062e-02 
1001 134 398 2 2 1.996987712055e-03 4.663815675311e-05 1.430003040822e-03 1.393153296545e-03 4.282201706312e-03 1.000076230924e-04 3.066399169345e-03 2.987381137904e-03 -4.038285840251e-04 5.822993253134e-04 -5.841826501052e-04 9.183786790971e-04 
1002 134 123 2 2 1.997706948978e-03 -3.722517594988e-04 -1.432153517670e-03 1.342087174281e-03 2.844087096311e-03 -5.299658322315e-04 -2.038922346256e-03 1.910697070184e-03 -7.950430497803e-05 -7.337389529886e-04 -8.050314917673e-04 1.092139866675e-03 
1003 322 492 2 3 2.170372070467e-03 -4.224556600270e-04 3.207447200396e-04 2.104559090199e-03 6.134783827304e-01 -1.194115140972e-01 9.066185231405e-02 5.948756550016e-01 -6.318900393368e-02 -6.489835638596e-02 -2.793339129091e-03 9.062256685407e-02 
1004 322 261 2 2 1.909691502679e-03 9.922708722598e-04 1.409745104228e-03 8.215466466211e-04 7.029351806791e-01 3.652433410821e-01 5.189107393324e-01 3.024017437732e-01 -4.017967281884e-03 1.014736527775e-01 -1.692722790981e-01 1.973984567826e-01 
1005 322 139 2 2 1.955211576317e-03 -5.172092177017e-04 -1.590682256927e-03 1.012460809506e-03 2.455110206213e-01 -6.494466606620e-02 -1.997379869845e-01 1.271321680435e-01 -1.132181355911e-01 4.302317129285e-02 9.757149905173e-03 1.215094295480e-01 
1006 322 496 2 3 2.236689356488e-03 -2.144999177579e-03 5.238659413860e-04 -3.568224783644e-04 4.192747161182e-02 -4.020870929817e-02 9.820037960188e-03 -6.688753755048e-03 -5.336038217988e-03 -1.962063273339e-02 3.271140203759e-03 2.059472968881e-02 
1007 322 253 2 2 1.921073226179e-03 5.015649966591e-04 -1.776041818869e-03 -5.335075932918e-04 5.743265308534e-01 1.499485186734e-01 -5.309677541600e-01 -1.594981185848e-01 -1.780857683623e-02 3.603406929031e-02 -1.366994089834e-01 1.424862378441e-01 
1008 470 235 3 2 2.157267930054e-03 -5.629155309673e-04 -7.219836057174e-04 -1.953374183333e-03 7.709851803653e-01 -2.011801715155e-01 -2.580294513815e-01 -6.981156703238e-01 -1.700207270731e-01 -1.997185438185e-01 1.228135522036e-01 2.896164929425e-01 
1009 207 253 2 2 1.879684697399e-03 -9.037503198980e-04 -9.498784392775e-04 1.346915317129e-03 1.080945121566e+00 -5.197172168074e-01 -5.462439878554e-01 7.745668958354e-01 2.662814520513e-02 2.046491581912e-01 1.621906105570e-01 2.624807235175e-01 
1010 6 86 1 1 1.499998711145e-03 -8.844222883155e-04 8.174411622488e-04 8.941942158327e-04 3.235491559892e-08 -1.907695538646e-08 1.763217502464e-08 1.928773549427e-08 -4.891089253541e-09 -5.608732579336e-09 2.896692066537e-10 7.447452147002e-09 
1011 447 350 3 2 2.167406205221e-03 2.056429459655e-03 4.713998885608e-04 4.965175535234e-04 6.480704918953e-01 6.148876238595e-01 1.409520545448e-01 1.484624222130e-01 -2.921497009756e-02 6.773300037178e-02 5.669325511063e-02 9.303439682292e-02 
1012 447 264 3 2 2.070097006040e-03 -1.841367178746e-03 8.753566398243e-04 3.583563597455e-04 2.083332966802e+00 -1.853140667454e+00 8.809535689071e-01 3.606476488506e-01 2.643209359689e-02 6.219007909283e-02 -1.609378153689e-02 6.946417287815e-02 
1013 447 59 3 1 1.925286541924e-03 7.543501546481e-04 -1.609794683893e-03 7.390840198567e-04 5.121607046435e-01 2.006706525702e-01 -4.282342195203e-01 1.966095872785e-01 1.988737120425e-02 4.795738222228e-02 8.415754596943e-02 9.888331804013e-02 
1014 447 34 3 1 1.919640448568e-03 -1.131263856066e-03 -1.357941592821e-03 7.491703212381e-04 5.713000402016e-01 -3.366729883877e-01 -4.041340591404e-01 2.229589582572e-01 5.153379345420e-02 4.841662876495e-02 1.655768632599e-01 1.800433266071e-01 
1015 447 296 3 2 2.180988978892e-03 -4.695836181329e-04 1.723216595889e-03 -1.251690343210e-03 4.949698859023e-01 -1.065708044095e-01 3.910796111795e-01 -2.840679308147e-01 1.357973375113e-01 1.442571392801e-01 1.476548032858e-01 2.470890123858e-01 
1016 447 430 3 3 2.339147483209e-03 1.773627795570e-03 -9.966946284421e-04 -1.154320236599e-03 1.868181870371e+00 1.416524317622e+00 -7.960194252469e-01 -9.219085816935e-01 6.106924790058e-02 1.344887328646e-01 -2.229024594018e-02 1.493771313513e-01 
1017 447 155 3 2 2.192704395858e-03 -9.210342454264e-04 -1.703177391535e-03 -1.028997210556e-03 3.744407047081e-01 -1.572818992698e-01 -2.908458358244e-01 -1.757183692390e-01 -4.392110703173e-02 1.205347247568e-03 3.731781106455e-02 5.764664367966e-02 
1018 487 380 3 2 2.202770825553e-03 1.734332962662e-03 3.767885710996e-04 1.304729419159e-03 2.802313089695e-01 2.206377489105e-01 4.793415332141e-02 1.659845993693e-01 1.120417084796e-02 -1.364539637177e-01 2.451276923712e-02 1.390902351509e-01 
1019 487 332 3 2 2.108507177310e-03 -9.505719127400e-04 6.799889756938e-04 1.754944599812e-03 1.453124105827e+00 -6.551075450866e-01 4.686293615268e-01 1.209458677600e+00 -2.822366999548e-02 5.039321249376e-01 -2.105462003338e-01 5.468764618880e-01 
1020 487 95 3 1 1.896789846616e-03 -2.289956127434e-04 -1.079186904156e-03 1.542960906007e-03 8.315562303851e-01 -1.003921066149e-01 -4.731175651864e-01 6.764369584328e-01 -1.164178523721e-02 -1.318776381469e-01 -9.396643634517e-02 1.623481868273e-01 
1021 487 210 3 2 2.180830551034e-03 -1.652108271932e-03 1.245236673140e-03 -6.898882358779e-04 4.966753744233e-01 -3.762610048547e-01 2.835976369572e-01 -1.571192671079e-01 -2.271379864296e-02 -4.887499584367e-02 -3.382472897130e-02 6.363013560801e-02 
1022 487 445 3 3 2.347591539943e-03 1.385275549906e-03 -1.176713918967e-03 -1.485779944055e-03 1.723022610503e+00 1.016727592366e+00 -8.636530904021e-01 -1.090493126373e+00 7.768870781644e-02 3.536745697036e-01 -2.076710773490e-01 4.174308480989e-01 
1023 106 402 2 3 2.178294311942e-03 1.942600643301e-04 1.195415526248e-04 2.166319217946e-03 5.242416397396e-01 4.675181590569e-02 2.876960161970e-02 5.213596403338e-01 -1.343982228664e-01 7.461519592155e-02 7.934468269950e-03 1.539261691812e-01 
1024 106 198 2 2 1.884692840622e-03 -1.719426249547e-03 -7.172189993575e-04 2.850217234233e-04 1.014160637508e+00 -9.252300342015e-01 -3.859383672201e-01 1.533713114945e-01 1.396224037970e-01 -2.956690494189e-01 9.827660137670e-02 3.414277270587e-01 
1025 106 293 2 2 1.937780410457e-03 1.463620985234e-03 -1.055871200607e-03 -7.056504364489e-04 4.019879849245e-01 3.036247282574e-01 -2.190379952142e-01 -1.463855220532e-01 -1.026312460550e-01 -1.683504926468e-01 3.903234510569e-02 2.009939924616e-01 
1026 106 380 2 2 1.857841860084e-03 7.428142111436e-04 6.566578638289e-04 -1.571179135132e-03 1.388289235742e+00 5.550746786599e-01 4.906935641325e-01 -1.174077905979e+00 1.812834243473e-01 -3.213222734044e-02 7.227694250628e-02 1.977880592831e-01 
1027 46 293 1 2 1.674528649967e-03 1.326645124464e-03 -1.042813455086e-04 1.016456744911e-03 4.971897265850e-01 3.938985019579e-01 -3.096251214477e-02 3.017994652391e-01 7.411937012121e-02 1.204656299751e-02 -9.550221359765e-02 1.214885735749e-01 
1028 46 380 1 2 1.725189875740e-03 6.058383503734e-04 1.608247718927e-03 1.509280462271e-04 9.371145227721e-02 3.290883656175e-02 8.735921273450e-02 8.198336078944e-03 -7.775209757493e-03 7.199888407146e-03 -4.550965860064e-02 4.672709391558e-02 
1029 46 95 1 1 1.420356184003e-03 -1.357490225032e-03 1.522722436712e-04 3.891595330760e-04 5.041746952636e-01 -4.818595703229e-01 5.405109853058e-02 1.381374553844e-01 -2.407132952007e-02 6.051700685482e-02 -1.076464827149e-01 1.258153498760e-01 
1030 46 436 1 3 1.952074664118e-03 -1.983935946622e-04 -1.664383516009e-03 -1.000531352596e-03 2.631211441244e-01 -2.674157427173e-02 -2.243431068718e-01 -1.348621336400e-01 3.952094868520e-02 3.413180433665e-02 -6.461478235132e-02 8.307800882641e-02 
1031 460 296 3 2 2.242825914576e-03 -1.803339351720e-03 2.440744284836e-04 1.310977856027e-03 1.659019466334e-02 -1.333931032928e-02 1.805419785178e-03 9.697309848913e-03 3.648922099116e-03 5.113356230446e-03 4.067349641286e-03 7.483607253813e-03 
1032 460 293 3 2 2.166584992878e-03 -5.880171679707e-04 2.085250891196e-03 7.420397898556e-06 6.577599129982e-01 -1.785178622197e-01 6.330674537490e-01 2.252780431975e-03 -5.960073005020e-04 -1.075664481808e-03 2.550493755932e-01 2.550523402544e-01 
1033 460 432 3 3 2.476824013124e-03 -1.933800505681e-03 -1.416160976650e-03 -6.241481269955e-04 1.021726262143e-01 -7.977210944053e-02 -5.841871903686e-02 -2.574702641122e-02 6.533745389241e-03 -2.690064836544e-02 4.079270164051e-02 4.929887644180e-02 
1034 460 476 3 3 2.465907569531e-03 1.794973012342e-03 -3.801934082699e-04 -1.647490515525e-03 1.822906222084e-01 1.326922190069e-01 -2.810555180955e-02 -1.217896708166e-01 -2.108495607948e-02 -8.322164146556e-02 -3.767310082810e-03 8.593375126431e-02 
1035 460 247 3 2 2.189718814717e-03 -2.360083503156e-04 -1.180017377979e-03 -1.829406333698e-03 4.040859704061e-01 -4.355247012551e-02 -2.177578527764e-01 -3.375946850577e-01 1.154612360809e-01 -1.451618555260e-01 7.873794556733e-02 2.015016759465e-01 
1036 445 141 3 2 2.175118538373e-03 1.151649578000e-03 1.480593173119e-03 1.101221031935e-03 5.594516997123e-01 2.962102076364e-01 3.808161958400e-01 2.832397256547e-01 -3.502304252908e-02 -4.346770876468e-02 9.506925676939e-02 1.102461736113e-01 
1037 445 361 3 2 2.197703654197e-03 1.273016889042e-03 -3.295463265411e-04 1.760888574144e-03 3.265187272380e-01 1.891355340692e-01 -4.896158174131e-02 2.616199390392e-01 -2.649674374732e-02 -8.544837852772e-03 1.755641034359e-02 3.291381514340e-02 
1038 445 436 3 3 2.418485534800e-03 -4.551745322794e-04 -1.719128744869e-03 1.639049964390e-03 6.739528820820e-01 -1.268422669749e-01 -4.790649998121e-01 4.567496606789e-01 7.564518026646e-02 1.747612759663e-01 2.043067018985e-01 2.792936184655e-01 
1039 445 290 3 2 2.167343032454e-03 1.706062845800e-03 1.155052671228e-03 -6.727397068704e-04 6.488141838449e-01 5.107256933076e-01 3.457757009198e-01 -2.013908538322e-01 1.141279572412e-01 -1.923280675870e-01 -4.078781198680e-02 2.273299844114e-01 
1040 445 481 3 3 2.495456872598e-03 -1.680678148212e-03 1.603350715070e-03 -9.120813832120e-04 8.867707205751e-03 -5.972357963428e-03 5.697571793566e-03 -3.241118186795e-03 7.057751904565e-04 -1.537111647828e-03 -4.002614314551e-03 4.345313819323e-03 
1041 436 338 3 2 2.217978649984e-03 -9.639796776663e-04 2.574123828695e-04 1.980886503053e-03 1.564445531860e-01 -6.799405844326e-02 1.815651616973e-02 1.397213196279e-01 6.227479398153e-02 -3.165573732228e-02 3.441904142840e-02 7.787750691766e-02 
1042 436 432 3 3 2.391694634554e-03 1.792553814161e-04 -1.941309697345e-03 1.385419572613e-03 1.032172423437e+00 7.736040327947e-02 -8.378019108300e-01 5.978990198335e-01 -9.218629485200e-02 4.348764515969e-02 7.286448000097e-02 1.252945357383e-01 
1043 436 361 3 2 2.220907367019e-03 1.728191421321e-03 1.389582418328e-03 1.218386097539e-04 1.354801278552e-01 1.054233950483e-01 8.476751732026e-02 7.432417340895e-03 -1.453478032123e-02 1.237992418238e-02 6.497084711761e-02 6.771804292009e-02 
1044 436 297 3 2 2.186558502041e-03 -2.088147689275e-03 6.334312126767e-04 -1.394353234791e-04 4.362758206821e-01 -4.166402801449e-01 1.263861551832e-01 -2.782100736208e-02 6.644373000174e-03 6.526674423928e-02 1.969914087538e-01 2.076282994174e-01 
1045 436 225 3 2 2.167800422915e-03 2.795145171288e-04 -3.960993515173e-04 -2.112897444750e-03 6.434362010966e-01 8.296416826548e-02 -1.175683237733e-01 -6.271401604991e-01 2.182706208517e-01 1.420663377562e-01 2.242145219365e-03 2.604418082137e-01 
1046 141 380 2 2 1.871674388990e-03 -8.025921652441e-04 7.290931694687e-05 1.689288331278e-03 1.190672581993e+00 -5.105719730417e-01 4.638153151591e-02 1.074647017112e+00 1.545496129234e-01 1.395009089278e-01 6.740672405515e-02 2.188372749197e-01 
1047 141 361 2 2 1.930413504580e-03 1.213673110413e-04 -1.810139499660e-03 6.596675422086e-04 4.754554105389e-01 2.989242696462e-02 -4.458322617936e-01 1.624742581607e-01 2.163956759651e-01 2.229804314324e-02 2.137320158081e-02 2.185888950752e-01 
1048 141 151 2 2 1.898753631419e-03 -1.052696910786e-03 1.011186505231e-03 -1.214329616903e-03 8.344331218024e-01 -4.626219826752e-01 4.443796700753e-01 -5.336536748963e-01 4.029717328316e-02 2.260970019813e-01 1.533401845159e-01 2.761465709852e-01 
1049 406 77 3 1 1.946464114261e-03 -7.741010823304e-04 -1.710238338312e-03 5.143684366365e-04 3.106529483834e-01 -1.235454493154e-01 -2.729516451613e-01 8.209248258202e-02 4.290421393393e-02 -5.089307137779e-02 -1.046469408916e-01 1.240236208370e-01 
1050 163 28 2 1 1.685972070109e-03 8.577101240944e-04 8.602181273804e-04 -1.169127853376e-03 3.885108501427e-01 1.976484043809e-01 1.982263418842e-01 -2.694106647991e-01 -7.835563210892e-02 -8.466224298050e-02 -1.197768187968e-01 1.662942776850e-01 
1051 486 70 3 1 1.826236640155e-03 -1.678185825235e-03 -4.380783594544e-04 5.717691429257e-04 1.816541414506e+00 -1.669276579906e+00 -4.357526649342e-01 5.687337034117e-01 2.427731205341e-01 -1.311974186837e-01 6.120366306279e-01 6.713720190427e-01 
1052 486 350 3 2 2.183446956339e-03 1.103747995003e-03 -1.871199944421e-03 2.186132262078e-04 4.687625901380e-01 2.369628295731e-01 -4.017265132392e-01 4.693390964139e-02 -1.549876656209e-01 -7.368910222405e-02 1.517761835770e-01 2.291010043243e-01 
1053 486 313 3 2 2.002681145573e-03 9.809680933903e-04 1.063518793953e-03 -1.384688104048e-03 3.358048305983e+00 1.644864062117e+00 1.783283121384e+00 -2.321812212789e+00 2.250792672637e-01 2.830062922784e-02 1.811915836671e-01 2.903308322559e-01 
1054 486 296 3 2 2.178562236018e-03 -1.422265082785e-03 -6.193832370935e-04 -1.529594670525e-03 5.213061050164e-01 -3.403324717328e-01 -1.482116312784e-01 -3.660152676671e-01 -5.122905413846e-03 -2.390062781129e-01 1.015449482574e-01 2.597337514722e-01 
1055 155 483 2 3 2.216250870508e-03 -1.312023393006e-03 -1.200741016744e-03 1.322340178600e-03 1.692758323903e-01 -1.002115125693e-01 -9.171183542414e-02 1.009995020936e-01 -1.515529162808e-02 5.672425273838e-02 3.647097814848e-02 6.911914322506e-02 
1056 155 96 2 1 1.694270025493e-03 -6.094140316288e-04 -1.408409162074e-03 -7.180174716005e-04 3.154875481014e-01 -1.134780971889e-01 -2.622578140323e-01 -1.337009852035e-01 9.746203323927e-02 5.673854344734e-03 -9.384985983950e-02 1.354209612215e-01 
1057 155 450 2 3 2.229368220610e-03 -1.364123531329e-03 -2.872867930517e-05 -1.763072408418e-03 8.091072266974e-02 -4.950829553874e-02 -1.042653332204e-03 -6.398739399145e-02 -2.031182765779e-02 2.973695611068e-03 1.566720209577e-02 2.582391197895e-02 
1058 81 119 1 2 1.560671344870e-03 -9.980136237679e-04 1.146229265845e-03 -3.547144254092e-04 1.975483855080e+00 -1.263276734966e+00 1.450886771477e+00 -4.489943528873e-01 -5.211955035965e-03 -2.671092884895e-02 -7.164988039900e-02 7.664426629867e-02 
1059 81 264 1 2 1.510967405434e-03 1.412886197893e-03 -1.523516673621e-04 -5.133849058342e-04 2.802429183091e+00 2.620515504917e+00 -2.825704625876e-01 -9.521878745328e-01 -1.935680867165e-01 -1.478420412419e-01 -4.888451018163e-01 5.461642673440e-01 
1060 81 187 1 2 1.642542217324e-03 -8.326515082966e-04 -5.722091463019e-04 -1.295072621250e-03 8.447063839859e-01 -4.282057637701e-01 -2.942686731328e-01 -6.660139991272e-01 -1.282101317448e-01 -3.310943364739e-01 2.287204302738e-01 4.223438560602e-01 
1061 366 313 2 2 1.897387568990e-03 3.912657803607e-04 -1.777281250542e-03 5.369003935089e-04 8.513778082119e-01 1.755650811442e-01 -7.974848367261e-01 2.409128676315e-01 7.741881911944e-02 -7.547237441235e-02 -3.062522818973e-01 3.247771744143e-01 
1062 366 263 2 2 1.975629768419e-03 -1.527133090677e-03 1.239058681865e-03 -1.889737762684e-04 9.853983552601e-02 -7.616986035904e-02 6.180137628509e-02 -9.425574128252e-03 1.901641545203e-02 1.978924745480e-02 -2.392161770700e-02 3.640717189225e-02 
1063 366 452 2 3 2.176380427600e-03 4.330681545208e-04 1.004036208321e-03 -1.881753180298e-03 5.453697349418e-01 1.085206711325e-01 2.515970801153e-01 -4.715403704932e-01 -4.324918474993e-02 -1.549733888961e-01 -9.264166005375e-02 1.856602284416e-01 
1064 399 482 2 3 2.190974054815e-03 3.544133219921e-04 1.171566689532e-03 1.817192889609e-03 3.915304136451e-01 6.333420254610e-02 2.093607587718e-01 3.247351479028e-01 2.871896814794e-02 -1.469366413928e-02 3.872028434408e-03 3.249116035967e-02 
1065 399 405 2 3 2.201159735167e-03 -1.860255540416e-03 4.616062751347e-04 1.082346132635e-03 2.946918307323e-01 -2.490514895747e-01 6.179996668286e-02 1.449047782477e-01 6.678104663845e-03 -1.045812243042e-01 5.608033215581e-02 1.188563553773e-01 
1066 399 455 2 3 2.219464906053e-03 -1.868805746356e-03 -3.762435045277e-04 -1.136675141317e-03 1.456800190946e-01 -1.226636456701e-01 -2.469566460561e-02 -7.460845893071e-02 2.483290392511e-03 6.681446606029e-02 -2.619859900768e-02 7.181020955310e-02 
1067 338 296 2 2 1.925345766227e-03 1.273696213044e-03 -5.384866750815e-04 1.339659052582e-03 5.283284329533e-01 3.495112078568e-01 -1.477645346631e-01 3.676118754137e-01 -2.359199910265e-02 -7.273131258825e-03 1.950687048724e-02 3.146424726850e-02 
1068 338 427 2 3 2.204494946812e-03 -5.826394640697e-04 -1.904371430010e-03 9.453563782979e-04 2.650272062975e-01 -7.004566268767e-02 -2.289459726720e-01 1.136519547292e-01 -1.085560747475e-01 -4.448358911020e-03 -7.586597232474e-02 1.325136031446e-01 
1069 338 95 2 1 1.678935017018e-03 -1.951169527037e-04 1.559243376810e-03 -5.911956173804e-04 4.542893144620e-01 -5.279510272000e-02 4.219029310549e-01 -1.599667938368e-01 -1.002415876518e-01 -4.697018248036e-02 -9.079754858809e-02 1.431739109154e-01 
1070 430 350 3 2 2.227227806346e-03 2.828016640856e-04 1.468094517003e-03 1.650837790123e-03 9.382281158145e-02 1.191312678875e-02 6.184403537890e-02 6.954216470040e-02 -3.172498600100e-02 2.834296195260e-02 -1.977072998748e-02 4.691140579058e-02 
1071 430 149 3 2 2.144898654151e-03 1.394983335463e-03 -1.580933194025e-04 1.621609765856e-03 9.302796403169e-01 6.050283975194e-01 -6.856780670063e-02 7.033201996727e-01 1.670098653564e-01 2.634405070281e-01 -1.179863360471e-01 3.334875880200e-01 
1072 430 474 3 3 2.465588458207e-03 2.109992848589e-04 -2.032375979654e-03 1.379874495872e-03 1.848560160380e-01 1.581954484580e-02 -1.523761702565e-01 1.034552628158e-01 -7.127013953163e-02 -1.423195884811e-02 -1.006377238871e-02 7.337070911613e-02 
1073 430 183 3 2 2.171290244998e-03 4.552059203750e-04 2.953209742629e-04 -2.102397303138e-03 6.028981193986e-01 1.263961803197e-01 8.200122503760e-02 -5.837687445105e-01 -6.710851260700e-04 -9.087390880955e-02 -1.291023972496e-02 9.178884435120e-02 
1074 297 307 2 2 1.925700061579e-03 -6.621381001564e-04 7.773869048076e-04 1.632655341376e-03 5.245719792607e-01 -1.803702978843e-01 2.117647475027e-01 4.447448805571e-01 -1.620221435211e-01 4.428596860648e-02 -8.679625320047e-02 1.890661566125e-01 
1075 297 196 2 2 1.984053783896e-03 -1.184375082048e-03 1.461241814218e-03 -6.312665386338e-04 5.215656512612e-02 -3.113470844489e-02 3.841294750517e-02 -1.659465816977e-02 4.838299630093e-04 1.561422736039e-03 2.706590536434e-03 3.161924212507e-03 
1076 297 239 2 2 1.996562952007e-03 -1.932559614048e-03 -4.395631350499e-04 2.413735896586e-04 5.219185816628e-03 -5.051875633216e-03 -1.149055519466e-03 6.309711468844e-04 4.741543540645e-04 -1.375364034237e-03 1.291658417174e-03 1.945463966463e-03 
1077 297 311 2 2 1.976318175877e-03 3.373046633556e-04 -1.588622155954e-03 -1.126205461713e-03 9.439418024339e-02 1.611056234687e-02 -7.587679350326e-02 -5.379054984245e-02 6.483995461292e-04 9.528363740367e-03 -1.324648305495e-02 1.633032304841e-02 
1078 7 403 1 3 1.999055364631e-03 -8.913693804776e-04 1.640548377558e-03 -7.143416544614e-04 7.281176609316e-04 -3.246642388312e-04 5.975383515870e-04 -2.601852773840e-04 5.336280203630e-05 -7.650580468120e-05 -2.422894429758e-04 2.596245384563e-04 
1079 7 131 1 2 1.656318742722e-03 -1.300436852281e-03 -9.324996717153e-04 -4.274343610100e-04 6.875875930409e-01 -5.398503452856e-01 -3.871085849893e-01 -1.774408245764e-01 1.221278353216e-01 -9.949186174350e-02 -1.545112312057e-01 2.206525759701e-01 
1080 482 203 3 2 2.217022661043e-03 -5.585709135055e-04 1.212764482175e-03 1.769856018138e-03 1.635024852991e-01 -4.119386516823e-02 8.943977452387e-02 1.305245375575e-01 2.255944112101e-02 -3.143682765322e-02 2.866137986872e-02 4.815264491769e-02 
1081 482 427 3 3 2.407015865013e-03 1.086039303946e-03 -2.903224118153e-04 2.128369540730e-03 8.210897791999e-01 3.704735748698e-01 -9.903580964264e-02 7.260369579010e-01 1.868494747964e-01 9.626504499190e-02 -8.221221463973e-02 2.256956653438e-01 
1082 482 239 3 2 2.194326804266e-03 -1.388048857640e-03 1.550504712952e-03 -6.959350744413e-04 3.586496937045e-01 -2.268683482659e-01 2.534207937061e-01 -1.137464578208e-01 1.006668451855e-01 6.629855446250e-02 -5.307144252726e-02 1.317037966626e-01 
1083 482 405 3 3 2.439016546965e-03 -2.214668862408e-03 -7.099604143977e-04 -7.348467569745e-04 4.361094013492e-01 -3.959948172445e-01 -1.269447768569e-01 -1.313945900311e-01 7.556093436613e-02 -5.333963550548e-02 -1.761910461184e-01 1.989921009750e-01 
1084 198 5 2 1 1.670287639791e-03 -1.648783175465e-03 7.992378074922e-05 2.549255366054e-04 5.396814354669e-01 -5.327331949962e-01 2.582392379319e-02 8.236819590522e-02 -1.993975590228e-02 6.218300866276e-02 -1.484599607964e-01 1.621871770254e-01 
1085 198 176 2 2 1.845275457176e-03 -1.159181320668e-04 -1.650197871391e-03 8.175888237797e-04 1.576380893308e+00 -9.902647751989e-02 -1.409730121604e+00 6.984493265632e-01 -1.035516913047e-01 5.164842662069e-02 8.956409740305e-02 1.463292188460e-01 
1086 198 95 2 1 1.695133664099e-03 4.989118852849e-04 -8.209861206937e-05 -1.617969371707e-03 3.081824588399e-01 9.070428769595e-02 -1.492587438426e-02 -2.941536646109e-01 -1.148209011090e-01 -3.287065962303e-02 -3.373789247863e-02 1.241070706464e-01 
1087 198 307 2 2 1.929943177919e-03 -1.092277273776e-03 -4.879362542649e-04 -1.514440239482e-03 4.802838884933e-01 -2.718231201644e-01 -1.214273685445e-01 -3.768822084666e-01 4.880680747181e-02 7.365253912109e-02 -5.893154997874e-02 1.062060664815e-01 
1088 450 427 3 3 2.383289350866e-03 -4.076151849051e-05 2.089237911800e-03 1.146076601481e-03 1.154630638864e+00 -1.974770630292e-02 1.012171729784e+00 5.552389843365e-01 2.848952472497e-01 2.355524506998e-01 -4.192672171562e-01 5.589590846547e-01 
1089 450 122 3 2 2.151784323067e-03 -2.136295724165e-03 1.296232304488e-04 2.227423849222e-04 8.403734393997e-01 -8.343244097681e-01 5.062399555134e-02 8.699142479593e-02 -1.859417736555e-03 -1.623525330524e-01 7.664636302359e-02 1.795451680987e-01 
1090 450 464 3 3 2.443284251980e-03 -1.136155554932e-03 -1.882142074255e-03 1.065987665638e-03 3.911405368634e-01 -1.818848925811e-01 -3.013083969990e-01 1.706518541546e-01 -7.979830262310e-02 -4.906212777361e-02 -1.716766390953e-01 1.955702684312e-01 
1091 450 432 3 3 2.493401508624e-03 1.685113004662e-03 1.794887261595e-03 -3.947467072574e-04 1.552189461100e-02 1.049014624220e-02 1.117351169347e-02 -2.457372696254e-03 -2.635864308026e-03 8.823330601302e-04 -7.240189218354e-03 7.755425984232e-03 
1092 244 264 2 2 1.951964165698e-03 9.284350178011e-04 1.706343314895e-03 1.912198044241e-04 2.726907173459e-01 1.297030014497e-01 2.383773179620e-01 2.671353632176e-02 -1.145922017017e-01 6.583640845015e-02 -3.110610140059e-02 1.357696391422e-01 
1093 244 187 2 2 1.933509154823e-03 -1.317102688389e-03 1.286485835955e-03 -5.904679109913e-04 4.440840055714e-01 -3.025091637914e-01 2.954771544353e-01 -1.356173330859e-01 8.306962417504e-02 1.128234510109e-01 6.051903195920e-02 1.526179766210e-01 
1094 244 427 2 3 2.212819869177e-03 4.438829013008e-04 1.188318516030e-03 -1.813129572816e-03 1.957345474109e-01 3.926357495238e-02 1.051124812078e-01 -1.603800206586e-01 -3.144241684343e-02 8.073484161371e-02 4.521571827006e-02 9.773024816312e-02 
1095 196 139 2 2 1.984053778397e-03 -1.134588995657e-03 1.571457536864e-03 -4.239084999607e-04 5.215659205512e-02 -2.982595332901e-02 4.131030649198e-02 -1.114366099442e-02 -7.077438137627e-04 -1.268590118809e-03 -2.808476736523e-03 3.161924062189e-03 
1096 41 499 1 3 1.930602732201e-03 2.557927705887e-04 1.531169241334e-03 1.147744624248e-03 4.584811939340e-01 6.074588671356e-02 3.636233856778e-01 2.725673785080e-01 1.524415962902e-01 -1.180916645657e-01 1.235683122811e-01 2.290266563512e-01 
1097 41 307 1 2 1.605007616366e-03 1.428954602194e-03 -3.117188898420e-04 6.610367063782e-04 1.323935226910e+00 1.178712995632e+00 -2.571300067032e-01 5.452745351051e-01 9.358046030414e-02 -3.565825407795e-02 -2.191067144588e-01 2.409077955475e-01 
1098 41 239 1 2 1.701534384888e-03 1.585330883022e-04 -1.528668929699e-03 -7.302450453387e-04 2.558582850520e-01 2.383848628464e-02 -2.298646528915e-01 -1.098063292916e-01 1.248279444021e-02 -3.433757135878e-02 7.459100853671e-02 8.305845843970e-02 
1099 380 263 2 2 1.958179764653e-03 -9.681104520197e-06 1.145536436306e-03 1.588118553512e-03 2.215144514403e-01 -1.095152036518e-03 1.295860982090e-01 1.796521527561e-01 2.365518876058e-02 -4.851209516328e-02 3.513678549735e-02 6.440174708435e-02 
1100 380 452 2 3 2.155114472413e-03 1.950520140678e-03 9.105139627621e-04 -1.046608505176e-04 7.979966474132e-01 7.222393765607e-01 3.371454737128e-01 -3.875386152224e-02 -1.074881339300e-01 2.322636100313e-01 1.740373611367e-02 2.565209026790e-01 
1101 432 427 3 3 2.332256770532e-03 -1.725874523152e-03 2.943506502046e-04 1.540823308738e-03 1.989504280928e+00 -1.472237017613e+00 2.510923694489e-01 1.314381249792e+00 5.004961852189e-02 -2.204170200330e-01 9.816781327803e-02 2.464255396630e-01 
1102 432 247 3 2 2.095449676522e-03 1.697792155365e-03 2.361435986706e-04 -1.205258206702e-03 1.658845600795e+00 1.344043276032e+00 1.869411488139e-01 -9.541328032887e-01 8.928134410048e-03 2.088289410994e-01 5.349205170739e-02 2.157559682155e-01 
1103 113 119 2 2 1.938291064809e-03 -1.334970613012e-03 -1.405020862942e-03 -2.724131071621e-05 3.970492686284e-01 -2.734620796434e-01 -2.878115243717e-01 -5.580246791994e-03 -8.037325939427e-02 7.951988965338e-02 -1.626634132918e-01 1.980976014491e-01 
1104 113 176 2 2 1.886387173349e-03 3.640695861631e-04 -1.326111047515e-03 -1.291254968573e-03 9.918897552595e-01 1.914330726050e-01 -6.972884363031e-01 -6.789606040852e-01 7.040645581376e-02 3.453077328966e-01 -3.347778406334e-01 4.860768478313e-01 
1105 203 176 2 2 1.934968494898e-03 1.417302711466e-03 3.924286535083e-04 1.257519722400e-03 4.295444025990e-01 3.146275756447e-01 8.711538817215e-02 2.791572882653e-01 -5.266658812180e-02 5.515760568339e-04 5.918638298363e-02 7.922816210934e-02 
1106 203 307 2 2 1.940634791226e-03 4.409435697570e-04 1.554690270635e-03 -1.074509340862e-03 3.746454523035e-01 8.512549804776e-02 3.001376880736e-01 -2.074372982654e-01 -2.727768347941e-02 -3.323809639295e-02 -5.928553786904e-02 7.323672622566e-02 
1107 131 473 2 3 2.193791269112e-03 -1.995227544838e-03 9.049261261229e-04 1.135600414485e-04 3.638369514901e-01 -3.309054592676e-01 1.500806242089e-01 1.883376047368e-02 -3.178306036000e-02 -6.807000675113e-02 -1.599250903095e-02 7.680787127666e-02 
1108 176 264 2 2 1.904208083323e-03 7.118596224861e-04 -1.377490748634e-03 1.105343177432e-03 7.679194178370e-01 2.870751530091e-01 -5.555075115115e-01 4.457572135930e-01 1.448818534819e-01 2.650615321869e-01 2.370162246717e-01 3.839597089165e-01 
1109 176 427 2 3 2.110180096669e-03 2.273075059857e-04 -1.895515547499e-03 -8.990061998080e-04 1.427429256661e+00 1.537619394737e-01 -1.282219632924e+00 -6.081318620864e-01 -2.644965997632e-01 -4.972983306490e-02 3.797705651547e-02 2.717972854988e-01 
1110 403 247 3 2 2.086050861800e-03 -5.338726775991e-04 -1.066524388974e-03 1.711465421753e-03 1.812444930142e+00 -4.638500650079e-01 -9.266393054290e-01 1.486990026740e+00 4.404406484476e-02 2.220430937690e-01 1.521084180820e-01 2.727269440117e-01 
1111 403 435 3 3 2.415818800716e-03 1.268176536807e-03 -1.445540167805e-03 -1.462300370186e-03 7.072941055395e-01 3.712918324012e-01 -4.232196718173e-01 -4.281266591908e-01 2.306099803154e-01 1.026854180205e-02 1.898451113274e-01 2.988771859254e-01 
1112 427 264 3 2 2.126160123764e-03 4.845521165004e-04 5.180247988645e-04 2.004349377240e-03 1.189849076759e+00 2.711667301140e-01 2.898988283047e-01 1.121680925795e+00 -2.555948780094e-01 -8.809102082051e-02 8.455730038347e-02 2.832643759141e-01 
1113 427 187 3 2 2.146068174381e-03 -1.760985589690e-03 9.816731992472e-05 1.222661661824e-03 9.147953058298e-01 -7.506477987572e-01 4.184536377971e-02 5.211787594668e-01 -1.461561002190e-01 -3.475208860504e-01 -1.826045579413e-01 4.188995063896e-01 
1114 119 187 2 2 1.965870988152e-03 1.653621154713e-04 -1.718438412147e-03 -9.403581958404e-04 1.633081671068e-01 1.373690549852e-02 -1.427535321824e-01 -7.811711669387e-02 7.360859101341e-02 -1.115703892987e-02 3.333278395439e-02 8.157069740300e-02 
1115 95 307 1 2 1.645389137242e-03 -1.591189159061e-03 -4.058376421955e-04 1.035291322243e-04 8.113609265777e-01 -7.846342735797e-01 -2.001233616771e-01 5.105144476041e-02 -1.048379524838e-02 3.683251056063e-02 -1.674583843533e-02 4.179673314879e-02 
1116 332 499 2 3 2.102324619517e-03 -2.042774690669e-03 -3.221253908692e-04 3.782533562891e-04 1.549398908679e+00 -1.505511017193e+00 -2.374042164740e-01 2.787701442478e-01 2.884589976894e-02 -1.162973943507e-01 5.674326474657e-02 1.325781579309e-01 
1117 332 426 2 3 2.100044257171e-03 9.005871389573e-04 1.867354369150e-03 -3.348377924253e-04 1.585425173062e+00 6.798968715840e-01 1.409756300977e+00 -2.527852749725e-01 -1.661315256438e-01 1.083820376293e-01 1.576039423181e-01 2.533482830564e-01 
1118 313 260 2 2 1.949653725918e-03 1.199143381676e-03 -1.185155428862e-03 9.790870291275e-04 2.925993707093e-01 1.799645722747e-01 -1.778652937534e-01 1.469390409097e-01 6.056124530729e-02 -2.706108885455e-02 -1.069294248048e-01 1.258327018396e-01 
1119 313 310 2 2 1.764884379960e-03 1.420207821245e-03 9.284409362476e-04 -4.856171815341e-04 2.952871718729e+00 2.376184841166e+00 1.553397499737e+00 -8.124981204226e-01 -7.258292004359e-03 -2.042829547733e-01 -4.117913217476e-01 4.597350335578e-01 
1120 313 58 2 1 1.749999715242e-03 1.158504287893e-03 -1.026654021016e-03 -8.163016228149e-04 3.071431091657e-09 2.033295239229e-09 -1.801884339214e-09 -1.432694052831e-09 1.112130934856e-10 2.196117551828e-10 -1.183685578381e-10 2.731460976506e-10 
1121 313 293 2 2 1.879955146333e-03 -1.187910992427e-03 1.582744316653e-04 -1.448464024605e-03 1.077302542102e+00 -6.807287580390e-01 9.069867859103e-02 -8.300378755815e-01 1.942036173297e-01 -2.962603089140e-01 -1.916423460550e-01 4.027555144541e-01 
1122 293 361 2 2 1.913619499070e-03 2.031527021947e-04 -1.705197521717e-04 -1.895149487753e-03 6.575759521734e-01 6.980924454797e-02 -5.859560296766e-02 -6.512291129589e-01 -6.643692234340e-02 7.872130827164e-02 -1.420488379019e-02 1.039840745016e-01 
1123 70 264 1 2 1.595532070175e-03 -1.115862818163e-03 -1.029164833703e-03 -4.913171104958e-04 1.455815869021e+00 -1.018149887865e+00 -9.390437990880e-01 -4.482938698331e-01 -4.472861703161e-02 2.107370995191e-01 -3.398461151030e-01 4.023756407213e-01 
1124 350 277 2 2 1.939132976362e-03 1.935708436612e-03 1.143072395807e-04 1.426195730413e-05 3.889515003214e-01 3.882646057710e-01 2.292775837164e-02 2.860664925293e-03 -2.913674055016e-03 4.931840849889e-02 1.803630397355e-04 4.940473098994e-02 
1125 350 149 2 2 1.970352564092e-03 1.112181671377e-03 -1.626187836405e-03 -2.922802426672e-05 1.322218002782e-01 7.463368003567e-02 -1.091264006445e-01 -1.961365725886e-03 2.057956225120e-02 1.411184251132e-02 -2.062907381292e-03 2.503833198077e-02 
1126 183 247 2 2 1.889282649478e-03 -1.131086332673e-03 1.000498443605e-03 -1.135356993198e-03 9.542141382323e-01 -5.712742720082e-01 5.053186511987e-01 -5.734312412964e-01 -3.701494086811e-02 2.171799971917e-01 2.282589039359e-01 3.172371104610e-01 
1127 239 305 2 2 1.970974549327e-03 -1.951449439703e-03 1.214286234047e-04 2.486782012848e-04 1.280829014752e-01 -1.268140709400e-01 7.890984900400e-03 1.616024192959e-02 -1.838642498501e-03 -6.191105182191e-02 1.580257498428e-02 6.392245552281e-02 
1128 307 499 2 3 2.238175583926e-03 -1.173161831605e-03 1.842888131176e-03 4.867079178697e-04 3.510510143789e-02 -1.840068553930e-02 2.890513829579e-02 7.633865256215e-03 -1.198480749637e-02 -9.808632020705e-03 8.251546097156e-03 1.754801657841e-02 
1129 473 428 3 3 2.407436497724e-03 -1.536889010272e-03 -1.784106868490e-03 5.006848734339e-04 8.155244997249e-01 -5.206245906879e-01 -6.043701932560e-01 1.696081210504e-01 5.117895145804e-02 -2.124126874784e-02 8.140784092916e-02 9.847696753612e-02 
1130 473 311 3 2 2.221174335371e-03 -1.757468223659e-03 1.351572689574e-03 -1.348040642501e-04 1.336196492520e-01 -1.057243836637e-01 8.130684109014e-02 -8.109436299531e-03 1.815699746525e-02 2.499330805915e-02 1.387144023592e-02 3.386382817862e-02 
1131 5 499 1 3 1.910804114281e-03 -6.166559299160e-04 1.275028096162e-03 -1.282657858218e-03 6.680749954213e-01 -2.156015912234e-01 4.457884422267e-01 -4.484560381422e-01 -1.236265380666e-02 7.247792053765e-02 7.799031377583e-02 1.071838290856e-01 
1132 423 302 3 2 2.173528598783e-03 -4.533176452975e-04 4.028279719593e-04 2.087213287423e-03 5.773639746054e-01 -1.204167626754e-01 1.070049683740e-01 5.544356582889e-01 -2.584743620548e-01 -1.026616834264e-01 -3.632402682598e-02 2.804778993226e-01 
1133 423 215 3 2 2.137973334916e-03 -1.401102890220e-03 1.507377884961e-03 5.793553173644e-04 1.023724777772e+00 -6.708894453930e-01 7.217770517053e-01 2.774124372058e-01 4.539072966622e-02 1.371430806879e-01 -2.470493669438e-01 2.861851369788e-01 
1134 423 433 3 3 2.323618978207e-03 2.054906902230e-03 3.110039163919e-04 1.039153185551e-03 2.145137533376e+00 1.897065725883e+00 2.871151339080e-01 9.593339192691e-01 1.631868528963e-01 1.308642941417e-01 -3.618649333419e-01 4.179732556300e-01 
1135 423 161 3 2 2.163120400893e-03 -8.077101276571e-06 -1.801161507702e-03 1.197848843705e-03 6.991619830911e-01 -2.610673979971e-03 -5.821699296407e-01 3.871677104348e-01 3.485670081636e-01 -1.579989278589e-02 -2.140733186415e-02 3.495809915452e-01 
1136 423 276 3 2 2.221487710803e-03 -2.165497323286e-03 -2.899802278803e-04 4.019209617957e-04 1.314465717594e-01 -1.281335916989e-01 -1.715827940326e-02 2.378187027071e-02 -1.420110217083e-02 4.937014580080e-02 -4.089381788340e-02 6.566115244450e-02 
1137 423 227 3 2 2.074940521546e-03 -1.334451623019e-03 -1.049117786158e-03 -1.193301682116e-03 1.999767686900e+00 -1.286105894474e+00 -1.011109391679e+00 -1.150069662161e+00 -1.185076600562e-01 3.154760493996e-01 -1.448324408035e-01 3.668046334848e-01 
1138 423 409 3 3 2.461178195055e-03 5.328061333385e-04 3.480795394258e-04 -2.377468478513e-03 2.215087638200e-01 4.795314219370e-02 3.132754411857e-02 -2.139747966053e-01 9.717602812543e-02 -5.117907747730e-02 1.428477155628e-02 1.107543819091e-01 
1139 386 327 2 2 1.926853181544e-03 1.897889445609e-03 -3.081170764730e-04 -1.258677983346e-04 5.124075485042e-01 5.047052299944e-01 -8.193749130452e-02 -3.347198976964e-02 1.789262623239e-02 1.431088955466e-01 -8.052947745372e-02 1.651826225637e-01 
1140 386 378 2 2 1.901300599662e-03 -1.641956605968e-03 8.121918717283e-04 -5.091825192340e-04 8.031453112306e-01 -6.935935062353e-01 3.430851984763e-01 -2.150883205717e-01 6.269698326904e-02 6.992712477485e-02 -9.063838957122e-02 1.305221519681e-01 
1141 386 498 2 3 2.194312827933e-03 6.309963251707e-04 -1.695317380598e-03 -1.242075441950e-03 3.587846512191e-01 1.031720698913e-01 -2.771955973462e-01 -2.030875445629e-01 1.319722581488e-01 -3.575501891549e-02 1.158465178915e-01 1.792080188109e-01 
1142 386 446 2 3 2.172078954515e-03 -1.708571406251e-03 -1.316251476460e-03 -2.572795854750e-04 5.938588850921e-01 -4.671332542068e-01 -3.598707278513e-01 -7.034171914866e-02 -4.149464507826e-02 6.518499192818e-02 -5.792639049654e-02 9.657305762378e-02 
1143 211 328 2 2 1.944678305470e-03 1.706850392324e-03 8.842419173363e-04 2.941966716576e-04 3.370276634558e-01 2.958102622811e-01 1.532459052436e-01 5.098653929870e-02 -1.529167917673e-03 -5.803688751772e-03 2.631547686345e-02 2.699121116584e-02 
1144 211 388 2 2 1.930679555033e-03 -1.779317146046e-03 3.299140900233e-04 6.728378194004e-04 4.727313048829e-01 -4.356698728476e-01 8.078021951877e-02 1.647458789888e-01 -4.667370661625e-03 1.580901901520e-01 -8.985956521697e-02 1.819039142849e-01 
1145 211 335 2 2 1.929015085806e-03 -2.635328820733e-04 -1.844893861349e-03 4.980123107806e-04 4.898593931576e-01 -6.692226444438e-02 -4.684974181957e-01 1.264666150820e-01 1.926619696835e-01 3.672679154100e-04 1.033113707141e-01 2.186138348021e-01 
1146 211 64 2 1 1.707672325720e-03 -7.126678448835e-04 -1.051736494442e-03 -1.141095815941e-03 2.088264770871e-01 -8.715015939463e-02 -1.286139171141e-01 -1.395414188500e-01 1.408968632755e-03 -4.690522554417e-02 4.235210589738e-02 6.321223180603e-02 
1147 211 491 2 3 2.187948423829e-03 -3.757046166050e-04 1.004756968138e-03 -1.906941997381e-03 4.220173719272e-01 -7.246691612734e-02 1.938002242196e-01 -3.678160972113e-01 5.005134354472e-02 1.574847540026e-01 7.311674046351e-02 1.807004218863e-01 
1148 282 371 2 2 1.996778543055e-03 -1.962966954345e-03 -2.094967142603e-04 2.999940213893e-04 4.735873979402e-03 -4.655681098858e-03 -4.968753501916e-04 7.115129941752e-04 1.005036638218e-04 7.355611587671e-04 1.171300065618e-03 1.386757025742e-03 
1149 282 388 2 2 1.978780110213e-03 -8.310354931791e-04 -1.750285322514e-03 4.018109299690e-04 8.006395726548e-02 -3.362475187040e-02 -7.081876785646e-02 1.625778072046e-02 2.873764493434e-03 3.873259238472e-03 2.281547962533e-02 2.331966487808e-02 
1150 282 433 2 3 2.229109771656e-03 7.354858504828e-04 1.402000630094e-03 -1.569198894674e-03 8.243580056124e-02 2.719936256929e-02 5.184807217606e-02 -5.803131311304e-02 8.106785010273e-03 1.485875945627e-02 1.707521964216e-02 2.404299943039e-02 
1151 101 137 2 2 1.971499930938e-03 3.285693282756e-04 1.368332008647e-03 1.380768513660e-03 1.246209901977e-01 2.076928048323e-02 8.649398722310e-02 8.728011434643e-02 3.183715351403e-02 -3.040244586032e-02 2.255260556909e-02 4.946244106512e-02 
1152 101 458 2 3 2.248944703359e-03 1.279577608157e-03 -9.367941040919e-04 1.594631691021e-03 9.359709666517e-04 5.325375448423e-04 -3.898771196334e-04 6.636574759126e-04 -1.336280048308e-04 -4.252337611991e-04 -1.425840706173e-04 4.679854832497e-04 
1153 101 325 2 2 1.974582854149e-03 -1.122595069831e-03 1.622636241992e-03 -7.621931032047e-05 1.049572721725e-01 -5.967058613728e-02 8.624984934402e-02 -4.051372613356e-03 5.069496945945e-03 5.025822491969e-03 3.232893911022e-02 3.310768785340e-02 
1154 101 415 2 3 2.219930334641e-03 -1.608570373633e-03 -1.523693504652e-03 1.376595351169e-04 1.423619689619e-01 -1.031560504538e-01 -9.771297956152e-02 8.827971833085e-03 2.635410383711e-02 -2.268605163644e-02 5.684924858051e-02 6.664107436167e-02 
1155 253 481 2 3 2.176877850000e-03 2.162833936686e-03 -1.582915418771e-04 1.894474172699e-04 5.398518007414e-01 5.363689999531e-01 -3.925529120731e-02 4.698174927867e-02 -2.812952612562e-03 -2.220567232838e-01 -1.534238477016e-01 2.699184656549e-01 
1156 253 489 2 3 2.161776973641e-03 -9.324837332566e-04 -1.913616851667e-03 -3.765956930116e-04 7.154413655080e-01 -3.086060419597e-01 -6.333126266534e-01 -1.246345669039e-01 3.054342467347e-01 -1.213460290918e-01 -1.396793999786e-01 3.571068084385e-01 
1157 253 22 2 1 1.746931037080e-03 -9.636013575192e-04 1.539740061183e-05 -1.457052981932e-03 4.076921525166e-03 -2.248816371547e-03 3.593387068723e-05 -3.400415093244e-03 -1.187266305751e-03 7.469112452994e-04 7.930747403242e-04 1.611348886141e-03 
1158 2 308 1 2 1.712477249791e-03 8.242949149114e-04 1.156469881431e-03 9.569188250026e-04 1.742974194505e-01 8.389745122324e-02 1.177065073597e-01 9.739602779653e-02 4.117014335092e-02 2.937938649365e-02 -7.097019481796e-02 8.714870972526e-02 
1159 2 256 1 2 1.696444911942e-03 -1.102225043573e-03 8.684111929639e-04 9.533558058292e-04 2.972008645822e-01 -1.930992474958e-01 1.521373052228e-01 1.670187860227e-01 1.128253376080e-01 7.028949101426e-02 6.641668465166e-02 1.485979318615e-01 
1160 2 272 1 2 1.655841487032e-03 1.242460090381e-03 6.448162925210e-04 -8.844862366854e-04 6.928486074252e-01 5.198787143235e-01 2.698084773315e-01 -3.700928272264e-01 5.262971966444e-02 1.029711237831e-01 1.489992484887e-01 1.886099567237e-01 
1161 2 54 1 1 1.448333344825e-03 -3.769116381102e-04 1.292738374165e-03 -5.333240954153e-04 2.634319861971e-01 -6.855506144556e-02 2.351313934435e-01 -9.700434381627e-02 5.163283515365e-02 2.380795829312e-02 2.121870156428e-02 6.068774044373e-02 
1162 2 458 1 3 1.892984311658e-03 -1.593023094586e-03 -1.020305009685e-03 -6.815212037101e-05 8.779689704806e-01 -7.388465069107e-01 -4.732189978611e-01 -3.160905591752e-02 1.297094343005e-01 -2.034268783648e-01 1.360689433415e-02 2.416447387411e-01 
1163 2 500 1 3 1.947434422911e-03 7.546145400248e-04 -1.795240719597e-03 -1.298022427516e-05 3.022457072939e-01 1.171176819619e-01 -2.786249409345e-01 -2.014556701229e-03 -1.083605044826e-01 -4.596081945472e-02 5.703463364708e-02 1.307950507165e-01 
1164 323 272 2 2 1.928718244429e-03 -7.172815403080e-04 1.601934615860e-03 7.995415841817e-04 4.929353177042e-01 -1.833204020216e-01 4.094170577227e-01 2.043441471842e-01 5.375813673584e-02 -6.869948011217e-02 1.858712509622e-01 2.053233492987e-01 
1165 323 500 2 3 2.224225826178e-03 -1.205127090664e-03 -8.381223962580e-04 1.671047596592e-03 1.129739263584e-01 -6.121138312073e-02 -4.257030772677e-02 8.487663702892e-02 -3.133638336661e-02 -1.692580111129e-02 -3.108841280485e-02 4.727516342101e-02 
1166 323 283 2 2 1.985093610230e-03 1.959107016268e-03 3.108346857513e-04 -7.666901797812e-05 4.713907563128e-02 4.652198432041e-02 7.381243728227e-03 -1.820622774877e-03 2.610749322101e-03 -1.899418848388e-02 -1.029510110796e-02 2.176199244111e-02 
1167 323 19 2 1 1.719606847814e-03 1.071561029139e-03 -1.334760108016e-03 1.649852294192e-04 1.270610899345e-01 7.917723313725e-02 -9.862491204973e-02 1.219069527419e-02 3.190763638944e-02 2.549339974321e-02 -9.904321846119e-04 4.085329419202e-02 
1168 410 481 3 3 2.382202181143e-03 9.411876251802e-04 1.471801786802e-03 1.619522332793e-03 1.170801432220e+00 4.625735918937e-01 7.233591059449e-01 7.959605955176e-01 -1.485216886437e-01 2.912115659362e-02 5.984863753319e-02 1.627531664009e-01 
1169 410 312 3 2 2.236773768429e-03 7.524492659388e-04 -1.276281293852e-03 1.675733586309e-03 4.152938185851e-02 1.397045751134e-02 -2.369626019375e-02 3.111274862984e-02 -1.201690706198e-02 -1.558508921686e-02 -6.474086942351e-03 2.071750136892e-02 
1170 410 489 3 3 2.414638753541e-03 -2.154130044763e-03 -2.835235229869e-04 1.053479222512e-03 7.222182493679e-01 -6.443001163458e-01 -8.480186202843e-02 3.150955474032e-01 -1.312949471082e-01 -1.255888017367e-01 -3.022686760240e-01 3.526716075375e-01 
1171 410 302 3 2 2.164448204364e-03 -7.602085560656e-04 -1.944335257331e-03 5.713837482469e-04 6.831952068334e-01 -2.399553108504e-01 -6.137178637988e-01 1.803538829332e-01 1.250454969674e-01 -2.183963408179e-02 9.205212133006e-02 1.568022288426e-01 
1172 410 188 3 2 2.066691961357e-03 1.810457593822e-03 4.235549248157e-04 -9.022528413772e-04 2.142759192995e+00 1.877093792992e+00 4.391444036446e-01 -9.354614071260e-01 3.049671797463e-03 -2.458125426889e-02 -5.419999169139e-03 2.535576759827e-02 
1173 410 215 3 2 2.121194525941e-03 -1.707993800988e-03 -8.397853443292e-04 -9.364742218117e-04 1.262125612112e+00 -1.016268284305e+00 -4.996781666141e-01 -5.572087264872e-01 -2.893757793215e-01 2.178643007735e-01 3.324093531971e-01 4.916291013583e-01 
1174 215 489 2 3 2.113854174835e-03 -4.461362437742e-04 5.562618213423e-04 1.989953444323e-03 1.371537186703e+00 -2.894676728209e-01 3.609207213045e-01 1.291146371963e+00 1.560781957363e-01 -6.725826025790e-02 5.379288785641e-02 1.782631525054e-01 
1175 215 443 2 3 2.132069252151e-03 -2.103550195751e-03 -1.867044629159e-04 2.931506668155e-04 1.105711127997e+00 -1.090920877637e+00 -9.682668707146e-02 1.520306876292e-01 -3.175966327706e-02 -3.330501019627e-01 -4.400125971672e-01 5.527586564629e-01 
1176 215 375 2 2 1.875335948125e-03 -4.837612885207e-04 1.706475963916e-03 -6.089332628744e-04 1.140077073776e+00 -2.940940554006e-01 1.037421655227e+00 -3.701901268179e-01 -1.714629496181e-01 -4.820110281809e-02 1.138242873505e-03 1.781128434489e-01 
1177 215 458 2 3 2.218588616930e-03 1.220602209341e-03 7.697025066939e-04 -1.685177660935e-03 1.519958279361e-01 8.362363440146e-02 5.273243037336e-02 -1.154517659734e-01 -1.968250499293e-02 4.176774223626e-02 4.820991277900e-03 4.642399434789e-02 
1178 215 191 2 2 1.901108309866e-03 -3.719826559994e-04 -6.894061961206e-04 -1.732212690817e-03 8.054935153988e-01 -1.576078625786e-01 -2.920992021176e-01 -7.339329813581e-01 4.024022756459e-02 7.130065200836e-02 -3.701842065413e-02 8.985222511988e-02 
1179 378 438 2 3 2.099188713720e-03 2.331911712170e-04 1.159730030048e-03 1.734139957121e-03 1.599012540316e+00 1.776284355141e-01 8.833997864539e-01 1.320944381977e+00 -2.416174550045e-01 1.492417967444e-01 -6.731702118199e-02 2.918624501356e-01 
1180 378 201 2 2 1.851755645468e-03 1.291869739235e-03 1.323465586094e-03 -9.225177394430e-05 1.478391979249e+00 1.031394107205e+00 1.056619382845e+00 -7.365133893585e-02 -1.129911585090e-01 7.709169242666e-02 -4.763231620090e-01 4.955742987774e-01 
1181 378 491 2 3 2.149166430072e-03 -2.001494883493e-03 -7.523662200285e-04 2.165170812272e-04 8.741959885188e-01 -8.141290379876e-01 -3.060328517340e-01 8.807059388519e-02 9.577353697762e-02 -2.293296451900e-01 8.844736761653e-02 2.637946045439e-01 
1182 378 446 2 3 2.144332927999e-03 -6.661480028314e-05 -2.128443348189e-03 2.519029337590e-04 9.378008242607e-01 -2.913326274935e-02 -9.308516883085e-01 1.101670248254e-01 -3.804086298520e-01 -2.044937331202e-02 -2.733837851103e-01 4.689004121303e-01 
1183 378 385 2 2 1.879464179293e-03 -6.946369458813e-04 -8.431140917199e-04 -1.529386721208e-03 1.083918308916e+00 -4.006087011318e-01 -4.862379451489e-01 -8.820228056455e-01 4.319563507500e-02 2.195611734529e-01 -1.406579515105e-01 2.643059422349e-01 
1184 409 458 3 3 2.418043587619e-03 -7.133068142177e-04 1.929000852229e-03 1.271646134943e-03 6.794410343671e-01 -2.004305969316e-01 5.420259341247e-01 3.573172004419e-01 6.776952783060e-02 7.502248751231e-02 -7.578993380246e-02 1.263534589978e-01 
1185 409 500 3 3 2.400697746633e-03 1.634330820393e-03 1.154065142317e-03 1.326818031039e-03 9.061832315512e-01 6.169053086024e-01 4.356210529012e-01 5.008294995625e-01 2.504812762999e-03 2.547001660883e-01 -2.246233237485e-01 3.396087252475e-01 
1186 409 110 3 2 2.107045310403e-03 1.415906759178e-03 -1.247496635011e-03 9.373367244711e-04 1.475702150490e+00 9.916524524155e-01 -8.737037869690e-01 6.564784407842e-01 1.406391580962e-01 -2.144661118015e-01 -4.978762435048e-01 5.600498546984e-01 
1187 409 226 3 2 2.213691315497e-03 8.295270292413e-04 2.011836541597e-03 -4.059899973628e-04 1.888934372043e-01 7.078322560618e-02 1.716692461930e-01 -3.464297191553e-02 3.372725855780e-02 -1.867824714171e-02 -2.364567502073e-02 4.522745663087e-02 
1188 409 265 3 2 2.084519430543e-03 -1.995675187021e-03 -3.582115652431e-04 -4.839279685513e-04 1.837898880698e+00 -1.759565844636e+00 -3.158313734892e-01 -4.266742054341e-01 1.032333571666e-01 1.983106601797e-02 -4.404043169032e-01 4.527762798097e-01 
1189 409 98 3 1 1.972908795283e-03 7.956558577967e-04 -1.708486768495e-03 -5.834156600018e-04 1.118279774503e-01 4.509918833383e-02 -9.684006695001e-02 -3.306903665636e-02 3.281132332266e-02 7.981032000910e-04 4.241053942782e-02 5.362717372248e-02 
1190 226 500 2 3 2.094302886157e-03 8.048037911520e-04 -8.577713992794e-04 1.732808028401e-03 1.677343241097e+00 6.445735277456e-01 -6.869956912621e-01 1.387819237499e+00 -1.682501220081e-01 4.981043412693e-02 1.028009443892e-01 2.033647390059e-01 
1191 226 56 2 1 1.657945677437e-03 -3.053102744379e-04 1.619837661713e-03 -1.780321750478e-04 6.697538798677e-01 -1.233350064788e-01 6.543595326748e-01 -7.191896670816e-02 -8.468144287291e-02 -2.240303419870e-02 -5.861392162891e-02 1.053965583739e-01 
1192 85 110 1 2 1.707196408449e-03 -5.265564677987e-04 -3.689732508972e-04 1.581491891652e-03 2.123583173297e-01 -6.549840717062e-02 -4.589661641298e-02 1.967219209926e-01 -5.506432686609e-02 6.226509313617e-02 -3.806736956052e-03 8.320765086651e-02 
1193 85 372 1 2 1.623476095334e-03 1.482493097136e-03 -5.715822773618e-04 3.334404733573e-04 1.079214667035e+00 9.854954432686e-01 -3.799624638263e-01 2.216563893146e-01 -1.864113055119e-02 2.180949278014e-01 4.567368239994e-01 5.064794326307e-01 
1194 85 98 1 1 1.416931772934e-03 -1.146807369180e-03 -8.299633843811e-04 6.073950717929e-05 5.370384714884e-01 -4.346572561927e-01 -3.145686163959e-01 2.302118755300e-02 -8.561759646591e-02 1.291714246019e-01 1.485139170836e-01 2.146439221730e-01 
1195 433 377 3 2 2.168212176881e-03 9.254392617837e-04 1.703125158068e-03 9.716331162939e-04 6.386075780673e-01 2.725713525261e-01 5.016246306227e-01 2.861769146869e-01 -9.914065607405e-02 6.216610786239e-02 -1.454047467976e-02 1.179191250708e-01 
1196 433 438 3 3 2.331928714690e-03 2.071777240488e-03 -5.653468244175e-04 9.088528837557e-04 1.995343374994e+00 1.772741578776e+00 -4.837459368158e-01 7.776711050481e-01 -8.827861873788e-02 -9.485568795722e-02 1.422312381931e-01 1.924069676027e-01 
1197 433 240 3 2 2.247018584272e-03 1.894298138446e-03 1.052209058292e-03 -5.946286054280e-04 4.444616386676e-03 3.746933205768e-03 2.081275898396e-03 -1.176178987646e-03 3.402613006208e-04 -4.681878900257e-04 2.554952927085e-04 6.326574884272e-04 
1198 433 500 3 3 2.408047161487e-03 1.122300515015e-04 1.191140765351e-03 -2.089803633025e-03 8.074675126070e-01 3.763303392684e-02 3.994138845557e-01 -7.007539421917e-01 1.959448327374e-01 9.847018747249e-02 6.664872765912e-02 2.292003669193e-01 
1199 227 243 2 2 1.976737315650e-03 -3.829822549245e-04 -1.072296567143e-03 1.615857382193e-03 9.189926908024e-02 -1.780499058708e-02 -4.985147494183e-02 7.512182381838e-02 -2.564689609008e-02 3.428667062628e-02 1.667422719818e-02 4.594963453986e-02 
1200 227 191 2 2 1.918347874692e-03 -4.386339232010e-04 1.867089474998e-03 4.044430866373e-05 6.043292159652e-01 -1.381810350463e-01 5.881814937991e-01 1.274100368732e-02 4.005752692467e-02 1.551371601497e-02 -2.817431188483e-01 2.849990629217e-01 
1201 227 285 2 2 1.846653609661e-03 -1.576740248651e-03 2.446100587242e-04 -9.296158677271e-04 1.555366324896e+00 -1.328028533900e+00 2.060257787816e-01 -7.829802016939e-01 -2.582677236782e-02 -5.002552815889e-02 3.064208029495e-02 6.409768110717e-02 
1202 227 411 2 3 2.110839952481e-03 -5.008822204172e-04 -2.016392178377e-03 -3.727262926566e-04 1.417336441204e+00 -3.363204410235e-01 -1.353918903616e+00 -2.502693567819e-01 2.330487944498e-01 -4.254285757138e-02 -8.302851966155e-02 2.510286246667e-01 
1203 227 265 2 2 1.969396504398e-03 -1.284174306637e-04 1.038985760341e-03 -1.668094764948e-03 1.386688388026e-01 -9.042108053094e-03 7.315690293810e-02 -1.174536278253e-01 -5.673770702543e-02 -3.563946410853e-02 -1.783039296368e-02 6.933441940108e-02 
1204 227 197 2 2 1.942099894523e-03 1.287154462859e-03 -9.418387808414e-04 -1.108117818623e-03 3.608622001525e-01 2.391665808301e-01 -1.750033639371e-01 -2.058997249237e-01 3.565741855613e-02 2.521333960347e-02 1.998858247952e-02 4.802819402796e-02 
1205 13 347 1 2 1.626641934096e-03 -9.989188512266e-04 -4.689695582721e-04 1.195070150174e-03 1.038963494761e+00 -6.380262299272e-01 -2.995387251403e-01 7.633113555500e-01 -8.407249639334e-02 1.660257254365e-01 -5.121532318677e-03 1.861691603081e-01 
1206 13 217 1 2 1.662676058176e-03 1.026055414826e-03 1.300301527283e-03 1.446302122109e-04 6.187980800759e-01 3.818670014663e-01 4.839331658419e-01 5.382702012035e-02 -5.848252027910e-02 4.924090652032e-02 -2.780691032241e-02 8.135168292553e-02 
1207 13 283 1 2 1.633586357870e-03 7.026952044408e-04 -9.003598814661e-04 -1.167979418535e-03 9.524776145448e-01 4.097129293798e-01 -5.249631450454e-01 -6.810011879961e-01 -1.099868675316e-02 1.253020738183e-01 -1.032087405303e-01 1.627071754266e-01 
1208 235 118 2 2 1.851413172402e-03 -6.850738094189e-04 -1.077822372282e-03 1.340411707052e-03 1.483518020512e+00 -5.489424817773e-01 -8.636477994353e-01 1.074057888298e+00 -5.647738159438e-02 -4.905248630564e-02 -6.830814855910e-02 1.013007611230e-01 
1209 235 347 2 2 1.942966767049e-03 -1.607315786137e-03 -9.379352551471e-04 -5.585098733620e-04 3.527884323850e-01 -2.918436002898e-01 -1.703028142085e-01 -1.014097750082e-01 -1.924202173121e-02 9.813115874705e-03 3.889624686575e-02 4.449124255082e-02 
1210 235 287 2 2 1.956986424261e-03 -1.359847268910e-03 9.638278059566e-04 -1.025498527763e-03 2.310631462571e-01 -1.605583894136e-01 1.138000154388e-01 -1.210815329985e-01 -3.770738045834e-02 2.220308454974e-02 7.086916910356e-02 8.329023132386e-02 
1211 235 164 2 2 1.915294343681e-03 1.029451734812e-03 -9.635746139505e-04 -1.296188841171e-03 6.385442195289e-01 3.432111919076e-01 -3.212482728062e-01 -4.321392660499e-01 7.210382420161e-02 8.451643716983e-03 5.098301688172e-02 8.871110277963e-02 
1212 312 225 2 2 1.989124009037e-03 1.693756492303e-03 -9.704957308021e-04 3.820226493352e-04 2.937822595343e-02 2.501581636685e-02 -1.433366785419e-02 5.642256420669e-03 3.721751895234e-04 4.608346201821e-03 1.005701148622e-02 1.106882329435e-02 
1213 312 311 2 2 1.990996048208e-03 -3.366010507447e-04 -1.529587322562e-03 1.229279308893e-03 2.212950748556e-02 -3.741250756779e-03 -1.700104534860e-02 1.366318415975e-02 9.189919525298e-03 1.802518203104e-03 4.759248380987e-03 1.050495777744e-02 
1214 312 302 2 2 1.988471359969e-03 -1.512657822004e-03 -6.680539634784e-04 -1.104349838062e-03 3.206198188479e-02 -2.438999558321e-02 -1.077165832323e-02 -1.780646441042e-02 -4.493101914602e-03 -3.585758654193e-03 8.323454870828e-03 1.011560828264e-02 
1215 347 188 2 2 1.866751585374e-03 -1.512408500407e-03 -3.117739328408e-04 1.048894191134e-03 1.259840112776e+00 -1.020699760291e+00 -2.104111279659e-01 7.078815341054e-01 -3.879356444412e-02 -4.306172823887e-02 -6.873642882930e-02 8.991078761418e-02 
1216 347 308 2 2 1.986613971740e-03 -1.392939676378e-03 1.371363195825e-03 3.545660951385e-04 4.011437035986e-02 -2.812670144378e-02 2.769102196891e-02 7.159516574312e-03 -6.615706154768e-03 -1.073906189378e-02 1.554540811076e-02 2.001885939845e-02 
1217 347 240 2 2 1.957572422055e-03 3.194480356799e-04 -1.719279112262e-03 8.798420734580e-04 2.263574122802e-01 3.693831701950e-02 -1.988031535664e-01 1.017376280537e-01 1.089236574889e-01 4.790715459016e-03 -3.018595290783e-02 1.131304816057e-01 
1218 347 272 2 2 1.974835701595e-03 -9.747745009091e-04 8.597096069146e-04 -1.486838966549e-03 1.033950170581e-01 -5.103554997911e-02 4.501118214551e-02 -7.784533173309e-02 -4.439273300431e-02 -6.374116333307e-03 2.541836470553e-02 5.155033818440e-02 
1219 347 500 2 3 2.239506637620e-03 -1.462620051265e-03 -1.580347405203e-03 -6.153329541392e-04 2.934762991958e-02 -1.916691438034e-02 -2.070967328838e-02 -8.063634870308e-03 -2.350103469613e-03 2.933728934806e-03 -1.948542561044e-03 4.233978022263e-03 
1220 161 371 2 2 1.892165424279e-03 -6.354688013207e-04 5.006680797394e-04 1.710497257909e-03 9.171901770405e-01 -3.080310711254e-01 2.426890581566e-01 8.291300869779e-01 -2.660682327019e-01 -1.711072375885e-01 -4.876367295591e-02 3.200748147050e-01 
1221 161 491 2 3 2.081517958414e-03 1.900075189286e-03 -3.652776503998e-04 -7.674656502928e-04 1.888128391327e+00 1.723543097981e+00 -3.313404526006e-01 -6.961619897772e-01 6.255443820504e-02 -3.180248825789e-01 3.062358789711e-01 4.459072742709e-01 
1222 161 213 2 2 1.989964645307e-03 1.970711535629e-05 -1.214402503436e-03 -1.576324039919e-03 2.603882050332e-02 2.578689227524e-04 -1.589053799540e-02 -2.062630551116e-02 -1.226976445411e-02 -2.701083019134e-03 1.927522666358e-03 1.271055910906e-02 
1223 161 243 2 2 1.904085589885e-03 -1.709356776667e-03 -3.202528455990e-04 -7.752931436285e-04 7.693928455276e-01 -6.907078554703e-01 -1.294060778952e-01 -3.132763574616e-01 -1.633221506605e-01 1.278114050255e-01 3.072951964626e-01 3.707293054507e-01 
1224 500 188 3 2 2.093181677618e-03 -4.978844914182e-05 1.268573472362e-03 1.664227145273e-03 1.695494206924e+00 -4.032904931011e-02 1.027554844592e+00 1.348037542077e+00 2.300258188056e-01 -1.243611236877e-01 1.016771369964e-01 2.805633735715e-01 
1225 500 458 3 3 2.472846892967e-03 -2.347637634611e-03 7.749357099113e-04 -5.517189609585e-05 1.295706544163e-01 -1.230100195503e-01 4.060458710539e-02 -2.890861825234e-03 -1.493866315641e-02 -4.533060947945e-02 -1.046550764020e-03 4.774016214029e-02 
1226 500 194 3 2 2.112566129182e-03 1.610845432937e-03 -1.358312282913e-03 -1.519881029578e-04 1.391046882685e+00 1.060682308129e+00 -8.943985424926e-01 -1.000785603367e-01 1.115733898188e-01 1.450930747000e-01 -1.141814376969e-01 2.157267307407e-01 
1227 213 493 2 3 2.201723027294e-03 -4.367086023258e-04 -1.274474270555e-03 1.741431945057e-03 2.896083910543e-01 -5.744340869004e-02 -1.676407242691e-01 2.290630099637e-01 5.904297362651e-02 5.426809856788e-02 5.452287130475e-02 9.697341260442e-02 
1228 213 491 2 3 2.216088672406e-03 1.880368073929e-03 8.491248530363e-04 8.088583896258e-04 1.704976058138e-01 1.446685137854e-01 6.532850254703e-02 6.223055087588e-02 -6.190913988485e-03 4.985690703151e-02 -3.794674349852e-02 6.296025680462e-02 
1229 213 411 2 3 2.196372393538e-03 -1.846963857516e-03 -4.994595339706e-05 -1.187552778560e-03 3.390655963045e-01 -2.851255568245e-01 -7.710420382901e-03 -1.833287889568e-01 5.204517165931e-02 1.304367682257e-01 -8.643012892826e-02 1.649018422722e-01 
1230 19 194 1 2 1.737626733000e-03 -6.658426868657e-04 -8.616745711543e-04 1.354074264215e-03 3.300467921135e-02 -1.264709150007e-02 -1.636674451735e-02 2.571944012487e-02 -2.781922990972e-03 -3.974187351655e-03 -3.896964442142e-03 6.222506930255e-03 
1231 19 395 1 2 1.718941727847e-03 1.705768303683e-03 -1.571968830379e-04 -1.428436132469e-04 1.312547079973e-01 1.302488135485e-01 -1.200321723941e-02 -1.090723230594e-02 -3.734933711209e-03 -4.078735819861e-02 2.850252406193e-04 4.095899849895e-02 
1232 98 110 1 2 1.705846094674e-03 6.202509013812e-04 4.609901334839e-04 1.520752384473e-03 2.224859791586e-01 8.089658823774e-02 6.012490901192e-02 1.983450232548e-01 -2.916608218704e-02 -1.056674722555e-02 1.509874665767e-02 3.450056010708e-02 
1233 98 197 1 2 1.650817772624e-03 -1.375759151295e-03 -6.305493379302e-04 6.594646377752e-04 7.490309197926e-01 -6.242276764863e-01 -2.861012029291e-01 2.992210360192e-01 1.058427440270e-02 -8.748974409447e-02 -6.157295700362e-02 1.075067961597e-01 
1234 98 71 1 1 1.472337738620e-03 1.280203311238e-03 -7.271385222803e-04 1.129016729495e-05 1.032011431327e-01 8.973378980685e-02 -5.096760393135e-02 7.913660978974e-04 2.119053178012e-02 3.732186181859e-02 8.834680895882e-04 4.292715367452e-02 
1235 328 131 2 2 1.926765368192e-03 5.008817975200e-04 -4.282499939183e-04 1.810564594729e-03 5.133305479388e-01 1.334453752482e-01 -1.140947453499e-01 4.823722342295e-01 -7.563012367023e-03 -9.182328868393e-02 -1.962655607317e-02 9.420147134779e-02 
1236 328 438 2 3 2.149847993469e-03 1.521310457801e-04 2.032611300878e-03 -6.835157931449e-04 8.653475703410e-01 6.123513440912e-02 8.181579609373e-01 -2.751258380520e-01 -8.093589474933e-02 -8.174163711053e-03 -4.232200662950e-02 9.169835470932e-02 
1237 328 33 2 1 1.677721041427e-03 8.156365868794e-04 -1.377663095553e-03 -5.015269146721e-04 4.659794850031e-01 2.265393991724e-01 -3.826397380268e-01 -1.392968483100e-01 -4.031766906355e-02 -3.891044424969e-02 4.131566312872e-02 6.961696007578e-02 
1238 47 455 1 3 1.909549186487e-03 -6.498884908491e-04 5.590927688059e-04 1.706293738178e-03 6.822235528610e-01 -2.321852918626e-01 1.997467558379e-01 6.096065943322e-01 9.102738518930e-03 -1.557066435161e-01 5.448664629007e-02 1.652156569685e-01 
1239 47 493 1 3 1.916281573690e-03 1.307328283055e-03 -1.322984239655e-03 -4.612380422437e-04 6.074906156457e-01 4.144430935558e-01 -4.194062716420e-01 -1.462195254022e-01 -5.047538088273e-02 -1.334941081449e-01 2.398386473941e-01 2.790896231831e-01 
1240 47 243 1 2 1.637046980128e-03 1.497299335755e-05 8.456396887376e-04 -1.401639091011e-03 9.103234523229e-01 8.326130630524e-03 4.702404086244e-01 -7.794186432814e-01 -1.492112847088e-01 3.861987167657e-02 2.170627011896e-02 1.556491700435e-01 
1241 372 194 2 2 1.947133059544e-03 -1.797800707825e-04 1.245858520880e-03 1.485544621905e-03 3.148463276895e-01 -2.906996766358e-02 2.014520672828e-01 2.402086834965e-01 1.371999795262e-01 -4.659722794700e-02 5.568286156120e-02 1.552279520769e-01 
1242 372 266 2 2 1.862218022233e-03 1.461660384616e-03 4.753336459929e-04 1.051409914049e-03 1.324679995851e+00 1.039745211952e+00 3.381263443292e-01 7.479154771093e-01 1.701460253941e-01 -6.802918774081e-02 -2.057800103429e-01 2.755413816450e-01 
1243 372 385 2 2 1.947957445063e-03 -7.589064318306e-04 -1.155160907743e-03 1.372662563314e-03 3.075107277161e-01 -1.198033713273e-01 -1.823573570714e-01 2.166928568297e-01 4.645328828512e-02 8.066779520063e-02 9.356850415826e-02 1.319858558537e-01 
1244 372 345 2 2 1.989847388250e-03 1.542232170964e-03 -1.252649093127e-03 1.090082971899e-04 2.649653022660e-02 2.053614843816e-02 -1.668010057221e-02 1.451539278086e-03 4.339299350571e-03 4.344275395380e-03 -1.147026836889e-02 1.301035372382e-02 
1245 372 44 2 1 1.688997414027e-03 -4.498814681531e-05 -1.638498741166e-03 -4.074435009106e-04 3.613028043762e-01 -9.623663999165e-03 -3.505003531879e-01 -8.715849904875e-02 -2.207279347404e-02 4.383860456631e-02 -1.738559681186e-01 1.806514021881e-01 
1246 372 71 2 1 1.691049283536e-03 -1.349097155078e-03 -9.855196292996e-04 -2.614107988831e-04 3.432279097105e-01 -2.738227685273e-01 -2.000283762493e-01 -5.305787533808e-02 1.266625259379e-02 -4.473180739985e-03 -4.850449161455e-02 5.033019975609e-02 
1247 371 399 2 2 1.909199548277e-03 1.300562868037e-04 -7.312243407424e-04 1.758817568968e-03 7.086868259764e-01 4.827634553778e-02 -2.714273935299e-01 6.528656690435e-01 4.431103788358e-02 2.831928388744e-02 8.497083999093e-03 5.326960066215e-02 
1248 371 455 2 3 2.153322064087e-03 -1.738749459553e-03 -1.107467845270e-03 6.221424276509e-04 8.207145873631e-01 -6.627048823881e-01 -4.220989655043e-01 2.371226182587e-01 -1.238959367400e-01 3.204640200470e-01 2.241924011079e-01 4.102555593772e-01 
1249 371 302 2 2 1.900460386288e-03 1.902282572997e-04 1.703321399922e-03 -8.211328141914e-04 8.134226925066e-01 8.142026130090e-02 7.290445459034e-01 -3.514559258611e-01 1.727832440752e-01 -3.808347173653e-03 3.212807444339e-02 1.757861374193e-01 
1250 371 388 2 2 1.914592659281e-03 1.131931461166e-03 -1.540788608254e-03 1.018169085797e-04 6.464949798581e-01 3.822160309869e-01 -5.202736443336e-01 3.438022178887e-02 1.100491114753e-01 7.679808775119e-02 -6.127108839677e-02 1.475225389290e-01 
1251 283 164 2 2 1.918586833845e-03 9.351534652824e-04 4.057509643905e-04 1.625370600900e-03 6.016782650836e-01 2.932687250076e-01 1.272454975735e-01 5.097242126422e-01 -8.185428883025e-02 -2.661227988647e-01 1.135285109594e-01 3.006828752625e-01 
1252 283 104 2 2 1.923084517384e-03 1.879811597732e-03 4.047739755859e-04 2.684113857747e-05 5.525136474999e-01 5.400810796858e-01 1.162939764958e-01 7.711619143324e-03 -2.076313095016e-02 7.916568451359e-02 2.602931869304e-01 2.728568422703e-01 
1253 283 395 2 2 1.982248503767e-03 8.182223165533e-04 -1.802791676806e-03 9.881063415042e-05 6.125968910226e-02 2.528645860160e-02 -5.571372985142e-02 3.053657862043e-03 2.637812461128e-03 1.948452618619e-03 1.370639051054e-02 1.409324884526e-02 
1254 237 148 2 2 1.971170907827e-03 1.147079181504e-03 -1.710942203335e-04 1.593879188331e-03 1.267852697850e-01 7.377987515653e-02 -1.100474179965e-02 1.025179511805e-01 -4.823054807071e-02 -2.594648110826e-02 3.192523311563e-02 6.339263489231e-02 
1255 237 240 2 2 1.959296794519e-03 -1.312649764174e-03 -9.171683090756e-05 1.451682661105e-03 2.126989197666e-01 -1.424996905282e-01 -9.956669613827e-03 1.575929357537e-01 -3.516434151511e-02 -1.444001241188e-02 -3.270884059903e-02 5.014890951935e-02 
1256 237 201 2 2 1.915375503731e-03 -7.649209411384e-05 -1.545537157571e-03 1.128772419224e-03 6.376267132230e-01 -2.546414656674e-02 -5.145078737960e-01 3.757672823132e-01 -1.354944196185e-01 -1.499300612448e-01 -2.144690359351e-01 2.946773292731e-01 
1257 237 164 2 2 1.898162444739e-03 1.004669721096e-03 1.601922922551e-03 -1.658383801621e-04 8.417522846406e-01 4.455272178551e-01 7.103829725497e-01 -7.354209107311e-02 -1.132697105801e-01 3.487474154178e-02 -3.493280661373e-01 3.688853110707e-01 
1258 237 194 2 2 1.989740278879e-03 -1.483872418182e-03 -1.311097406761e-03 -1.954804694497e-04 2.691693287753e-02 -2.007362202143e-02 -1.773634542573e-02 -2.644432909610e-03 8.893826175327e-04 -1.735530159770e-03 4.889075402292e-03 5.263660766533e-03 
1259 279 357 2 2 1.899580889378e-03 1.603853746837e-03 8.400734023645e-04 5.747498522712e-04 8.242271419813e-01 6.959112914347e-01 3.645074044265e-01 2.493836565426e-01 -1.458063523383e-02 9.107344565626e-02 -9.242833678528e-02 1.305755140462e-01 
1260 279 290 2 2 1.893153317248e-03 -2.565903042441e-05 1.805035030151e-03 5.702803141372e-04 9.046152728770e-01 -1.226078764866e-02 8.625092545205e-01 2.725000016056e-01 1.423755892050e-02 -1.251879504188e-01 3.968819406974e-01 4.164012558408e-01 
1261 279 445 2 3 2.228550312676e-03 -1.731721876224e-03 6.499823589232e-04 1.243020021008e-03 8.576947029436e-02 -6.664820048084e-02 2.501565358808e-02 4.783969568049e-02 -2.056216031105e-02 1.269630193246e-02 -3.528528452836e-02 4.276739206060e-02 
1262 279 403 2 3 2.188902794023e-03 2.240238058769e-04 -1.707788095647e-03 1.350765929555e-03 4.123187943349e-01 4.219887049974e-02 -3.216922791179e-01 2.544408006713e-01 8.567927751807e-02 1.228978158168e-01 1.411711865042e-01 2.058497404117e-01 
1263 279 377 2 2 1.911501570700e-03 -1.680132396371e-03 4.484971323613e-04 -7.936269323291e-04 6.819078708308e-01 -5.993693767687e-01 1.599965855587e-01 -2.831179738243e-01 2.815463998445e-02 2.742129629549e-01 9.535992511876e-02 2.916829582334e-01 
1264 279 438 2 3 2.081028151528e-03 -5.337944176660e-04 -1.819974850125e-03 -8.564071648673e-04 1.896368043772e+00 -4.864281508456e-01 -1.658479316443e+00 -7.804138443387e-01 2.085316091217e-01 -1.396066998215e-01 1.667053704812e-01 3.012741993354e-01 
1265 279 118 2 2 1.924991352441e-03 -1.084795786696e-04 1.376973027713e-03 -1.340809147095e-03 5.320952275516e-01 -2.998531189437e-02 3.806151002104e-01 -3.706188847666e-01 1.551213525017e-01 -4.855827887440e-02 -6.241823410243e-02 1.741165598031e-01 
1266 345 266 2 2 1.969907857467e-03 -8.057178634873e-05 1.727982739120e-03 9.424016168590e-04 1.352078870076e-01 -5.530177943778e-03 1.186029559994e-01 6.468329513233e-02 -7.243505022092e-03 2.499417531815e-02 -4.644848319740e-02 5.324132564257e-02 
1267 345 431 2 3 2.211105687368e-03 -1.276280146416e-03 -1.649967308228e-03 7.332838675116e-04 2.094258293440e-01 -1.208834248247e-01 -1.562773656141e-01 6.945329794751e-02 5.366674962793e-04 -3.859157218695e-02 -8.590110489862e-02 9.417323015945e-02 
1268 345 351 2 2 1.946068628427e-03 1.470950704848e-03 1.255528454219e-03 2.171069577448e-04 3.244027656714e-01 2.452022862137e-01 2.092921580350e-01 3.619096290342e-02 6.325095577502e-02 -7.022341693223e-02 -2.243843263847e-02 9.713647590562e-02 
1269 345 44 2 1 1.713146446696e-03 -1.587220317780e-03 -3.858496480390e-04 -5.164517981005e-04 1.696555285000e-01 -1.571848702008e-01 -3.821128432181e-02 -5.114501618967e-02 6.727515181466e-03 -6.192147009411e-02 2.558676084000e-02 6.733654467981e-02 
1270 110 385 2 2 1.849844583999e-03 1.250143133104e-03 -1.357769934208e-03 1.246111450195e-04 1.507071502759e+00 1.018493719185e+00 -1.106177455581e+00 1.015209100319e-01 4.496566530032e-02 8.393420279217e-02 4.634402418251e-01 4.731212521090e-01 
1271 199 297 2 2 1.971913698293e-03 1.157912836422e-03 3.634519665165e-04 1.554214967371e-03 1.219170535521e-01 7.159000995276e-02 2.247106093120e-02 9.609209042592e-02 -2.245637113713e-02 1.302813286162e-02 1.368370549954e-02 2.934731072358e-02 
1272 199 239 2 2 1.957040828955e-03 -7.746467776256e-04 -7.611116853337e-05 1.795588557030e-03 2.306248701435e-01 -9.128721785143e-02 -8.969219292605e-03 2.115987421771e-01 5.709229855639e-02 -9.804373769809e-02 2.047470256948e-02 1.152879807333e-01 
1273 199 311 2 2 1.979876132909e-03 1.495217499778e-03 -1.225170189438e-03 4.280095056578e-04 7.394169561616e-02 5.584133037964e-02 -4.575597418425e-02 1.598471139791e-02 9.518466422514e-03 2.100271772192e-02 2.686792216543e-02 3.540622256371e-02 
1274 199 489 2 3 2.205491890098e-03 -1.074760760179e-03 1.297174903990e-03 -1.423524167033e-03 2.563655228874e-01 -1.249297743959e-01 1.507831083083e-01 -1.654698976962e-01 8.782054834859e-02 9.824107369295e-03 -5.735237636428e-02 1.053482646866e-01 
1275 199 302 2 2 1.966082788775e-03 3.191607285183e-04 -3.636368303538e-04 -1.905619641298e-03 1.617903003626e-01 2.626395512221e-02 -2.992392402892e-02 -1.568147465116e-01 -6.945316085041e-02 -3.441608020879e-02 -5.064896942401e-03 7.767793322487e-02 
1276 71 385 1 2 1.745651456105e-03 5.901907232475e-04 -1.696412784438e-04 1.634073362198e-03 6.876459669293e-03 2.324875731297e-03 -6.682498991342e-04 6.436931915885e-03 -2.322904847617e-03 2.294599810087e-03 1.077195050004e-03 3.438229834564e-03 
1277 71 44 1 1 1.465744717210e-03 1.304109008263e-03 -6.529791118665e-04 -1.460327020275e-04 1.422146440745e-01 1.265318552862e-01 -6.335563818983e-02 -1.416889892097e-02 7.793020670161e-03 9.355261936625e-03 2.776198601178e-02 3.031468232369e-02 
1278 71 127 1 2 1.700117833809e-03 -1.031209892764e-03 -1.327096458623e-03 2.565575869353e-04 2.671572190283e-01 -1.620447487266e-01 -2.085404859694e-01 4.031556524095e-02 -5.268676039645e-02 4.256725110451e-02 8.418147602593e-03 6.825489577112e-02 
1279 266 201 2 2 1.853132036570e-03 -2.340601313295e-04 5.360851240777e-04 1.758387596529e-03 1.457850418624e+00 -1.841340248337e-01 4.217356924017e-01 1.383315405009e+00 -1.115151986395e-01 -2.399539965431e-01 5.831166350704e-02 2.709498294621e-01 
1280 266 194 2 2 1.864539700838e-03 -1.641440455398e-03 7.705248748874e-04 4.341347078557e-04 1.291339396100e+00 -1.136825740666e+00 5.336486673732e-01 3.006721987288e-01 5.071985199443e-02 1.619272327867e-01 -9.562779270754e-02 1.947757860783e-01 
1281 302 489 2 3 2.221199851407e-03 -1.393921488697e-03 1.660811734344e-03 4.820954742647e-04 1.334421939531e-01 -8.374210070843e-02 9.977596632444e-02 2.896266976606e-02 3.271137665384e-02 1.203577958097e-02 5.311795745980e-02 6.353275971822e-02 
1282 302 454 2 3 2.198550698037e-03 -2.048984713824e-03 -6.334781336633e-04 4.837274734054e-04 3.186180101177e-01 -2.969426326457e-01 -9.180481604590e-02 7.010267498188e-02 3.630360788880e-02 -4.682346261324e-03 1.476438234466e-01 1.521136907520e-01 
1283 290 141 2 2 1.886872383789e-03 -5.544132677995e-04 3.255405018917e-04 1.773960738805e-03 9.855423708219e-01 -2.895785486377e-01 1.700347945040e-01 9.265668877702e-01 -2.601320627775e-01 1.246475025516e-01 -1.041728114497e-01 3.066882205475e-01 
1284 290 470 2 3 2.219106468317e-03 1.165168792141e-03 1.371743975561e-03 -1.298126984952e-03 1.482526681032e-01 7.784186324169e-02 9.164260806541e-02 -8.672445049551e-02 -3.278226334595e-02 -1.526175574176e-02 -4.555185461009e-02 5.815986104543e-02 
1285 290 118 2 2 1.960193676649e-03 -8.282054824517e-05 -4.280620024381e-04 -1.911089461232e-03 2.057076514523e-01 -8.691396505589e-03 -4.492190248671e-02 -2.005545316611e-01 -2.362030604909e-02 9.768446916048e-02 -2.085656562513e-02 1.026409796460e-01 
1286 256 207 2 2 1.875201932292e-03 -3.213024509741e-04 7.613384029431e-04 1.683303554940e-03 1.141915954961e+00 -1.956591387930e-01 4.636217862587e-01 1.025058236837e+00 -1.144094362875e-01 -1.219763046551e-01 3.333041898984e-02 1.705246458403e-01 
1287 256 308 2 2 1.947939848544e-03 1.926519958484e-03 2.880586884675e-04 3.563019173397e-06 3.076667064624e-01 3.042835491065e-01 4.549733299770e-02 5.627598690796e-04 -3.775340360526e-03 2.712145285956e-02 -1.513608429226e-01 1.538178506231e-01 
1288 256 137 2 2 1.943796407174e-03 -1.441806330895e-03 4.164099100897e-04 -1.235371103561e-03 3.451186766524e-01 -2.559909520725e-01 7.393307065735e-02 -2.193386297361e-01 1.015710320798e-01 6.779153933690e-03 -1.162588713667e-01 1.545275271829e-01 
1289 256 458 2 3 2.202637070495e-03 -4.907980510132e-04 -1.888716202649e-03 -1.021507926200e-03 2.814225829820e-01 -6.270740517757e-02 -2.413141045293e-01 -1.305141927277e-01 6.925862992620e-02 -1.680662098663e-02 -2.201708992151e-03 7.130264967537e-02 
1290 377 445 2 3 2.047239258975e-03 -5.158947985353e-05 2.014852265619e-04 2.036646953337e-03 2.492739568836e+00 -6.281588104702e-02 2.453304832764e-01 2.479842268594e+00 -5.184555329940e-02 -2.441255318813e-01 2.283802928701e-02 2.506128733624e-01 
1291 377 118 2 2 1.905667453622e-03 1.571652817701e-03 9.284758953516e-04 -5.471822147659e-04 7.504377864390e-01 6.189052866096e-01 3.656269588618e-01 -2.154763199882e-01 -9.249184825176e-02 4.984582501576e-02 -1.810812272177e-01 2.093555805686e-01 
1292 377 188 2 2 1.808144538815e-03 -8.629976594240e-04 7.565890796454e-04 -1.397209604046e-03 2.176624965976e+00 -1.038867308867e+00 9.107738039681e-01 -1.681945907300e+00 8.037444784273e-02 -2.028891439514e-01 -1.595084020124e-01 2.703090581388e-01 
1293 377 240 2 2 1.953344586284e-03 9.688588766625e-04 -6.509160997762e-04 -1.566261721722e-03 2.610209918353e-01 1.294664068545e-01 -8.698043712212e-02 -2.092959895290e-01 1.949038789797e-02 -3.958166582330e-02 2.850595035446e-02 5.252782781890e-02 
1294 240 438 2 3 2.215500497330e-03 1.774791020421e-04 -1.617555882710e-03 1.503481489184e-03 1.749525829197e-01 1.401508478737e-02 -1.277343787727e-01 1.187262066615e-01 -6.459761077974e-02 3.618792629770e-02 4.655908270981e-02 8.746522458073e-02 
1295 240 118 2 2 1.973920629388e-03 6.027939410386e-04 1.579391995128e-03 1.019079506956e-03 1.090857415703e-01 3.331249650735e-02 8.728271261450e-02 5.631788942286e-02 -4.713039265181e-02 2.512539778606e-02 -1.106188175920e-02 5.454287078506e-02 
1296 240 201 2 2 1.935445775986e-03 1.236157670060e-03 -1.453820326663e-03 -3.229102418815e-04 4.248243055172e-01 2.713327493899e-01 -3.191090229883e-01 -7.087778999226e-02 -8.569040205606e-02 -4.511076277049e-02 -1.249384462517e-01 1.580741638411e-01 
1297 481 487 3 3 2.453369233458e-03 2.954025983063e-04 -4.266367961035e-04 2.397861327267e-03 2.915990960832e-01 3.511054490780e-02 -5.070859388102e-02 2.850016157488e-01 9.680780347451e-02 5.449915641066e-02 -2.229458045735e-03 1.111165124822e-01 
1298 491 446 3 3 2.374573931805e-03 1.934880083210e-03 -1.376077128160e-03 3.538585253181e-05 1.286349769872e+00 1.048159636737e+00 -7.454459401859e-01 1.916915815985e-02 8.681641515222e-03 1.216461610793e-02 -1.652789555343e-03 1.503597345590e-02 
1299 491 385 3 2 2.182726032435e-03 1.306857937611e-03 -9.074787169141e-05 -1.745903802435e-03 4.763998985607e-01 2.852336846950e-01 -1.980655209401e-02 -3.810594559358e-01 -1.582709021976e-01 3.483043351469e-02 -1.202806089631e-01 2.018173988381e-01 
1300 191 458 2 3 2.160448345593e-03 1.592584865341e-03 1.459108702814e-03 4.703502988215e-05 7.316637180246e-01 5.393494207911e-01 4.941459955202e-01 1.592901996993e-02 2.032978952227e-01 -2.244817972641e-01 8.024216961195e-02 3.133064271427e-01 
1301 191 415 2 3 2.104080691176e-03 -1.295563116450e-03 8.722093022539e-04 -1.409937126022e-03 1.521844376060e+00 -9.370579041333e-01 6.308535727500e-01 -1.019782603792e+00 -2.894222318139e-01 -1.466199753700e-01 1.752428940301e-01 3.687447862055e-01 
1302 191 265 2 2 1.923823224865e-03 3.102164925373e-04 -8.281037146574e-04 -1.708539073612e-03 5.445731558462e-01 8.781242068041e-02 -2.344098186519e-01 -4.836330610723e-01 1.883586767248e-01 9.690350598659e-02 -1.276774152367e-02 2.122081426186e-01 
1303 388 428 2 3 2.227315153193e-03 4.549327807805e-04 -7.531029089723e-04 2.046168361868e-03 9.328353686692e-02 1.905331572278e-02 -3.154115971105e-02 8.569681822829e-02 3.535751661631e-02 -1.621632762653e-02 -1.382968155648e-02 4.128417802158e-02 
1304 188 308 2 2 1.824641032833e-03 1.194688240284e-04 1.683137128666e-03 -6.943280959957e-04 1.902016683137e+00 1.245350139166e-01 1.754512170407e+00 -7.237717438065e-01 -7.268097556595e-02 1.765652187470e-02 3.029581687436e-02 8.069766721545e-02 
1305 197 411 2 3 2.211908877274e-03 -1.788036683276e-03 -1.074553397536e-03 7.353915259669e-04 2.029722934032e-01 -1.640763369696e-01 -9.860468020312e-02 6.748203151964e-02 2.426116558665e-02 -1.460987190553e-02 3.764085604605e-02 4.710505871558e-02 
1306 197 317 2 2 1.934469979843e-03 -2.703701265030e-04 -1.856769780081e-03 -4.706167032578e-04 4.344930258017e-01 -6.072667737145e-02 -4.170411163631e-01 -1.057032042482e-01 -1.382775583078e-01 6.874707803651e-03 5.231724895212e-02 1.480035110288e-01 
1307 56 112 1 2 1.717445341932e-03 7.875228945996e-04 1.512262184331e-03 2.061292770220e-04 1.408538346362e-01 6.458756902470e-02 1.240260300796e-01 1.690539919406e-02 -1.262854119816e-02 6.725536084105e-03 -1.094015241437e-03 1.434955601267e-02 
1308 56 140 1 2 1.667390064661e-03 -1.127308879183e-03 1.210709974637e-03 2.086760071457e-04 5.693736741801e-01 -3.849489163214e-01 4.134283880155e-01 7.125784627123e-02 7.967078488636e-02 6.380393363222e-02 6.021547238666e-02 1.185085609823e-01 
1309 385 431 2 3 2.094093674478e-03 1.024858456379e-03 -1.747455493612e-03 -5.303703986130e-04 1.680725169928e+00 8.225541312897e-01 -1.402512441176e+00 -4.256766968917e-01 -6.289314211088e-02 2.855309151628e-02 -2.156074800851e-01 2.264009978520e-01 
1310 243 238 2 2 1.950424880088e-03 -1.703758480556e-03 4.311042137036e-04 8.458802573225e-04 2.859025388304e-01 -2.497450069047e-01 6.319330237048e-02 1.239931440497e-01 -3.127104215086e-02 8.829622482246e-02 -1.079859436790e-01 1.429512694150e-01 
1311 243 367 2 2 1.955356838542e-03 -1.639732943834e-03 2.403038591477e-04 -1.037762156864e-03 2.443176038609e-01 -2.048810815053e-01 3.002544697123e-02 -1.296661348685e-01 6.286476606717e-02 -1.721594740750e-02 -1.033170132707e-01 1.221588019301e-01 
1312 243 461 2 3 2.167290476406e-03 -1.267152510550e-03 -1.758161579787e-03 1.844948473018e-05 6.494330386320e-01 -3.797048500400e-01 -5.268367252094e-01 5.528425958564e-03 -9.911230851822e-03 5.673544267270e-03 -1.400599248608e-01 1.405247456983e-01 
1313 243 411 2 3 2.204468633683e-03 -1.178999654927e-04 -9.440956112341e-04 -1.988583674850e-03 2.652571645457e-01 -1.418655274509e-02 -1.136002214183e-01 -2.392803685173e-01 1.310406983178e-01 1.435281780715e-02 -1.458330693019e-02 1.326285822726e-01 
1314 265 285 2 2 1.809426102957e-03 -1.448322817987e-03 -7.943757016165e-04 7.384788972210e-04 2.154852148205e+00 -1.724812928549e+00 -9.460249215555e-01 8.794572132459e-01 2.074632880953e-01 2.845265229362e-01 7.129449094653e-01 7.951646383573e-01 
1315 225 445 2 3 2.174759245367e-03 1.756600151505e-04 2.115228096387e-03 4.738474803606e-04 5.634829843383e-01 4.551374124598e-02 5.480583852430e-01 1.227745061545e-01 5.415774570925e-02 5.614966800815e-02 -2.707257316390e-01 2.817414921682e-01 
1316 225 403 2 3 2.222603858498e-03 2.131405697252e-03 -2.425423581839e-04 5.815933889082e-04 1.238041754291e-01 1.187242269215e-01 -1.351017031072e-02 3.239609689035e-02 1.772760194185e-03 4.517408174506e-02 1.234222615317e-02 4.686332133589e-02 
1317 225 473 2 3 2.165536848417e-03 -2.728893193892e-04 -1.910664281334e-03 9.820607238081e-04 6.701962597616e-01 -8.445453205621e-02 -5.913176014283e-01 3.039308356430e-01 -1.098699394849e-01 -1.000433255099e-02 -4.999411210389e-02 1.211234969660e-01 
1318 225 438 2 3 2.157564522854e-03 1.373587473709e-03 -3.547291126612e-04 -1.625579705514e-03 7.672893028912e-01 4.884854955660e-01 -1.261514317120e-01 -5.781008659654e-01 -1.877067544308e-01 1.063740936019e-01 -1.818216808928e-01 2.821496005513e-01 
1319 201 438 2 3 2.117384329308e-03 -1.058678568018e-03 -1.637355560464e-04 1.826391731065e-03 1.318540197266e+00 -6.592616317191e-01 -1.019616086605e-01 1.137332925360e+00 -7.064538229014e-02 2.411026626696e-01 -1.933521327633e-02 2.519823693391e-01 
1320 201 148 2 2 1.898036975643e-03 1.223571275618e-03 1.374442937237e-03 4.651067691068e-04 8.433083864726e-01 5.436395241067e-01 6.106726426169e-01 2.066495247597e-01 3.920370630070e-02 -3.982898972779e-02 1.456470896505e-02 5.775300648178e-02 
1321 201 321 2 2 1.883770874838e-03 1.630291407686e-03 -8.565756855659e-04 -3.962584129198e-04 1.026348396284e+00 8.882433602216e-01 -4.666942741918e-01 -2.158963131061e-01 6.592448410960e-02 1.048570928399e-01 4.456204160061e-02 1.316313909201e-01 
1322 201 194 2 2 1.946619399496e-03 -1.407380324069e-03 2.344397508097e-04 -1.324252888673e-03 3.194460701119e-01 -2.309553237745e-01 3.847226483695e-02 -2.173138628077e-01 7.128876013072e-02 -9.978473906259e-02 -9.342921488026e-02 1.541690619544e-01 
1323 438 403 3 3 2.336340599432e-03 7.578182235429e-04 1.121867544773e-04 2.207173094422e-03 1.917294381987e+00 6.218958926278e-01 9.206493014975e-02 1.811294369938e+00 2.212699249842e-01 -5.983099185798e-01 -4.556051080613e-02 6.395395988665e-01 
1324 272 308 2 2 1.956380359294e-03 -4.181651754691e-04 5.116535889105e-04 1.841405061688e-03 2.359638515491e-01 -5.043593129457e-02 6.171179899895e-02 2.220963978471e-01 -9.413897048714e-02 6.006947804098e-02 -3.806897493973e-02 1.179819257745e-01 
1325 458 375 3 2 2.222768869531e-03 -1.704363497862e-03 9.367734572225e-04 1.076244398060e-03 1.226872950199e-01 -9.407354500493e-02 5.170587148692e-02 5.940406840692e-02 2.786529795460e-02 -1.080080788761e-02 5.352920484103e-02 6.130667216574e-02 
1326 411 461 3 3 2.451870085696e-03 -1.149252545058e-03 -8.140659685532e-04 2.007033159580e-03 3.057736083376e-01 -1.433237020361e-01 -1.015224624182e-01 2.502978338201e-01 1.611553691996e-02 6.569422915618e-02 3.587397534291e-02 7.656620913659e-02 
1327 411 144 3 2 2.211086366818e-03 3.328559238724e-04 -2.008636767327e-03 8.622576137180e-04 2.095818977244e-01 3.155036241048e-02 -1.903923391926e-01 8.173067760822e-02 1.572970911014e-02 1.787339052087e-02 3.556410751717e-02 4.279821936593e-02 
1328 411 86 3 1 1.833563988758e-03 -7.316120934837e-04 -1.617473310233e-03 -4.587817958719e-04 1.702859991605e+00 -6.794597685198e-01 -1.502173147145e+00 -4.260779388431e-01 -2.270250432636e-01 5.521549711616e-02 1.673664366250e-01 2.874032802512e-01 
1329 411 262 3 2 2.238194495399e-03 -1.766462240173e-03 6.093717528882e-04 -1.231986939889e-03 3.502094914475e-02 -2.763977143470e-02 9.534818002642e-03 -1.927685554475e-02 -1.572628551565e-03 1.463059009365e-02 9.491543219636e-03 1.751047457209e-02 
1330 489 324 3 2 2.147100515426e-03 -1.372304053646e-03 7.743615970749e-04 1.458487684098e-03 9.011993888824e-01 -5.759951924100e-01 3.250216713396e-01 6.121689227674e-01 2.597740445907e-01 1.313559101573e-01 1.746823129106e-01 3.394861408365e-01 
1331 489 454 3 3 2.385974956024e-03 -6.550632251270e-04 -2.294289868007e-03 1.631999140706e-06 1.115007393659e+00 -3.061223830060e-01 -1.072161365134e+00 7.626614452672e-04 -1.540569284457e-01 4.416275943302e-02 2.482495726115e-01 2.954855949529e-01 
1332 127 317 2 2 1.945582914001e-03 -1.895122696272e-03 -4.330841371087e-04 -7.899981971287e-05 3.287950567124e-01 -3.202674992227e-01 -7.318933693195e-02 -1.335062618809e-02 1.311594538379e-02 -5.691666047447e-02 -2.615487031653e-03 5.846687126305e-02 
ITEM: TIMESTEP
200001
ITEM: NUMBER OF ENTRIES
1332
ITEM: BOX BOUNDS pp pp ff
0.0000000000000000e+00 1.5370634520482899e-02
0.0000000000000000e+00 1.5370634520482899e-02
0.0000000000000000e+00 1.5370634520482899e-02
ITEM: ENTRIES index c_pairIDs[1] c_pairIDs[2] c_pairIDs[3] c_pairIDs[4] c_pairState[1] c_pairState[2] c_pairState[3] c_pairState[4] c_pairState[5] c_pairState[6] c_pairState[7] c_pairState[8] c_pairState[9] c_pairState[10] c_pairState[11] c_pairState[12]
1 18 369 1 2 1.731709249034e-03 8.072290541994e-04 -1.931572414085e-04 1.519831720073e-03 5.931933248626e-02 2.765145978479e-02 -6.616560275132e-03 5.206151273745e-02 -4.760708397374e-03 2.817341874988e-04 2.564363596067e-03 5.414764930268e-03 
2 18 490 1 3 1.903252430561e-03 -1.064963144067e-03 1.553875563723e-03 2.714664780071e-04 7.546891171416e-01 -4.222856002065e-01 6.161520975902e-01 1.076435229142e-01 2.205309841156e-01 1.484659752266e-01 1.532314126723e-02 2.662909300244e-01 
3 18 214 1 2 1.641630441783e-03 -4.772170849875e-04 -1.549419343529e-03 2.579031971162e-04 8.554801051279e-01 -2.486855212009e-01 -8.074274143270e-01 1.343975163754e-01 3.192999686513e-01 -1.017052919777e-01 -2.019651732353e-02 3.357146641257e-01 
4 18 356 1 2 1.697953311125e-03 2.794986708561e-04 1.121854097818e-03 -1.243530989948e-03 2.847335354900e-01 4.686974853559e-02 1.881261878538e-01 -2.085304542470e-01 7.634045773165e-02 -4.074185268425e-02 -1.959690438594e-02 8.872318021991e-02 
5 18 479 1 3 1.982386553728e-03 -1.080183839708e-03 -4.621559427032e-04 -1.596706361690e-03 5.862386966417e-02 -3.194359672854e-02 -1.366704677178e-02 -4.721839212621e-02 1.698281036300e-02 1.713217097954e-02 -1.644779063099e-02 2.919686536152e-02 
6 414 186 3 2 2.220561544077e-03 1.544199941413e-03 3.099459874758e-04 1.565334979109e-03 1.379029755313e-01 9.589906089484e-02 1.924849776892e-02 9.721160482949e-02 3.394575140658e-02 4.148237915625e-02 -4.170118547618e-02 6.791237508097e-02 
7 414 9 3 1 1.920064666273e-03 -1.695475141117e-04 -4.676256337386e-04 1.854515632126e-03 5.667821758184e-01 -5.004857942590e-02 -1.380379936231e-01 5.474328149092e-01 8.266946305998e-02 1.030710350008e-01 3.354787576005e-02 1.363207186996e-01 
8 414 103 3 2 2.190883357187e-03 3.207038041010e-04 1.706845093335e-03 1.335589301466e-03 3.924332039972e-01 5.744478407059e-02 3.057317891923e-01 2.392320828399e-01 1.740612944955e-01 -7.249326533834e-02 5.084845682441e-02 1.952899724059e-01 
9 414 116 3 2 2.132889093312e-03 -1.322741369477e-03 1.659968350018e-03 2.099433989983e-04 1.094201017845e+00 -6.785842533328e-01 8.515862657253e-01 1.077038096327e-01 1.595404835627e-01 1.227052641131e-01 3.498058467159e-02 2.042875156255e-01 
10 414 190 3 2 2.200370236555e-03 -1.292554192162e-03 -1.432655029536e-03 1.057559645878e-03 3.018661600768e-01 -1.773239631208e-01 -1.965442293737e-01 1.450853424800e-01 1.251485398728e-02 -7.521748689278e-02 -8.659992299751e-02 1.153856081492e-01 
11 414 107 3 2 2.143936122228e-03 2.134768006924e-04 -2.132543010289e-03 5.612540448343e-05 9.430882980020e-01 9.390553689568e-02 -9.380766232435e-01 2.468880095828e-02 -2.076124390110e-01 -1.959031890084e-02 4.531355377438e-02 2.134010861791e-01 
12 414 83 3 1 1.920785573016e-03 4.733359367354e-04 1.809630037982e-03 -4.365884035739e-04 5.591320976915e-01 1.377859761848e-01 5.267752181174e-01 -1.270889334798e-01 -1.081114090645e-02 -1.661624883051e-02 -8.059436360520e-02 8.299657786814e-02 
13 414 457 3 3 2.430972984792e-03 2.273549438411e-03 -8.504842137837e-04 -1.314503936710e-04 5.251773683194e-01 4.911682352203e-01 -1.837350986565e-01 -2.839800040748e-02 6.700575796051e-02 2.021160657911e-01 -1.487680588005e-01 2.597549055744e-01 
14 414 484 3 3 2.400760879672e-03 -1.626830180954e-03 -9.899799462230e-04 -1.461853641708e-03 9.053191818202e-01 -6.134724123724e-01 -3.733182436127e-01 -5.512602917094e-01 3.319116014272e-01 -1.590869944221e-01 -2.616341783639e-01 4.515821367640e-01 
15 74 465 1 3 1.999985997183e-03 -1.316753829558e-03 1.079341112571e-03 1.049345559854e-03 1.302256359671e-06 -8.573815272100e-07 7.027943346003e-07 6.832632482114e-07 -4.432704239548e-07 -4.427755384643e-07 -1.007982403640e-07 6.345857952050e-07 
16 74 120 1 2 1.749987983476e-03 1.244680840896e-03 -1.124535157766e-04 1.224982348202e-03 9.901755024579e-07 7.042633941896e-07 -6.362827490172e-08 6.931176234271e-07 1.113678543158e-07 -4.567880247683e-07 -1.550919114771e-07 4.950874665675e-07 
17 74 398 1 2 1.749986929000e-03 7.006412267631e-04 1.229139531209e-03 -1.029937928155e-03 1.123264259418e-06 4.497206439979e-07 7.889478957615e-07 -6.610863458142e-07 8.451450458356e-08 -3.841214979227e-07 -4.009218035625e-07 5.616318360129e-07 
18 280 133 2 2 1.961841193652e-03 1.188421898587e-04 1.957938647230e-03 -3.425867337136e-05 1.930698817167e-01 1.169556823112e-02 1.926858219985e-01 -3.371484928027e-03 2.778900463561e-03 -1.856549522164e-03 -9.646489841225e-02 9.652277290671e-02 
19 280 216 2 2 1.995685641437e-03 -9.037061596252e-04 1.075678154567e-03 -1.417389453989e-03 7.340008232343e-03 -3.323775304859e-03 3.956277655127e-03 -5.213070658376e-03 -1.966967665445e-03 -1.017961737157e-05 1.246383481546e-03 2.328634192952e-03 
20 280 392 2 2 1.974209089611e-03 -1.334389852672e-03 -7.488642120793e-04 -1.247440436435e-03 1.072808857886e-01 -7.251234235287e-02 -4.069417795209e-02 -6.778740696391e-02 -3.603996894579e-02 3.438382639341e-02 1.791071632101e-02 5.293317143528e-02 
21 280 490 2 3 2.164127204290e-03 6.350860397182e-04 -1.489740372293e-03 -1.435543765151e-03 6.870439262242e-01 2.016203138860e-01 -4.729468177314e-01 -4.557410593614e-01 -8.406531688271e-03 1.557425255439e-01 -1.653413881617e-01 2.272975553697e-01 
22 186 246 2 2 1.962369098563e-03 6.646871259230e-04 -7.040504951082e-04 1.706867424250e-03 1.890772622416e-01 6.404362059553e-02 -6.783634138572e-02 1.644592853724e-01 -7.377228291479e-02 3.770016067688e-02 4.427895359949e-02 9.393762597271e-02 
23 186 429 2 3 2.110524605821e-03 1.805228052027e-03 1.093356382757e-03 -6.132881433910e-06 1.422156845800e+00 1.216435679233e+00 7.367477547277e-01 -4.132583572662e-03 -1.547580334561e-02 2.602872176643e-02 8.500323940636e-02 9.023605463207e-02 
24 186 441 2 3 2.139193381342e-03 -2.655642598324e-04 -2.098574602674e-03 3.187610134427e-04 1.007046804360e+00 -1.250170468687e-01 -9.879251056807e-01 1.500599537853e-01 -1.178893542715e-01 -8.617255068773e-03 -1.549472793538e-01 1.948866755697e-01 
25 186 103 2 2 1.871110094666e-03 -1.223496137312e-03 1.396899105859e-03 -2.297456776421e-04 1.198534968769e+00 -7.837074413215e-01 8.947802863050e-01 -1.471630287082e-01 -1.474884877058e-01 -9.942015959267e-02 1.809464418211e-01 2.537298503269e-01 
26 186 457 2 3 2.181199106465e-03 7.293494969980e-04 -1.160430201260e-03 -1.696785372780e-03 4.927109462342e-01 1.647527177763e-01 -2.621295143605e-01 -3.832867545657e-01 -5.203678143916e-02 -2.085976572279e-01 1.202921855781e-01 2.463554731169e-01 
27 479 214 3 2 2.232775677422e-03 6.029667547203e-04 -1.087263400825e-03 1.854609558806e-03 6.171835064854e-02 1.666719768294e-02 -3.005411806391e-02 5.126508866251e-02 -7.474115632737e-03 -2.648126039420e-02 -1.309464942179e-02 3.047276488992e-02 
28 479 356 3 2 2.117205039955e-03 1.359682510564e-03 1.584010040521e-03 3.531753717425e-04 1.321214985704e+00 8.484926470772e-01 9.884814005008e-01 2.203946169227e-01 -2.133002643044e-01 1.632226678649e-01 8.911803236619e-02 2.829852747937e-01 
29 479 310 3 2 2.181505021199e-03 -1.077546042075e-03 -1.475526988888e-03 1.191922308620e-03 4.894284496689e-01 -2.417513064122e-01 -3.310397544807e-01 2.674120306691e-01 -1.321608976644e-02 -3.536637844009e-02 -5.572929597183e-02 6.731419005082e-02 
30 479 8 3 1 1.986786648404e-03 -6.865733109636e-04 9.712308183617e-04 -1.591429851553e-03 3.809144543553e-02 -1.316325023277e-02 1.862081454627e-02 -3.051151134099e-02 1.301206394505e-02 2.568183599479e-03 -4.046321463889e-03 1.386658186071e-02 
31 479 485 3 3 2.423473754028e-03 1.008723688633e-03 2.756498207817e-04 -2.186256785639e-03 6.130458883741e-01 2.551683956942e-01 6.972882994110e-02 -5.530390956943e-01 -1.038118300829e-02 5.492524482500e-02 2.135334114080e-03 5.593845842993e-02 
32 133 291 2 2 1.948683570519e-03 4.037064428295e-04 1.656093603635e-03 -9.443213129163e-04 3.010974053102e-01 6.237798905986e-02 2.558883825723e-01 -1.459101423134e-01 5.247033708183e-02 5.940786824932e-02 1.266174999165e-01 1.493801270870e-01 
33 133 216 2 2 1.933142379712e-03 -1.022548349484e-03 -8.822604926631e-04 -1.383130780617e-03 4.477635375909e-01 -2.368474620017e-01 -2.043533282481e-01 -3.203672620185e-01 5.824954302724e-02 1.192271421179e-02 -5.066904357232e-02 7.811857879911e-02 
34 165 15 2 1 1.723010522871e-03 4.720813153667e-05 1.708505389106e-03 -2.180504291156e-04 1.063262919630e-01 2.913194963216e-03 1.054311859452e-01 -1.345580498846e-02 2.029188072701e-02 -6.171145043722e-04 -4.421072537593e-04 2.030607575516e-02 
35 165 246 2 2 1.976977590032e-03 1.881356220876e-03 -6.074036021244e-04 1.605825386524e-07 9.047915738849e-02 8.610291106521e-02 -2.779867935381e-02 7.349285526471e-06 9.021845918984e-03 2.794353813271e-02 -1.869566904051e-03 2.942329532137e-02 
36 165 9 2 1 1.649280412088e-03 -4.970783605720e-04 -6.809247282306e-04 -1.417526188694e-03 7.665136100118e-01 -2.310203442835e-01 -3.164641183857e-01 -6.588043538372e-01 5.108492528055e-02 1.019816862643e-01 -6.690180657180e-02 1.322338294341e-01 
37 216 418 2 3 2.082496445990e-03 -1.613724603838e-03 -4.155788072417e-04 1.248991034995e-03 1.871703877734e+00 -1.450381634224e+00 -3.735134657811e-01 1.122566796192e+00 5.124920332832e-01 1.958908023693e-01 7.273303363318e-01 9.110602113912e-01 
38 216 45 2 1 1.667042427336e-03 -1.451866193337e-03 7.544996621291e-04 -3.191320589206e-04 5.729714876719e-01 -4.990142536601e-01 2.593256096961e-01 -1.096874126088e-01 2.219405205436e-02 4.101296860485e-02 -4.006250368530e-03 4.680480298419e-02 
39 216 392 2 2 1.882372428536e-03 -4.306836930469e-04 -1.824542366646e-03 1.699490175538e-04 1.044927238245e+00 -2.390776209374e-01 -1.012825085694e+00 9.434071327373e-02 4.891066376808e-02 -1.792563117602e-02 -6.849729656016e-02 8.605498776563e-02 
40 216 437 2 3 2.131972149205e-03 1.691591813340e-04 1.793750253100e-03 -1.139802810077e-03 1.107077051587e+00 8.783991281972e-02 9.314473184967e-01 -5.918696146389e-01 1.077195452792e-01 5.649059707763e-02 1.048881191215e-01 1.606119719268e-01 
41 216 393 2 2 1.827407172480e-03 6.557855716458e-04 -2.431356445395e-04 -1.688267548822e-03 1.857190573266e+00 6.664736792576e-01 -2.470983116756e-01 -1.715783227757e+00 6.032627118609e-01 3.465466901067e-02 2.293387664557e-01 6.463150279897e-01 
42 30 223 1 2 1.731415214451e-03 -8.124489544958e-04 7.585566468003e-04 1.327522939450e-03 6.075545669677e-02 -2.850887924584e-02 2.661779515512e-02 4.658285418111e-02 2.305380048659e-02 1.956382402073e-02 2.930094267127e-03 3.037772834831e-02 
43 30 84 1 1 1.464300840250e-03 -1.637356826589e-04 1.454916302195e-03 -2.421013403602e-05 1.513003639249e-01 -1.691815485781e-02 1.503306970477e-01 -2.501536562456e-03 6.520063057452e-02 6.709097374556e-03 -3.777321559024e-02 7.565018196226e-02 
44 30 387 1 2 1.667475987424e-03 1.413194941673e-03 7.009639157513e-04 5.403756233218e-04 5.684855999673e-01 4.817946287363e-01 2.389766900433e-01 1.842279965341e-01 1.690256429032e-02 8.548782269580e-02 -1.550967396200e-01 1.779012736031e-01 
45 30 154 1 2 1.652833201964e-03 -1.185711837493e-03 -1.086014421191e-03 3.827763170683e-04 7.263163129256e-01 -5.210458314709e-01 -4.772350829148e-01 1.682061341446e-01 -2.047876289967e-02 -5.045083191264e-02 -2.065755876300e-01 2.136308488381e-01 
46 252 384 2 2 1.981976469579e-03 1.974658523282e-03 -1.698575824535e-04 -1.014120683706e-05 6.267323956735e-02 6.244183449850e-02 -5.371166167124e-03 -3.206810450865e-04 -3.054098911947e-04 -3.976237544340e-03 7.130695095419e-03 8.170101147140e-03 
47 252 441 2 3 2.213818741966e-03 -1.704357106032e-03 4.510108781143e-04 -1.338935945153e-03 1.878999221777e-01 -1.446588925803e-01 3.827996723150e-02 -1.136434321049e-01 2.826468327704e-02 -1.270708910014e-02 -4.025894545789e-02 5.080497144505e-02 
48 465 83 3 1 1.946101635484e-03 -1.571517698126e-03 6.505151918707e-04 9.457661895280e-04 3.138133222265e-01 -2.534108089704e-01 1.048970566581e-01 1.525069526554e-01 -4.701520508985e-02 -1.279415710348e-01 9.878454998200e-03 1.366640368994e-01 
49 465 87 3 1 1.884071640751e-03 1.431414869449e-03 -3.819943286555e-04 1.163983570279e-03 9.899027454416e-01 7.520741135768e-01 -2.007021529863e-01 6.115640758801e-01 -1.335428077761e-01 7.607205527010e-02 1.891901742327e-01 2.437489715423e-01 
50 465 457 3 3 2.378140338215e-03 2.286958035496e-04 -2.009599059895e-03 1.250904199431e-03 1.231876946262e+00 1.184644503827e-01 -1.040972525184e+00 6.479685073663e-01 1.586943809962e-01 1.814996014429e-01 2.625690198306e-01 3.564666913731e-01 
51 465 168 3 2 2.082099765940e-03 -4.124284767317e-04 1.266390609484e-03 -1.600405264649e-03 1.878356626410e+00 -3.720704333490e-01 1.142468402264e+00 -1.443798170948e+00 8.717524830180e-02 1.848200324451e-01 1.237816464408e-01 2.389139265616e-01 
52 465 135 3 2 2.085704716919e-03 -1.026818984510e-03 -1.008431850698e-03 -1.509593369661e-03 1.818187840873e+00 -8.951170207699e-01 -8.790882594336e-01 -1.315969747354e+00 -1.011333781467e-03 -8.859027356052e-02 5.986758563971e-02 1.069270179883e-01 
53 84 416 1 3 1.930744347054e-03 1.026422754315e-03 1.165231369360e-03 1.147373487128e-03 4.570785496580e-01 2.429922038069e-01 2.758533335268e-01 2.716257127531e-01 1.239543343585e-01 -1.544363400977e-02 -9.520364879169e-02 1.570570519936e-01 
54 84 223 1 2 1.653156973997e-03 -6.487132718370e-04 -6.963596553944e-04 1.351733073486e-03 7.226890697855e-01 -2.835895189359e-01 -3.044184669144e-01 5.909195151106e-01 4.146309453369e-02 -1.109884962008e-01 -3.727825573693e-02 1.242066940548e-01 
55 84 160 1 2 1.658051484838e-03 -1.008960321778e-03 1.314100671062e-03 -6.536988424865e-05 6.685994921884e-01 -4.068573050642e-01 5.299033530567e-01 -2.636002067048e-02 -7.791927285755e-02 -6.323239526951e-02 -6.847615761102e-02 1.214855261146e-01 
56 84 422 1 3 1.952651351522e-03 -1.766670471510e-03 -6.857694237429e-04 -4.705773508703e-04 2.583862363850e-01 -2.337761596356e-01 -9.074501717409e-02 -6.226954470118e-02 -1.405097163201e-02 4.680686099497e-02 -1.546032211032e-02 5.125752237243e-02 
57 84 172 1 2 1.638857971274e-03 1.072627454863e-03 -2.829106285801e-04 -1.206352920716e-03 8.885184297288e-01 5.815325541221e-01 -1.533819964058e-01 -6.540327603741e-01 7.453351839386e-02 4.268626281672e-02 5.626073387635e-02 1.026773225875e-01 
58 17 169 1 2 1.640061929178e-03 3.160656211189e-04 -7.373759075039e-05 1.607628197811e-03 8.741201358344e-01 1.684566410267e-01 -3.930065791793e-02 8.568336070979e-01 -2.545593643054e-02 -1.751452232719e-01 -3.028710527989e-03 1.770113754028e-01 
59 17 457 1 3 1.899389433549e-03 -3.946132505694e-04 1.745515061344e-03 6.365043388500e-04 8.003379008418e-01 -1.662765597337e-01 7.355004905304e-01 2.682012111019e-01 1.979511729192e-01 -7.860661242857e-02 3.382902024585e-01 3.997548341884e-01 
60 17 448 1 3 1.847282733297e-03 -7.535628064001e-04 5.017388340393e-04 -1.610234372992e-03 1.496718768662e+00 -6.105571038883e-01 4.065224647733e-01 -1.304655732747e+00 -2.248474887397e-01 -3.239431242109e-01 4.286245019480e-03 3.943525235274e-01 
61 15 329 1 2 1.696744301754e-03 1.648849661249e-03 -3.390767109135e-04 2.127510381866e-04 2.947121769689e-01 2.863932253427e-01 -5.889516501070e-02 3.695331202914e-02 -5.639504426865e-03 6.976791933147e-03 5.482634889554e-02 5.555545129935e-02 
62 15 38 1 1 1.475204116662e-03 -1.321937840704e-03 -4.880663044714e-04 4.364616977145e-04 8.758351394985e-02 -7.848402807748e-02 -2.897671007239e-02 2.591292198726e-02 9.083457189350e-03 9.640000523303e-03 3.829139027496e-02 4.051751934397e-02 
63 15 103 1 2 1.732637608738e-03 -5.403517389602e-05 -2.149593902628e-04 -1.718402090238e-03 5.486094640554e-02 -1.710929489337e-03 -6.806313985741e-03 -5.441020355340e-02 -9.557260048532e-04 2.511196201992e-02 -3.111267875822e-03 2.532200695998e-02 
64 173 437 2 3 2.162459261715e-03 -4.879823363452e-05 -9.846866580639e-04 1.924640479778e-03 7.071578981522e-01 -1.595778331712e-02 -3.220078915627e-01 6.293874481129e-01 2.196307079015e-01 -1.668298271744e-02 -2.966746225780e-03 2.202833887265e-01 
65 173 183 2 2 1.884259893981e-03 -8.969556168230e-04 1.499287369792e-03 7.057218661040e-04 1.019877827170e+00 -4.854877761160e-01 8.115069210415e-01 3.819802595638e-01 -1.859220642284e-01 -2.376992171381e-02 -1.858039301885e-01 2.639225712567e-01 
66 173 88 2 1 1.679489766310e-03 5.518790181948e-04 1.489692636129e-03 -5.449140063153e-04 4.489802069029e-01 1.475345433744e-01 3.982414906049e-01 -1.456725775932e-01 1.183400684416e-01 -5.201485566565e-02 -2.234618041088e-02 1.311841026483e-01 
67 173 416 2 3 2.208805966678e-03 1.896287673974e-03 2.235385830861e-04 -1.110381627118e-03 2.282719501625e-01 1.959743372380e-01 2.310188810942e-02 -1.147538458655e-01 5.000061591335e-02 4.526046706509e-03 8.630122776636e-02 9.984211838941e-02 
68 173 223 2 2 1.884940262006e-03 2.211516478215e-04 -1.638052441668e-03 -9.060220407604e-04 1.010898206636e+00 1.186041853334e-01 -8.784916472076e-01 -4.859019007862e-01 -1.627165071685e-01 5.559080002501e-02 -1.402235968399e-01 2.218775695361e-01 
69 9 441 1 3 1.960397521686e-03 1.448183195692e-03 -1.321002981459e-03 2.958036042578e-05 1.976475975276e-01 1.460060657301e-01 -1.331837358107e-01 2.982296757410e-03 5.219360066716e-02 5.856437810965e-02 6.010145479220e-02 9.882379876382e-02 
70 9 190 1 2 1.681536374187e-03 -1.123006678050e-03 -9.650293957971e-04 -7.969559862474e-04 4.295748067507e-01 -2.868896469375e-01 -2.465318755943e-01 -2.035948903851e-01 -5.862454732598e-02 7.170185657027e-02 -4.214337122613e-03 9.271329150765e-02 
71 223 245 2 2 1.924818992584e-03 -1.195326514030e-03 -1.271464833496e-03 8.120959649293e-04 5.339302958010e-01 -3.315745748944e-01 -3.526947714379e-01 2.252693060719e-01 -1.331868418522e-01 7.967205625049e-03 -1.835641943912e-01 2.269317621456e-01 
72 223 484 2 3 2.118908811733e-03 1.472182869176e-03 -1.377559925913e-03 6.517521021560e-04 1.295869746254e+00 9.003489109842e-01 -8.424799697644e-01 3.985947042954e-01 8.837743945474e-03 1.455591212806e-01 2.876947178339e-01 3.225427323248e-01 
73 329 449 2 3 2.233631339012e-03 -6.100955435018e-04 2.125377903413e-03 -3.156915489848e-04 5.717692833437e-02 -1.561734407942e-02 5.440583588903e-02 -8.081133514206e-03 -6.663494649191e-03 -5.945856252668e-03 -2.715252637700e-02 2.858347522907e-02 
74 329 246 2 2 1.985505271528e-03 1.852984280895e-04 -1.976832280316e-03 5.459973467628e-06 4.519989880284e-02 4.218306704130e-03 -4.500245872012e-02 1.242959420667e-04 -2.036720193791e-02 -1.906397734341e-03 9.857057969064e-04 2.047996296430e-02 
75 329 429 2 3 2.169271180447e-03 1.325839354194e-03 -1.794254024517e-04 -1.707540332216e-03 6.262446180146e-01 3.827551702156e-01 -5.179813092678e-02 -4.929480245400e-01 -5.495987062092e-02 1.921246666784e-02 -4.469303737594e-02 7.339736946252e-02 
76 69 271 1 2 1.707512886910e-03 -5.495835191279e-04 -1.585601880970e-03 -3.153171253348e-04 2.100074930645e-01 -6.759343251020e-02 -1.950136239520e-01 -3.878094245702e-02 2.924852467002e-02 -1.707776389103e-02 3.489828667440e-02 4.863143661974e-02 
77 69 490 1 3 1.843503329033e-03 -4.097628655115e-04 4.434712118700e-04 -1.741818647978e-03 1.552621688689e+00 -3.451074387516e-01 3.734970319907e-01 -1.466981571459e+00 2.039046801130e-01 -6.128864369376e-02 -6.357281516938e-02 2.222046787229e-01 
78 146 484 2 3 2.076565309075e-03 -1.602168322614e-03 4.643841101208e-04 1.236740695188e-03 1.971991578683e+00 -1.521484745035e+00 4.409981956409e-01 1.174459683626e+00 1.252892996559e-01 5.598094992956e-01 -4.789370094445e-02 5.756543152796e-01 
79 146 448 2 3 2.067090466163e-03 1.939261740920e-03 -6.398963847441e-04 3.204052313833e-04 2.135775560082e+00 2.003699353588e+00 -6.611588035903e-01 3.310516272571e-01 1.166308162484e-01 1.610542366821e-01 -3.842623146680e-01 4.326646980354e-01 
80 146 135 2 2 1.923740541816e-03 1.042696508691e-03 1.605047051757e-03 -1.933536258667e-04 5.454600232476e-01 2.956475935856e-01 4.550972353780e-01 -5.482375141958e-02 -3.271319656494e-02 3.413578151426e-02 1.069522207062e-01 1.169366594489e-01 
81 146 387 2 2 1.986222999203e-03 -8.487072956210e-04 1.784351304984e-03 -2.021587230968e-04 4.188459810845e-02 -1.789716663388e-02 3.762761649802e-02 -4.263034349327e-03 -1.766511948431e-02 -7.447152438320e-03 8.429908886416e-03 2.094229905401e-02 
82 369 341 2 2 1.943472462883e-03 8.554385623948e-04 1.734466859252e-03 1.921842712347e-04 3.481067578354e-01 1.532226209374e-01 3.106705376475e-01 3.442325262855e-02 1.744908949285e-02 -4.772118396661e-03 -3.459982856748e-02 3.904346264127e-02 
83 369 12 2 1 1.690535702338e-03 -7.795553119661e-04 -1.439907359795e-03 4.205606634897e-04 3.477229885455e-01 -1.603452103605e-01 -2.961717340154e-01 8.650430190325e-02 1.256425083385e-02 -1.606150541785e-02 -3.170185073559e-02 3.769402731687e-02 
84 169 441 2 3 2.185455645701e-03 -1.705592628519e-03 8.811082506799e-04 1.044422527262e-03 4.477014367599e-01 -3.493991158398e-01 1.804993986249e-01 2.139551388102e-01 8.931598050685e-02 -1.285130302809e-02 1.566990971565e-01 1.808234150023e-01 
85 169 284 2 2 1.872254468931e-03 7.278533834513e-04 -1.167104762045e-03 1.270209716166e-03 1.182608323866e+00 4.597481187025e-01 -7.372009677754e-01 8.023271453322e-01 -1.039724568727e-01 3.138159260596e-02 8.841241667456e-02 1.400422492138e-01 
86 169 82 2 1 1.697559056470e-03 1.262451859340e-03 9.016042272894e-04 -6.892255584238e-04 2.879749511647e-01 2.141631015167e-01 1.529486896695e-01 -1.169206430682e-01 -6.672037747016e-03 3.732859958969e-02 3.660992607589e-02 5.270889035359e-02 
87 169 463 2 3 2.213960787939e-03 1.914556177410e-03 -9.217834775056e-04 -6.216206517407e-04 1.867944675317e-01 1.615333494916e-01 -7.777195278173e-02 -5.244686323317e-02 -1.834048953368e-02 -7.423369422030e-02 5.359135858818e-02 9.337584606982e-02 
88 169 412 2 3 2.243882215016e-03 -1.586896026171e-03 -1.502134534593e-03 5.102550705007e-04 1.306448789924e-02 -9.239336981473e-03 -8.745832699634e-03 2.970842742757e-03 2.068351890612e-03 -1.290441517707e-04 6.052693833449e-03 6.397642892346e-03 
89 169 457 2 3 2.181244190882e-03 -7.106788716883e-04 1.819252652094e-03 -9.711238589607e-04 4.922267343299e-01 -1.603741303384e-01 4.105385337434e-01 -2.191470023045e-01 -1.358306315314e-01 -1.162098933718e-01 -1.182992217715e-01 2.143581247620e-01 
90 39 393 1 2 1.715643854328e-03 -6.321446665651e-05 1.351029613719e-03 1.055536237632e-03 1.527058293384e-01 -5.626585921439e-03 1.202522872700e-01 9.395104709969e-02 4.577982228687e-02 2.099757356397e-02 -2.413408062623e-02 5.584929786367e-02 
91 39 80 1 1 1.430928034203e-03 -8.035045999494e-04 -8.905557212666e-04 7.802857837026e-04 4.071980723777e-01 -2.286526760433e-01 -2.534247456034e-01 2.220453156502e-01 7.075073009204e-02 -1.011069017450e-02 6.131651389425e-02 9.416797088451e-02 
92 39 484 1 3 1.895653488512e-03 1.192291893663e-03 1.356989801842e-03 -5.749094420052e-04 8.453273049342e-01 5.316778088789e-01 6.051214206427e-01 -2.563689261443e-01 1.048824034349e-01 1.708437438056e-02 2.578384530573e-01 2.788778626446e-01 
93 39 316 1 2 1.647515893575e-03 -1.027319621215e-03 -8.248815057862e-04 -9.891883121333e-04 7.867445462208e-01 -4.905798556290e-01 -3.939088105228e-01 -4.723708662181e-01 -2.823163967665e-02 -1.060114050480e-01 1.177225442307e-01 1.609162543040e-01 
94 434 107 3 2 2.158717192703e-03 -6.861869504858e-04 1.727451333424e-03 1.097779248168e-03 7.529819754817e-01 -2.393488166365e-01 6.025521647701e-01 3.829162938630e-01 -3.541955242283e-02 -1.762951118482e-01 2.552760873978e-01 3.122505275457e-01 
95 434 412 3 3 2.462642390774e-03 4.976685327497e-04 -3.118770567572e-04 2.391582379475e-03 2.090961204843e-01 4.225565184574e-02 -2.648061402675e-02 2.030626124363e-01 2.156399368156e-02 1.620643444702e-02 -2.373870141827e-03 2.707932053125e-02 
96 434 356 3 2 2.071913787553e-03 -1.554531849831e-03 1.097498611414e-04 1.365361651319e-03 2.051854425645e+00 -1.539481553260e+00 1.086873110502e-01 1.352142817763e+00 1.343077863954e-01 3.113967648784e-01 1.278855164948e-01 3.624379008773e-01 
97 434 448 3 3 2.436029160707e-03 1.014936131402e-03 1.765733902625e-03 -1.336535261828e-03 4.685440592423e-01 1.952120699330e-01 3.396199617075e-01 -2.570682104297e-01 1.190363099920e-01 -4.927875309696e-02 2.529008242203e-02 1.312921432235e-01 
98 434 267 3 2 2.186135463760e-03 -1.966861699838e-03 8.182118527343e-04 -4.910933553429e-04 4.406469259595e-01 -3.964491570576e-01 1.649223223665e-01 -9.898690222006e-02 -2.870656166259e-02 -1.042428602663e-01 -5.870758968913e-02 1.230334169488e-01 
99 434 334 3 2 2.036129823105e-03 1.281786380998e-03 -9.760008389008e-04 -1.245098667774e-03 2.700389718221e+00 1.699951901359e+00 -1.294407950041e+00 -1.651295316474e+00 1.915159543171e-01 7.822669646520e-02 1.358392110967e-01 2.474875109358e-01 
100 434 236 3 2 2.185916721207e-03 -5.574612804704e-04 2.299241174568e-04 -2.101095840994e-03 4.429127379074e-01 -1.129533891274e-01 4.658746574640e-02 -4.257262422269e-01 -5.148463452678e-02 -1.749382355434e-02 1.174550815088e-02 5.562965411208e-02 
101 448 492 3 3 2.458878951778e-03 1.918422244526e-03 -1.468232205267e-03 4.582968280729e-04 2.414757974877e-01 1.883998970670e-01 -1.441886931472e-01 4.500733635749e-02 7.274750144774e-02 9.550309705571e-02 1.440764508938e-03 1.200629681313e-01 
102 448 123 3 2 2.137388913833e-03 1.728758892372e-03 5.410171473532e-04 -1.134515097868e-03 1.031746076680e+00 8.344949265839e-01 2.611561777951e-01 -5.476455377793e-01 2.793068224388e-01 -2.141810631437e-01 3.234672908997e-01 4.780344309276e-01 
103 448 359 3 2 2.170943513180e-03 7.791464723302e-05 1.238196695439e-03 -1.781514521010e-03 6.068863511275e-01 2.178100704673e-02 3.461373683430e-01 -4.980216392422e-01 1.803017627519e-01 1.966418885068e-01 1.445564893146e-01 3.034358854353e-01 
104 448 496 3 3 2.377230059348e-03 1.958787269457e-04 -1.265110983967e-03 -2.003084740506e-03 1.245705642999e+00 1.026435092137e-01 -6.629378951147e-01 -1.049647658139e+00 -8.050147517790e-02 -5.314878424351e-03 -4.515343396109e-03 8.080299353656e-02 
105 437 291 3 2 2.150986048769e-03 1.257095610979e-03 7.446038431980e-04 1.578612277778e-03 8.506397699449e-01 4.971373579731e-01 2.944647838327e-01 6.242859573959e-01 1.408545397745e-01 1.598623351193e-01 -1.875709045383e-01 2.838640727429e-01 
106 437 10 3 1 1.952537296784e-03 4.269190572664e-04 1.900090900807e-03 1.407003288867e-04 2.593204193456e-01 5.669998167988e-02 2.523549076391e-01 1.868669466599e-02 1.258289931509e-01 -2.909952789312e-02 1.117945541688e-02 1.296329366496e-01 
107 437 116 3 2 2.197128949773e-03 2.046221562109e-03 6.190225867240e-04 -5.071133776757e-04 3.319158599252e-01 3.091185838022e-01 9.351449955034e-02 -7.660859998598e-02 2.460531130748e-02 4.286571054062e-03 1.045158837224e-01 1.074586710611e-01 
108 437 346 3 2 2.123291434026e-03 -2.078586512480e-03 4.272835276592e-04 7.261825483268e-05 1.231430956720e+00 -1.205503746057e+00 2.478087345073e-01 4.211591757538e-02 3.281486186851e-02 1.924052835218e-01 -1.928313889493e-01 2.743730177162e-01 
109 437 393 3 2 2.164837863074e-03 4.866263903118e-04 -2.036885897640e-03 -5.484647387455e-04 6.785329143348e-01 1.525250590091e-01 -6.384284698026e-01 -1.719072748766e-01 2.651514573282e-01 7.207792324400e-02 -3.242653105259e-02 2.766803250297e-01 
110 484 393 3 2 2.057834993116e-03 -1.255506360320e-03 -5.960188123004e-06 1.630445679637e-03 2.299919095543e+00 -1.403204368832e+00 -6.661345794480e-03 1.822251621431e+00 5.120094351845e-01 1.459847693025e-01 3.948007633766e-01 6.628218896121e-01 
111 484 267 3 2 2.127935105814e-03 5.596322322936e-04 -2.051802544756e-03 -7.089355731913e-05 1.164359981516e+00 3.062186313241e-01 -1.122701893755e+00 -3.879141843383e-02 2.557957869875e-02 1.320173787429e-02 -1.801602729422e-01 1.824454019040e-01 
112 484 387 3 2 2.092952089909e-03 7.534610269927e-04 1.319967194864e-03 -1.438899418284e-03 1.699218950540e+00 6.117174214032e-01 1.071650556369e+00 -1.168208852586e+00 -1.843300837522e-01 2.922135909969e-01 1.715386195596e-01 3.857354800116e-01 
113 341 441 2 3 2.151184565302e-03 5.503348344956e-04 1.542160347348e-03 -1.395158796338e-03 8.480828566312e-01 2.169639676999e-01 6.079811903909e-01 -5.500273089243e-01 -4.943680204107e-02 -7.331452832564e-02 -1.005402060102e-01 1.338930561464e-01 
114 341 412 2 3 2.208466101566e-03 6.690314368430e-04 -8.410824379240e-04 -1.929326253099e-03 2.311027653261e-01 7.001013736861e-02 -8.801424533240e-02 -2.018924501451e-01 2.409890809657e-03 1.397107551928e-03 2.266128336702e-04 2.794787398445e-03 
115 412 340 3 2 2.220216351609e-03 1.036885864992e-03 -4.844965460622e-04 1.902496109796e-03 1.403356240789e-01 6.553956998683e-02 -3.062409891109e-02 1.202531359983e-01 -8.608466836953e-03 1.925095778755e-02 9.594248340564e-03 2.316796664020e-02 
116 412 441 3 3 2.445254573418e-03 -1.186966023473e-04 2.383242785272e-03 5.341674567610e-04 3.709361286375e-01 -1.800583817970e-02 3.615291683664e-01 8.103123928649e-02 1.291029321770e-01 2.746798601709e-02 -9.386344956179e-02 1.619642075156e-01 
117 412 478 3 3 2.436468834821e-03 -7.483125520925e-04 -2.313160024566e-03 1.603103495766e-04 4.637219002634e-01 -1.424228841708e-01 -4.402531018971e-01 3.051113105783e-02 1.034633764873e-01 -4.313709732650e-02 -1.394798645204e-01 1.789416442490e-01 
118 490 190 3 2 2.159881258146e-03 7.067757214143e-04 1.885567987131e-03 -7.811456297108e-04 7.386246291150e-01 2.416993772821e-01 6.448164453083e-01 -2.671320003607e-01 -3.244479493118e-01 5.181005333569e-02 -1.684968212181e-01 3.692450841919e-01 
119 490 356 3 2 2.071095711622e-03 1.344461814923e-03 -4.320214659051e-04 -1.514997467955e-03 2.066009078703e+00 1.341159802521e+00 -4.309604166268e-01 -1.511276618190e+00 -4.951138984920e-02 -1.657243560510e-04 -4.389088310933e-02 6.616505731486e-02 
120 246 441 2 3 2.176443092526e-03 -9.302513857553e-04 -1.394524107565e-03 -1.388106410807e-03 5.446735554252e-01 -2.328033898329e-01 -3.489916214222e-01 -3.473855377515e-01 9.191557496770e-02 1.263186176838e-01 -1.885006412552e-01 2.448210731305e-01 
121 393 190 2 2 1.873070000083e-03 1.589782349112e-03 -4.367148951896e-04 8.889676079496e-04 1.171301696378e+00 9.941511861829e-01 -2.730943838438e-01 5.559051541961e-01 -5.140629002030e-02 -2.278824957217e-01 -2.001745344776e-02 2.344647882999e-01 
122 393 178 2 2 1.973697556897e-03 -1.865368457988e-03 -5.409576998205e-04 3.510659895915e-04 1.104883533311e-01 -1.044240484357e-01 -3.028302146197e-02 1.965281000879e-02 -1.949626667319e-03 3.303899892802e-02 4.055057796838e-02 5.234239073521e-02 
123 441 107 3 2 2.143435798788e-03 -1.065158880888e-03 -3.439143950913e-04 -1.827970588068e-03 9.497692353894e-01 -4.719782773252e-01 -1.523905275119e-01 -8.099847118001e-01 -1.340967330193e-01 -3.533038235654e-01 1.446087801694e-01 4.046198522743e-01 
124 441 457 3 3 2.435650947170e-03 9.949137568303e-04 9.381444014140e-04 -2.015546386222e-03 4.727054471402e-01 1.930905382132e-01 1.820728743040e-01 -3.911725351443e-01 1.295368426485e-01 1.466715565485e-01 1.322108427873e-01 2.361610595637e-01 
125 387 416 2 3 2.079895848705e-03 -5.505078700162e-04 1.919183755803e-03 5.827877297706e-04 1.915461675707e+00 -5.069853511404e-01 1.767455295980e+00 5.367132023188e-01 5.144393261652e-01 2.113030727328e-01 -2.098989405688e-01 5.944361816911e-01 
126 387 135 2 2 1.899904180723e-03 1.891403804312e-03 -1.793042532278e-04 8.805097230095e-06 8.202500406325e-01 8.165801533996e-01 -7.741144131791e-02 3.801445059198e-03 5.211677095236e-03 5.704184857830e-02 4.207337711355e-02 7.107111318330e-02 
127 387 68 2 1 1.654472736890e-03 -8.114385547032e-05 -1.081667816647e-03 -1.249275968816e-03 7.080109325473e-01 -3.472449893011e-02 -4.628862250158e-01 -5.346120392127e-01 2.572941638955e-01 1.707638684666e-02 -3.149729887526e-02 2.597767687820e-01 
128 387 172 2 2 1.900638268027e-03 -5.043031694689e-04 4.710417578632e-04 -1.770938678074e-03 8.112432260625e-01 -2.152500751962e-01 2.010532154842e-01 -7.558839735725e-01 5.395684827714e-02 4.876984566362e-03 -1.406787631499e-02 5.597349014022e-02 
129 429 122 3 2 2.169875562139e-03 1.153798995490e-03 1.220708234664e-03 -1.373673628997e-03 6.192251533382e-01 3.292637478249e-01 3.483578768201e-01 -3.920101587362e-01 -3.061986144823e-02 2.102884971508e-03 -2.385002939666e-02 3.886929305420e-02 
130 429 87 3 1 1.888904027912e-03 1.268405108698e-04 -6.261818527766e-04 -1.777573120498e-03 9.286572739326e-01 6.235963358013e-02 -3.078548850513e-01 -8.739227530381e-01 -2.516144664755e-01 -7.480353996949e-02 8.396679469314e-03 2.626326589704e-01 
131 485 267 3 2 2.130210323798e-03 -6.137102807620e-05 2.016822211332e-03 6.829771507200e-04 1.131957674034e+00 -3.261152451386e-02 1.071705152198e+00 3.629224862497e-01 1.245223383874e-01 5.829005803705e-02 -1.609404058226e-01 2.116727612372e-01 
132 485 8 3 1 1.926573103350e-03 -1.695296999597e-03 6.955809975800e-04 5.948269340866e-04 4.989887500798e-01 -4.390874809640e-01 1.801577588508e-01 1.540621260816e-01 5.835481063197e-03 8.963997126673e-02 -8.819201694973e-02 1.258856987175e-01 
133 485 424 3 3 2.353328515383e-03 1.780818169534e-03 -1.536336220387e-03 8.070171185546e-05 1.626656670070e+00 1.230928760995e+00 -1.061939097762e+00 5.578225777558e-02 1.341497210630e-01 1.530791060758e-01 -4.603725801558e-02 2.086834672508e-01 
134 485 456 3 3 2.416930186041e-03 -2.145117705750e-03 -1.108061206122e-03 -1.105527754617e-04 6.933335730075e-01 -6.153599851742e-01 -3.178643883007e-01 -3.171376287964e-02 -1.346944595927e-01 2.647625023365e-01 -4.013999285442e-02 2.997548984000e-01 
135 485 236 3 2 2.171927706133e-03 1.348029391292e-03 1.428534476055e-03 -9.270253349308e-04 5.955887806186e-01 3.696583358324e-01 3.917345426658e-01 -2.542100675243e-01 -1.136180834055e-01 1.043634696154e-01 -4.394379888807e-03 1.543376598291e-01 
136 485 90 3 1 1.954290170187e-03 -1.505131808532e-03 5.159978588405e-04 -1.134713407829e-03 2.450881982150e-01 -1.887590945586e-01 6.471146784407e-02 -1.423047963183e-01 -5.611205154584e-02 -5.216997799636e-02 5.070569916709e-02 9.187674820566e-02 
137 103 116 2 2 1.992533102702e-03 -1.643445173578e-03 -4.687674331689e-05 -1.125645902468e-03 1.671215799185e-02 -1.378422037482e-02 -3.931736639121e-04 -9.441234446454e-03 2.660415462875e-03 5.688118245264e-03 -4.121089413065e-03 7.511050363144e-03 
138 38 291 1 2 1.705207549673e-03 -1.164668457899e-03 3.518114273658e-04 -1.194784034967e-03 2.273297032108e-01 -1.552677472745e-01 4.690173192382e-02 -1.592826047024e-01 5.058511535726e-02 -2.364126121901e-02 -5.627138643122e-02 7.927314840868e-02 
139 267 495 2 3 2.214257617154e-03 -4.302928139757e-04 4.548528897864e-04 -2.123886470134e-03 1.844914954174e-01 -3.585190995967e-02 3.789825049330e-02 -1.769617897828e-01 3.440521867551e-02 4.327627596312e-02 2.297684398469e-03 5.533384576316e-02 
140 107 190 2 2 1.939289322633e-03 -1.506030992854e-03 6.998879807534e-04 1.001434241395e-03 3.874538372287e-01 -3.008924353662e-01 1.398317830188e-01 2.000782116584e-01 -4.878059592202e-02 1.111103274292e-01 -1.510132825027e-01 1.937267738134e-01 
141 107 356 2 2 1.855419429703e-03 -8.683448993456e-04 -1.617701472283e-03 2.675824031508e-04 1.423925466254e+00 -6.664037229943e-01 -1.241490892196e+00 2.053537825832e-01 2.152647963132e-02 -4.655545050229e-02 -2.115999081635e-01 2.177276290037e-01 
142 135 359 2 2 1.889538160268e-03 9.744798794622e-04 -1.006746741061e-03 -1.267755663760e-03 9.509129537515e-01 4.904084818374e-01 -5.066468290254e-01 -6.379999664520e-01 -8.589774522356e-02 -1.288020239171e-01 3.625729682121e-02 1.590062123705e-01 
143 135 189 2 2 1.918591964307e-03 -6.055799489591e-04 8.636247313817e-05 -1.818463520161e-03 6.016213979556e-01 -1.898943924735e-01 2.708106402345e-02 -5.702236773027e-01 -2.601847433814e-02 1.095526977016e-01 1.386748094662e-02 1.134507012248e-01 
144 87 97 1 1 1.428406327773e-03 5.583586753601e-04 -1.185182560717e-03 5.691419195986e-04 4.296996045394e-01 1.679679635468e-01 -3.565319389485e-01 1.712118274914e-01 3.514160560538e-02 -6.832435182290e-02 -1.767545969287e-01 1.927312559808e-01 
145 364 271 2 2 1.972089193558e-03 1.566892880909e-03 -1.196709534828e-03 4.322934598275e-05 1.207760775946e-01 9.596075917121e-02 -7.328972954611e-02 2.647482102652e-03 2.078449725509e-02 2.564563012652e-02 -4.341288632806e-02 5.453780679552e-02 
146 364 392 2 2 1.993127151692e-03 -2.627623578648e-04 1.573239718225e-03 -1.195168847945e-03 1.475799917542e-02 -1.945609269036e-03 1.164896602035e-02 -8.849561282372e-03 5.165461731868e-03 2.909174195140e-03 2.693794682287e-03 6.511667926989e-03 
147 334 492 2 3 2.117565865705e-03 1.651571994930e-03 1.273502536259e-03 3.668602340187e-04 1.315833687012e+00 1.026269880267e+00 7.913414004468e-01 2.279631827114e-01 -5.091969077331e-02 5.545641238299e-02 3.672693875219e-02 8.376811214865e-02 
148 334 139 2 2 1.832103016433e-03 1.556818437193e-03 -6.379244408086e-04 -7.252380466140e-04 1.781913814550e+00 1.514170466998e+00 -6.204489395630e-01 -7.053706491981e-01 -2.123202254848e-01 -8.529024772976e-02 -3.807512708424e-01 4.442137264379e-01 
149 334 354 2 2 1.887573750713e-03 -1.004214772380e-03 -4.736657953794e-04 -1.526475702264e-03 9.763913662673e-01 -5.194534164609e-01 -2.450146347553e-01 -7.896050132846e-01 1.582173684715e-01 -3.471531580553e-01 3.636060526380e-03 3.815249294213e-01 
150 284 340 2 2 1.899989374404e-03 -1.277863544631e-03 -8.195263186099e-04 1.142541464131e-03 8.192030806598e-01 -5.509661088250e-01 -3.533485470663e-01 4.926203797803e-01 9.345866904593e-02 -1.934988911960e-01 -3.426572174381e-02 2.176016622192e-01 
151 340 229 2 2 1.914850814828e-03 -5.506899226833e-04 -1.833654838210e-03 3.322930052391e-05 6.435660091860e-01 -1.850824686163e-01 -6.162766923214e-01 1.116810153596e-02 -1.684717520797e-01 5.257085011398e-02 1.089730306157e-01 2.074163612931e-01 
152 416 233 3 2 2.113513424430e-03 1.596707884536e-03 1.324348521224e-03 -4.044303661175e-04 1.376689525029e+00 1.040055385390e+00 8.626473414273e-01 -2.634357758043e-01 -3.316435694134e-01 5.017834412770e-01 3.337985165230e-01 6.878920908878e-01 
153 416 365 3 2 2.218788380670e-03 -7.074370605006e-04 1.918120509877e-03 -8.621881425873e-04 1.505481853396e-01 -4.800068660364e-02 1.301474104247e-01 -5.850078422018e-02 7.133953784128e-02 2.149161325413e-02 -1.072240306918e-02 7.527409266973e-02 
154 154 212 2 2 1.921160268142e-03 -1.762502204935e-03 -5.761384638817e-04 5.025009690743e-04 5.733767335791e-01 -5.260247018169e-01 -1.719504593072e-01 1.499731016959e-01 3.391641188716e-02 9.437695941389e-02 2.271676158727e-01 2.483192686136e-01 
155 154 422 2 3 2.183188333497e-03 -7.446943166762e-04 1.855161299643e-03 -8.775638019747e-04 4.714976839438e-01 -1.608297553498e-01 4.006545118911e-01 -1.895252433312e-01 9.942191311566e-02 1.182115327710e-01 1.655293060467e-01 2.264036979556e-01 
156 116 21 2 1 1.640030722122e-03 -2.483632213163e-04 1.437648714529e-03 7.491212541457e-04 8.744923594892e-01 -1.324315066112e-01 7.665788204619e-01 3.994442325043e-01 -7.351282132455e-02 -1.308704332357e-02 7.431239347946e-04 7.467233647898e-02 
157 90 150 1 2 1.746091021042e-03 -9.707681213946e-04 1.363586889968e-03 -4.970652892289e-04 5.860620683058e-03 -3.258308794981e-03 4.576774884119e-03 -1.668361545749e-03 1.345116944877e-03 1.621450056046e-03 1.821071414847e-03 2.784733555948e-03 
158 90 278 1 2 1.703553749994e-03 -1.687862706480e-03 -2.302735597556e-04 1.374594007889e-05 2.400352086677e-01 -2.378242993236e-01 -3.244615085775e-02 1.936839148856e-03 -7.334088043847e-03 4.904607111795e-02 -7.892659861861e-02 9.321327109937e-02 
159 90 488 1 3 1.992528097755e-03 9.436440376154e-04 -1.375252117659e-03 -1.090131076288e-03 1.619774937877e-02 7.671113717941e-03 -1.117976161017e-02 -8.861942766893e-03 -5.470684441680e-03 9.231107592007e-04 -5.900105888843e-03 8.098874689347e-03 
160 291 94 2 1 1.749339869346e-03 4.651230253736e-04 1.116381971851e-03 1.263939018575e-03 4.067166668467e-04 1.081398131195e-04 2.595557115432e-04 2.938623155743e-04 -1.903933030996e-04 7.107697896070e-05 7.284569162576e-06 2.033583333705e-04 
161 8 316 1 2 1.672061472936e-03 -1.145317775652e-03 1.191172450880e-03 -2.552350961757e-04 5.217677759239e-01 -3.573970922722e-01 3.717060709173e-01 -7.964626338494e-02 -7.289492310953e-02 -4.625760446153e-02 1.112192938171e-01 1.407947694442e-01 
162 8 456 1 3 1.988221416569e-03 -4.498207061533e-04 -1.803642203702e-03 -7.053797095483e-04 3.205882267137e-02 -7.253076610234e-03 -2.908259869310e-02 -1.137380516875e-02 4.141908039855e-03 -5.379136676576e-03 1.111305276159e-02 1.302269001696e-02 
163 236 354 2 2 1.991945400127e-03 8.350328890886e-04 -1.679590751737e-03 -6.704785290438e-04 1.872356665172e-02 7.849007284149e-03 -1.578754587638e-02 -6.302255787882e-03 6.793786045220e-03 1.554624255552e-03 4.566741714317e-03 8.332317522122e-03 
164 236 496 2 3 2.175780421437e-03 1.768276138818e-03 2.706988012014e-04 -1.238524161340e-03 5.520505204981e-01 4.486563778224e-01 6.868313209784e-02 -3.142449031992e-01 -4.888014816282e-02 4.910705682758e-02 -5.905446217589e-02 9.103955962970e-02 
165 271 12 2 1 1.708325883943e-03 1.232457539917e-03 -1.157867072086e-03 2.424243829119e-04 2.040086354856e-01 1.471803379996e-01 -1.382727286815e-01 2.895037067057e-02 -1.569409409743e-02 -1.191424572351e-02 2.288215284408e-02 3.019680048415e-02 
166 271 355 2 2 1.991650292788e-03 -2.380007836214e-04 -1.977314537388e-03 -1.592909267315e-05 1.976192142996e-02 -2.361535457919e-03 -1.961967654245e-02 -1.580545937192e-04 9.498829678282e-03 -1.126805450680e-03 -2.051598817543e-03 9.782970586117e-03 
167 271 28 2 1 1.671107414013e-03 -1.168877418658e-03 -1.231149637704e-04 -1.187926039372e-03 5.313776090091e-01 -3.716788536410e-01 -3.914801318753e-02 -3.777359212146e-01 5.947721977720e-02 1.073893381043e-01 -6.965316931191e-02 1.411438047032e-01 
168 271 214 2 2 1.938322074981e-03 7.275667126957e-04 -1.074221814411e-03 -1.440064803534e-03 3.967500475152e-01 1.489237168365e-01 -2.198796378635e-01 -2.947630770974e-01 2.024955519782e-02 5.172116820585e-03 6.372561540642e-03 2.184959538995e-02 
169 80 138 1 2 1.683930116010e-03 -2.948584940731e-04 -1.021131199008e-03 1.306127933432e-03 4.072436106548e-01 -7.130891989931e-02 -2.469515524917e-01 3.158754930094e-01 -8.659302264537e-02 -1.658388074394e-02 -3.251366515276e-02 9.397082043409e-02 
170 316 452 2 3 2.190459070086e-03 -6.240604025545e-04 -1.785053735514e-03 1.105550864056e-03 3.966655840219e-01 -1.130097738071e-01 -3.232515924072e-01 2.002018595760e-01 -1.323706825588e-01 -4.126810888012e-02 -1.413531466107e-01 1.980044607285e-01 
171 316 177 2 2 1.938384299337e-03 -1.714327271980e-03 -7.499667718957e-04 -5.059303682481e-04 3.961498027811e-01 -3.503590133955e-01 -1.532715617230e-01 -1.033975644927e-01 -3.453225511911e-03 -2.442425257828e-02 4.790646701008e-02 5.388412068348e-02 
172 27 126 1 2 1.713835704079e-03 -9.315556846412e-04 -3.710882370285e-04 1.389867025053e-03 1.649183518881e-01 -8.964139785237e-02 -3.570894240919e-02 1.337436129786e-01 1.291709829480e-02 1.524654276118e-02 1.272841839785e-02 2.369221664253e-02 
173 27 401 1 3 1.928550646469e-03 1.066719665273e-03 1.414831077377e-03 -7.613604758618e-04 4.789668424504e-01 2.649260732619e-01 3.513815802414e-01 -1.890883310520e-01 -2.321985965882e-02 3.129494754581e-02 2.562253237848e-02 4.663742906675e-02 
174 27 221 1 2 1.675691085602e-03 -1.623087439076e-03 3.208832406161e-04 -2.656345711114e-04 4.857472317289e-01 -4.704985526030e-01 9.301723162266e-02 -7.700181655052e-02 -8.085505234380e-03 4.933145078339e-03 5.536344737909e-02 5.616780769227e-02 
175 27 60 1 1 1.416947309458e-03 7.762662033299e-04 -1.170613542299e-03 1.865861568711e-04 5.368878120323e-01 2.941308125422e-01 -4.435508217312e-01 7.069834767273e-02 -2.988413210158e-02 -1.301835986145e-02 4.265361144776e-02 5.368304773840e-02 
176 27 270 1 2 1.727643481129e-03 2.166297735321e-04 -2.211078580315e-04 -1.699686692960e-03 8.015954105788e-02 1.005123071715e-02 -1.025900575998e-02 -7.886239651759e-02 3.930422846104e-02 6.663688062526e-03 4.142570715771e-03 4.007977052887e-02 
177 325 32 2 1 1.634034363217e-03 -3.210552367566e-04 1.011988259551e-03 1.242123825412e-03 9.469846410526e-01 -1.860636379393e-01 5.864854254557e-01 7.198576795134e-01 6.787452438727e-02 -1.059408496349e-01 1.038562862613e-01 1.631457718672e-01 
178 325 152 2 2 1.983550855640e-03 9.260587791732e-04 1.754079441711e-03 9.718363567588e-06 5.464335487753e-02 2.551129877206e-02 4.832181899662e-02 2.677239092422e-04 1.900292700348e-03 -1.154123404011e-03 2.723106580514e-02 2.732167743867e-02 
179 270 401 2 3 2.068672307089e-03 8.500898917411e-04 1.635938935408e-03 9.383262170978e-04 2.108129593923e+00 8.663042726160e-01 1.667142384884e+00 9.562235933832e-01 -4.759030478768e-02 -3.614786113595e-02 1.061376403827e-01 1.218060083924e-01 
180 270 352 2 2 1.895656909411e-03 8.477773352615e-04 -1.658056001553e-03 3.544559263567e-04 8.730073463124e-01 3.904271063218e-01 -7.635849413293e-01 1.632376756137e-01 1.315368359130e-01 7.294408358082e-02 2.660818067822e-02 1.527441449302e-01 
181 270 459 2 3 2.109051327201e-03 -1.495862724953e-03 -1.451903319616e-03 3.201077308496e-04 1.444749614744e+00 -1.024701043409e+00 -9.945878199395e-01 2.192813019090e-01 -1.313442960106e-01 1.250410318549e-01 -4.662663773947e-02 1.872448319414e-01 
182 352 53 2 1 1.682825878885e-03 1.125204630222e-03 4.820031446232e-04 1.154768568738e-03 4.174956454359e-01 2.791542721302e-01 1.195811263016e-01 2.864888488961e-01 -1.424124231403e-02 -1.381442632037e-01 7.153838728494e-02 1.562190490756e-01 
183 352 60 2 1 1.712171667961e-03 -2.881409054637e-04 7.085503172860e-04 1.531816923474e-03 1.764309393911e-01 -2.969151492180e-02 7.301265429387e-02 1.578462626388e-01 -4.112743713347e-02 5.123558602780e-02 -3.143553709768e-02 7.283367595694e-02 
184 352 396 2 2 1.973998100098e-03 1.171677192597e-03 1.568541027818e-03 -2.520319416018e-04 1.086000413969e-01 6.446013884893e-02 8.629371048802e-02 -1.386560569127e-02 -1.062409096059e-02 4.978192459246e-03 -1.840840463088e-02 2.182940837390e-02 
185 352 159 2 2 1.946985343877e-03 1.909497208547e-03 -2.812520654790e-04 -2.558703098923e-04 3.161668084710e-01 3.100791899176e-01 -4.567192464907e-02 -4.155023535002e-02 -2.564360589541e-02 -1.509561201562e-01 -2.544129986917e-02 1.552179257527e-01 
186 352 251 2 2 1.928702230151e-03 7.200868262026e-04 -1.762419835038e-03 -3.086155867440e-04 4.931014430841e-01 1.841009190509e-01 -4.505888728659e-01 -7.890216996835e-02 1.009268267595e-01 4.901562808531e-02 -4.442431756709e-02 1.206742563583e-01 
187 352 91 2 1 1.683184892634e-03 -1.042498654533e-03 -1.215633636580e-03 -5.182111535871e-04 4.141531472160e-01 -2.565102031470e-01 -2.991106316689e-01 -1.275075490042e-01 -3.891931338054e-02 9.714060775085e-03 5.550747526277e-02 6.848471173044e-02 
188 189 359 2 2 1.998688559696e-03 1.580059828421e-03 -1.093109214200e-03 5.507078564014e-04 1.230112888669e-03 9.724636439130e-04 -6.727650121309e-04 3.389386649383e-04 2.240655977636e-04 4.802413759528e-04 3.103627832281e-04 6.141353503026e-04 
189 189 439 2 3 2.134163587755e-03 1.856300321175e-03 1.052711219598e-03 -2.454434842833e-05 1.076387751001e+00 9.362445031659e-01 5.309459258972e-01 -1.237919911864e-02 -5.772148388876e-02 1.048560366914e-01 1.317907103245e-01 1.780318776534e-01 
190 189 172 2 2 1.877267006774e-03 -1.790127024822e-03 5.639835379528e-04 3.871974485663e-05 1.113690061116e+00 -1.061994201404e+00 3.345836572980e-01 2.297051770483e-02 2.318896767674e-02 7.009823107186e-02 5.105791335604e-02 8.976859549748e-02 
191 189 468 2 3 2.132529755408e-03 -1.593012851282e-04 -2.088332362082e-03 -4.014650716265e-04 1.099240979324e+00 -8.211397764924e-02 -1.076458841912e+00 -2.069405396947e-01 -1.847035889483e-02 -1.448580130773e-02 8.268096493010e-02 8.594844128315e-02 
192 189 358 2 2 1.916160409282e-03 2.417839802988e-04 8.557840733267e-04 -1.697305170206e-03 6.287761745962e-01 7.933991615447e-02 2.808202451633e-01 -5.569601829134e-01 -3.192851316606e-02 -9.007373235843e-02 -4.996359528482e-02 1.078381568266e-01 
193 189 109 2 2 1.992210470902e-03 -1.193441407772e-03 -4.091399947322e-04 -1.541818611672e-03 1.780693737351e-02 -1.066731488341e-02 -3.657008317948e-03 -1.378120829117e-02 7.013064343244e-03 1.975872301706e-04 -5.480879630375e-03 8.902929502061e-03 
194 93 230 1 2 1.731239513341e-03 7.871396291882e-04 1.406742792347e-03 6.314080874475e-04 6.161906623747e-02 2.801623263294e-02 5.006943096709e-02 2.247336458271e-02 -2.357598282919e-02 1.389545905074e-02 -1.567522654471e-03 2.741109038081e-02 
195 93 156 1 2 1.722708585750e-03 7.225402088365e-04 -1.562082937999e-03 -7.454805727999e-05 1.081155148246e-01 4.534592054978e-02 -9.803480544386e-02 -4.678563547352e-03 -2.624813670909e-02 -1.303078893898e-02 1.864352938366e-02 3.473251112360e-02 
196 93 390 1 2 1.732273366486e-03 -2.846081103346e-04 8.359447345601e-04 -1.490290455089e-03 5.659634139237e-02 -9.298635011753e-03 2.731174795944e-02 -4.869034472377e-02 -1.423940432424e-02 1.978896501243e-02 1.381954167862e-02 2.802398087317e-02 
197 407 408 3 3 2.363482309444e-03 1.839386116679e-04 2.112076847334e-03 1.044675358734e-03 1.460699106548e+00 1.136792793623e-01 1.305323399941e+00 6.456390035328e-01 -2.634404241749e-01 -2.645938105265e-02 9.987898276896e-02 2.829783863374e-01 
198 407 304 3 2 2.116162188136e-03 2.447255018256e-04 -1.772623094949e-03 1.129627902678e-03 1.336808936812e+00 1.545964859123e-01 -1.119790537896e+00 7.136015774395e-01 7.750811822651e-02 -2.041610170097e-01 -3.371630126572e-01 4.017065176986e-01 
199 407 23 3 1 1.956339524958e-03 -1.020909781801e-03 -7.891703129687e-04 1.470448153273e-03 2.287919202789e-01 -1.193943619857e-01 -9.229266649668e-02 1.719674179078e-01 -6.942636330766e-02 9.090301028071e-02 5.847901869054e-04 1.143840862174e-01 
200 407 300 3 2 2.210470934587e-03 -2.193636839994e-03 4.117770777075e-05 2.691534195494e-04 2.145734180591e-01 -2.129393096163e-01 3.997176061426e-03 2.612708826492e-02 5.477645769411e-04 1.011050275994e-01 -1.100367491510e-02 1.017035275374e-01 
201 407 53 3 1 1.931368101200e-03 -9.753044758284e-04 7.966477402645e-04 -1.464348421549e-03 4.509174216553e-01 -2.277047960439e-01 1.859937237156e-01 -3.418821167439e-01 -9.623201512333e-02 -1.371401492401e-01 -1.051448866602e-02 1.678647543119e-01 
202 407 389 3 2 2.132419690587e-03 1.219183782689e-03 4.672697489125e-04 -1.685960741708e-03 1.100786258000e+00 6.293605146702e-01 2.412114841429e-01 -8.703176134570e-01 1.344510414832e-02 -3.486900573137e-01 -8.691795654881e-02 3.596112596480e-01 
203 459 390 3 2 2.192386592591e-03 -3.000935274818e-04 -4.062474032094e-04 2.133416483840e-03 3.775604065390e-01 -5.168040829052e-02 -6.996162776654e-02 3.674049082758e-01 -1.807644206341e-01 5.133836961554e-02 -1.565102433490e-02 1.885639374979e-01 
204 459 91 3 1 1.987100564969e-03 1.301141405681e-03 -1.421786318516e-03 -4.838629580801e-04 3.674210426142e-02 2.405850716827e-02 -2.628926893451e-02 -8.946775803615e-03 -1.210284450827e-02 -1.199269880899e-02 2.694033410492e-03 1.724997060668e-02 
205 459 400 3 2 2.213720293692e-03 -1.835832677722e-04 -2.183690392853e-03 -3.136096150625e-04 1.886673506798e-01 -1.564613599036e-02 -1.861080111604e-01 -2.672780991806e-02 -8.859252557727e-02 4.083941690270e-03 2.342415773948e-02 9.172788743721e-02 
206 204 461 2 3 2.195079418873e-03 1.233607589047e-03 -4.030345396314e-04 1.770352826775e-03 3.514016459693e-01 1.974833956094e-01 -6.452021707791e-02 2.834088333781e-01 4.317717525985e-02 -5.404793584088e-02 -4.239091491315e-02 8.113222232414e-02 
207 204 258 2 2 1.920628661715e-03 -1.318338753258e-04 -1.762006853308e-03 7.528387173990e-04 5.791858051984e-01 -3.975589386697e-02 -5.313517279217e-01 2.270264457742e-01 -2.637416687578e-01 5.909878845569e-02 9.213445370765e-02 2.855540092454e-01 
208 204 262 2 2 1.891600532618e-03 6.163978939416e-04 1.020403181817e-03 -1.468667272694e-03 9.244066836691e-01 3.012276234510e-01 4.986610571544e-01 -7.177233351088e-01 -9.212285394565e-02 9.201653670277e-02 2.526755673731e-02 1.326352617871e-01 
209 204 298 2 2 1.974704214120e-03 -1.272696457423e-03 5.237258178809e-04 -1.416125604673e-03 1.042064514641e-01 -6.716103640769e-02 2.763735886683e-02 -7.472988766378e-02 -8.535264825079e-03 -3.243945254598e-02 -4.326295268595e-03 3.382137871034e-02 
210 204 381 2 2 1.924816538262e-03 2.049436701127e-04 -1.250508262843e-03 -1.448842946150e-03 5.339564472302e-01 5.685268793177e-02 -3.468990088078e-01 -4.019183214309e-01 1.113760508870e-01 4.946752042071e-02 -2.694130959814e-02 1.248098331487e-01 
211 461 439 3 3 2.431706492109e-03 -4.184567734423e-04 -5.647661560068e-04 2.327902399491e-03 5.168285459071e-01 -8.893770956527e-02 -1.200339235569e-01 4.947662952114e-01 -9.061861973862e-02 -2.324170279659e-02 -2.192793925995e-02 9.608717662834e-02 
212 461 48 3 1 1.954521534874e-03 1.052322579858e-03 -1.568141149214e-03 5.036913284425e-04 2.432297446321e-01 1.309559131493e-01 -1.951467735018e-01 6.268169012443e-02 5.665334297909e-02 5.469014748433e-02 5.190535789010e-02 9.431213962298e-02 
213 461 144 3 2 2.221296008494e-03 1.482108468928e-03 -1.194570798774e-03 -1.144775545861e-03 1.327744602077e-01 8.859069263104e-02 -7.140358258446e-02 -6.842714999687e-02 1.958001712525e-02 2.617900698534e-02 -1.968043501401e-03 3.275043011301e-02 
214 461 258 3 2 2.178662687234e-03 -1.365441464373e-03 -1.358972313676e-03 -1.017514109376e-03 5.202070376641e-01 -3.260313142769e-01 -3.244866521593e-01 -2.429554624134e-01 -6.635599843990e-02 -2.211607328872e-02 1.185834789850e-01 1.376745463579e-01 
215 344 258 2 2 1.911905919157e-03 -1.349537316309e-03 9.100873696569e-04 1.002932826857e-03 6.772397575885e-01 -4.780362442502e-01 3.223732629494e-01 3.552611965541e-01 -5.566615168213e-02 1.604984200299e-01 -2.205443156285e-01 2.783850901741e-01 
216 344 274 2 2 1.928345569198e-03 9.451497122291e-04 -6.830773503026e-04 1.535777975236e-03 4.968061102713e-01 2.435020774580e-01 -1.759834994510e-01 3.956676097402e-01 1.290477104029e-01 2.117380136883e-01 1.475736425243e-02 2.484030551353e-01 
217 344 86 2 1 1.591995722065e-03 4.335445996491e-04 1.465652341666e-03 -4.453680192331e-04 1.506094520134e+00 4.101513193254e-01 1.386568399407e+00 -4.213367686315e-01 -2.698729066375e-01 1.028044436107e-01 7.560855448458e-02 2.985243589296e-01 
218 344 389 2 2 1.820650800834e-03 3.331105667723e-04 -1.788162002329e-03 7.926753629498e-05 1.967304190172e+00 3.599426169485e-01 -1.932198419529e+00 8.565253492114e-02 -3.390684358903e-01 -7.580061095356e-02 -2.850661731747e-01 4.494172448032e-01 
219 389 274 2 2 1.928011063884e-03 6.120391454568e-04 1.105084652026e-03 1.456510438941e-03 5.002890457521e-01 1.588146903196e-01 2.867523721175e-01 3.779419274482e-01 -1.300389521783e-01 -1.042873973550e-01 1.337685787924e-01 2.137288539315e-01 
220 389 425 2 3 2.197077439373e-03 1.587670766871e-03 -8.399491697948e-04 1.265281076593e-03 3.324010332091e-01 2.402024588877e-01 -1.270778930590e-01 1.914273614677e-01 -1.331792154399e-02 -2.860875943237e-02 -2.280464850938e-03 3.163903712896e-02 
221 389 32 2 1 1.603227558928e-03 -2.363486258350e-04 -1.585337904430e-03 -3.437530436283e-05 1.348390662483e+00 -1.987804403635e-01 -1.333344611817e+00 -2.891126662882e-02 4.137429227074e-03 -4.551206833849e-03 1.814478446488e-01 1.815520645213e-01 
222 389 36 2 1 1.694822047975e-03 2.175920443606e-04 8.244562113708e-04 -1.464700458136e-03 3.108116708101e-01 3.990398103655e-02 1.511961759479e-01 -2.686099093257e-01 -1.887117292141e-02 -7.150286977175e-02 -4.305126132726e-02 8.556981158617e-02 
223 389 152 2 2 1.826867597300e-03 1.010765390095e-03 -8.432467222700e-04 -1.266780766207e-03 1.865906550447e+00 1.032364778449e+00 -8.612663474092e-01 -1.293851033945e+00 2.949247290129e-01 4.198927025190e-01 -4.418557491482e-02 5.150173224685e-01 
224 389 159 2 2 1.894910407944e-03 -1.410195680192e-03 -4.338772187503e-04 -1.189026558471e-03 8.823927136035e-01 -6.566782195825e-01 -2.020412652856e-01 -5.536875870635e-01 -8.898156528553e-02 -2.406384902316e-01 1.933421724104e-01 3.212565914872e-01 
225 109 172 2 2 1.949642180483e-03 -5.966856170498e-04 9.731235326850e-04 1.580538356529e-03 2.927000061563e-01 -8.958048073242e-02 1.460951485658e-01 2.372864063557e-01 -5.225142866244e-02 -1.007942804510e-01 4.233216488451e-02 1.211681102960e-01 
226 109 358 2 2 1.919395968111e-03 1.435225388071e-03 1.264924068059e-03 -1.554865585342e-04 5.927308142424e-01 4.432135562573e-01 3.906226152768e-01 -4.801597792997e-02 1.074080492849e-01 -1.253299463144e-01 -2.815745869605e-02 1.674423093922e-01 
227 109 126 2 2 1.923472254145e-03 -1.530250761077e-03 -6.751538460408e-04 -9.498659931077e-04 5.483410233677e-01 -4.362419403401e-01 -1.924719995680e-01 -2.707865889932e-01 2.379798873496e-02 -1.215809460571e-01 4.807936418849e-02 1.328905413215e-01 
228 274 48 2 1 1.705124224692e-03 1.230770156929e-04 1.383995884422e-03 9.883602894396e-04 2.279643369446e-01 1.645461947539e-02 1.850315065364e-01 1.321375268628e-01 1.039533635700e-01 2.007465826819e-02 -4.105538699525e-02 1.135554424210e-01 
229 274 408 2 3 2.151334966888e-03 -1.647284316478e-03 5.397224463952e-04 1.274125661502e-03 8.461473547190e-01 -6.478978347450e-01 2.122796902058e-01 5.011297983126e-01 3.589713201688e-02 4.470036603838e-02 2.747530545666e-02 6.357373058850e-02 
230 274 292 2 2 1.974920824815e-03 1.826341028221e-03 4.737960998234e-05 -7.500305897002e-04 1.028708262118e-01 9.513151522674e-02 2.467936720922e-03 -3.906803021016e-02 -1.905254063504e-02 8.914851861163e-03 -4.583020335889e-02 5.042699106901e-02 
231 396 401 2 3 2.245737604177e-03 -1.169364636118e-03 1.725453909143e-03 8.359022323429e-04 7.597695380128e-03 -3.956150654909e-03 5.837491062952e-03 2.827993135573e-03 2.905208447470e-03 2.196839725605e-03 -4.705067861904e-04 3.672562802608e-03 
232 396 381 2 2 1.967203041701e-03 8.021453584998e-04 1.793832087903e-03 -9.282818280562e-05 1.538412189179e-01 6.273018955595e-02 1.402830867415e-01 -7.259444241404e-03 1.260976092662e-06 2.787628633805e-03 5.387964109983e-02 5.395170618282e-02 
233 396 159 2 2 1.991513895763e-03 7.378200159499e-04 -1.849793093297e-03 -3.838368290479e-06 2.024813040943e-02 7.501567492662e-03 -1.880722593160e-02 -3.902547798957e-05 -8.395318522594e-03 -3.339130663823e-03 -4.567880206716e-03 1.012406520469e-02 
234 354 424 2 3 2.151771088132e-03 -4.022441108459e-04 -1.285279944705e-03 1.678205575830e-03 8.405432767448e-01 -1.571280443568e-01 -5.020670749857e-01 6.555550548755e-01 -2.801549153765e-01 1.484862431506e-01 4.657100811419e-02 3.204743356516e-01 
235 354 496 2 3 2.235452559067e-03 9.332432497295e-04 1.950289552938e-03 -5.680456322962e-04 4.790503238529e-02 1.999910394892e-02 4.179408049403e-02 -1.217303597032e-02 -5.982294954341e-03 -3.602366884718e-03 -2.219644719705e-02 2.326901734634e-02 
236 354 299 2 2 1.892473640461e-03 1.183227794413e-03 -6.325905519373e-04 -1.334637651187e-03 9.132606717152e-01 5.709962808542e-01 -3.052724540154e-01 -6.440629088620e-01 -1.824253838122e-01 2.404749495646e-01 -2.757100140835e-01 4.088070864027e-01 
237 400 217 2 2 1.823864887722e-03 -1.201607062922e-03 -4.519108650158e-04 1.295530842969e-03 1.914658249232e+00 -1.261423963390e+00 -4.744073266855e-01 1.360023339625e+00 1.568960550819e-01 6.389614055592e-02 1.678097972010e-01 2.384517077206e-01 
238 400 91 2 1 1.677465759788e-03 1.484724673454e-03 7.619040743361e-04 -1.702533430176e-04 4.684503415166e-01 4.146253217267e-01 2.127699011101e-01 -4.754507578802e-02 -1.152831162954e-02 1.753120819799e-02 -2.208044602365e-02 3.045966720948e-02 
239 400 209 2 2 1.950968299506e-03 1.719130921651e-03 -9.214516844909e-04 4.234351250174e-05 2.812145485077e-01 2.477972738358e-01 -1.328189799349e-01 6.103436818230e-03 3.517053539594e-02 6.150920031445e-02 -8.938792447197e-02 1.140637949779e-01 
240 326 304 2 2 1.844603082489e-03 -1.039187984783e-03 2.208575395460e-04 1.507935944076e-03 1.586667617482e+00 -8.938757283799e-01 1.899744771116e-01 1.297077487517e+00 1.783115745292e-01 -4.534078293941e-02 1.295234723049e-01 2.250047423646e-01 
241 326 32 2 1 1.630347918183e-03 -3.010783297553e-04 8.754124789775e-04 -1.342028004673e-03 9.924973294390e-01 -1.832856870006e-01 5.329197147754e-01 -8.169785085839e-01 1.577670337749e-01 2.954266108288e-02 -1.612352403217e-02 1.613169978558e-01 
242 326 330 2 2 1.962834148275e-03 -1.739888005625e-03 1.332675480920e-04 -8.987476743459e-04 1.855831209198e-01 -1.645038865961e-01 1.260025331940e-02 -8.497528865142e-02 4.152808148427e-02 3.510415812565e-02 -7.518902993821e-02 9.279156045958e-02 
243 326 137 2 2 1.894080943758e-03 1.471141305113e-03 -3.908800139210e-04 -1.127164006086e-03 8.928602922043e-01 6.934886599677e-01 -1.842588853430e-01 -5.313394800535e-01 -2.109572573472e-02 2.019014153743e-01 -9.754926609160e-02 2.252222690798e-01 
244 326 295 2 2 1.963613941577e-03 -5.555478768313e-04 -1.401746749104e-03 -1.257876114520e-03 1.797731633220e-01 -5.086162665691e-02 -1.283329894574e-01 -1.151613172969e-01 1.090459870517e-02 -5.235835268057e-02 5.353080739824e-02 7.566937761771e-02 
245 230 495 2 3 2.181156870499e-03 3.897697595604e-04 -6.023089429283e-04 2.059793379328e-03 4.931647280414e-01 8.812786465397e-02 -1.361834767842e-01 4.657241555972e-01 -2.783029997104e-02 -4.345593483300e-02 -7.440789425580e-03 5.213740706982e-02 
246 230 468 2 3 2.228145197354e-03 2.140413938460e-03 1.333337647325e-04 6.045504939394e-04 8.821073688436e-02 8.473751664536e-02 5.278592100992e-03 2.393373852724e-02 6.416844886056e-03 -1.385054226769e-02 -1.966412963259e-02 2.489360186088e-02 
247 230 170 2 2 1.977775530341e-03 9.602218774035e-04 -1.706247727507e-03 2.798011560893e-04 8.581623670595e-02 4.166429741765e-02 -7.403456894701e-02 1.214065088439e-02 -2.057431994633e-02 -8.191273137893e-03 2.065599381537e-02 3.028315831240e-02 
248 230 126 2 2 1.918484991145e-03 -4.239769452613e-04 1.137372286042e-03 -1.485669039214e-03 6.028076059709e-01 -1.332178925243e-01 3.573740050150e-01 -4.668124071480e-01 -3.488376427020e-02 -2.297190128131e-02 -7.631371275696e-03 4.245966422011e-02 
249 359 123 2 2 1.905243894498e-03 1.650844245139e-03 -6.971795480862e-04 6.469994231416e-04 7.554977161200e-01 6.546191070202e-01 -2.764567611662e-01 2.565585371647e-01 9.765679691640e-02 1.781390136574e-01 -5.721996464188e-02 2.110556384568e-01 
250 359 439 2 3 2.238698113435e-03 2.762404927534e-04 2.145820433797e-03 -5.752522048298e-04 3.280404521256e-02 4.047801514388e-03 3.144309190501e-02 -8.429273792035e-03 1.246477317572e-02 -4.228240439267e-03 -9.786611162184e-03 1.640202260620e-02 
251 359 468 2 3 2.218666149352e-03 -1.739361113550e-03 -9.952231478829e-04 -9.521729280280e-04 1.514334368017e-01 -1.187188218205e-01 -6.792822872993e-02 -6.498986743136e-02 1.321452846569e-02 -2.119738657617e-02 -1.983575761506e-03 2.505768411150e-02 
252 359 408 2 3 2.134752959169e-03 -2.334148611718e-05 2.981720025634e-04 -2.113697903816e-03 1.068183292304e+00 -1.167956478562e-02 1.491986929931e-01 -1.057647807039e+00 -4.381458535034e-02 -8.183228089811e-02 -1.105995203890e-02 9.348027934015e-02 
253 126 43 2 1 1.733006833902e-03 -1.351990511592e-03 1.036695226510e-03 3.173284579906e-04 5.312028995677e-02 -4.144134148209e-02 3.177688047830e-02 9.726782012761e-03 5.377467533229e-04 1.615154133236e-03 -2.985531389379e-03 3.436756046301e-03 
254 126 55 2 1 1.691171901589e-03 -1.641746776373e-03 -3.736771628991e-04 -1.584149643289e-04 3.421575880703e-01 -3.321579058273e-01 -7.560229486688e-02 -3.205048644557e-02 -6.666318251513e-03 6.485789873185e-02 -8.390311583556e-02 1.062577981790e-01 
255 126 390 2 2 1.934421477996e-03 -6.477707942615e-04 -1.708170343829e-03 -6.360295033225e-04 4.349755004392e-01 -1.456582387080e-01 -3.841004965020e-01 -1.430180830025e-01 2.008787296273e-02 -4.864758154816e-02 1.101930308708e-01 1.221172137053e-01 
256 126 221 2 2 1.922947276492e-03 -6.915317544352e-04 6.919714776446e-04 -1.655501596164e-03 5.539930865647e-01 -1.992274129304e-01 1.993540953522e-01 -4.769431020204e-01 4.725568536724e-02 2.106331091875e-01 6.830153294675e-02 2.264166643346e-01 
257 159 251 2 2 1.900351831488e-03 -1.189410382345e-03 -1.481167769559e-03 -5.274527685169e-05 8.147536904793e-01 -5.099458334254e-01 -6.350334114301e-01 -2.261392246330e-02 1.050759418175e-02 2.394386655424e-03 -3.041851496816e-01 3.043759975914e-01 
258 48 234 1 2 1.723671187178e-03 1.379543106974e-03 -1.021341635333e-03 1.573672184509e-04 1.024462032459e-01 8.199298948361e-02 -6.070332528336e-02 9.353102938417e-03 2.486491216603e-02 2.822872762854e-02 -3.476609295452e-02 5.122310162293e-02 
259 48 408 1 3 1.982079396107e-03 -1.770361332171e-03 -8.442734380267e-04 2.857653720621e-04 6.016403451669e-02 -5.373754477491e-02 -2.562707445864e-02 8.674121602891e-03 8.976822621297e-03 -1.022899641104e-02 2.539198377187e-02 2.880917478551e-02 
260 48 144 1 2 1.744050960508e-03 4.297858890698e-04 3.735703504401e-04 -1.648466874304e-03 1.100320605679e-02 2.711516351770e-03 2.356852887718e-03 -1.040016668463e-02 -3.091029431529e-03 -2.801747276511e-03 -1.440811812128e-03 4.413636757368e-03 
261 495 146 3 2 2.090399257767e-03 1.472828904296e-03 1.132565544848e-03 9.580393322655e-04 1.740818368601e+00 1.226525316098e+00 9.431647551493e-01 7.978248467381e-01 -2.750184801220e-01 7.695183783926e-02 3.318257985297e-01 4.377957404148e-01 
262 495 68 3 1 1.976462201816e-03 5.429777532045e-04 1.835249033186e-03 -4.933953596475e-04 9.056424221853e-02 2.487999452522e-02 8.409365877074e-02 -2.260806041196e-02 -4.164988978578e-02 8.087996977063e-03 -1.575100938282e-02 4.525730118827e-02 
263 495 150 3 2 2.079469874041e-03 -1.984236087874e-03 -5.920903523106e-04 -1.908693776439e-04 1.922661241075e+00 -1.834608842823e+00 -5.474420119345e-01 -1.764763024871e-01 1.600161057626e-02 -1.516363632451e-01 3.040375330070e-01 3.401300628822e-01 
264 495 236 3 2 2.176393876571e-03 1.839693233344e-03 -1.043140625064e-03 5.138839844832e-04 5.452203133158e-01 4.608715967666e-01 -2.613228536214e-01 1.287358828032e-01 -1.380548136668e-01 -1.603115424836e-01 1.688144144214e-01 2.706607262727e-01 
265 495 468 3 3 2.392416579512e-03 1.750644178899e-03 7.356427076608e-04 -1.455242885389e-03 1.021869366213e+00 7.477500669725e-01 3.142139850869e-01 -6.215757480168e-01 -4.695668185736e-02 -3.346684277560e-02 -7.340635831368e-02 9.334587820197e-02 
266 495 170 3 2 2.170822142332e-03 5.704521178431e-04 -1.103938784579e-03 -1.779992223239e-03 6.082844501650e-01 1.598459616203e-01 -3.093338618114e-01 -4.987702906179e-01 -2.407349600539e-01 -6.146363738223e-02 -3.903144839677e-02 2.515045798318e-01 
267 258 358 2 2 1.897397630620e-03 -6.675316499454e-04 5.972790113985e-04 1.672655687088e-03 8.512525739862e-01 -2.994828422166e-01 2.679645466167e-01 7.504238626886e-01 -9.334786370292e-02 -3.669311183006e-01 9.377160129440e-02 3.900581782818e-01 
268 258 408 2 3 2.189523784542e-03 6.474027120599e-04 -1.053442273564e-03 1.806970809880e-03 4.060485819931e-01 1.200612457678e-01 -1.953615413599e-01 3.351038889072e-01 1.318695864902e-01 -1.080558524807e-01 -1.102415876072e-01 2.030242909964e-01 
269 258 50 2 1 1.749999301321e-03 -9.366894530095e-04 -1.386488156678e-03 5.126021992105e-04 1.373785387218e-08 -7.353204552338e-09 -1.088421674088e-08 4.024032525041e-09 4.821304437812e-09 -1.541843623564e-09 4.639693502930e-09 6.866513965814e-09 
270 258 401 2 3 2.118752170612e-03 -1.634732449179e-03 4.431204117040e-04 -1.272951248400e-03 1.298193093124e+00 -1.001626525304e+00 2.715069114150e-01 -7.799574397983e-01 -8.706087821761e-02 -2.051069015921e-01 4.040546576423e-02 2.264531723345e-01 
271 468 68 3 1 1.895453225395e-03 -1.207666425695e-03 1.099606325525e-03 9.618475257413e-04 8.477620131817e-01 -5.401419072664e-01 4.918108554435e-01 4.301967381054e-01 2.233914193431e-01 1.693154990933e-01 8.691806230124e-02 2.934726801996e-01 
272 468 170 3 2 2.209609807184e-03 -1.180192061056e-03 -1.839581492240e-03 -3.247493378501e-04 2.216230877624e-01 -1.183728493029e-01 -1.845093777078e-01 -3.257224455156e-02 6.899588933573e-02 -3.029332567158e-02 -7.914214622319e-02 1.092776172612e-01 
273 468 408 3 3 2.442690043028e-03 1.716019627432e-03 1.293395150446e-03 -1.161524975788e-03 3.973035896860e-01 2.791106304692e-01 2.103707499121e-01 -1.889220630786e-01 6.798057963316e-02 -3.180997638421e-02 6.501206713524e-02 9.929653910394e-02 
274 468 23 3 1 1.840601909225e-03 5.111712339637e-04 -1.607852009857e-03 -7.357521812489e-04 1.595999189246e+00 4.432402633524e-01 -1.394180072995e+00 -6.379760223401e-01 1.402557672278e-01 1.194170885784e-01 -1.635201300214e-01 2.463147462240e-01 
275 468 300 3 2 2.189593412593e-03 -6.615558242297e-04 -7.775039891171e-04 -1.937046914973e-03 4.053475546384e-01 -1.224702422222e-01 -1.439350972183e-01 -3.585949910556e-01 1.438695653489e-01 -1.140813960804e-01 -3.344786507752e-03 1.836415104548e-01 
276 209 453 2 3 2.183977400475e-03 -2.804986414717e-04 1.268145259844e-03 1.755814739047e-03 4.631695855286e-01 -5.948708053642e-02 2.689434031068e-01 3.723664836332e-01 -2.034645453897e-02 -6.880994639022e-02 4.644786987871e-02 8.547626308398e-02 
277 209 251 2 2 1.904502859029e-03 1.528179232538e-03 1.136569560368e-03 -3.001288676153e-06 7.643775229613e-01 6.133389881094e-01 4.561653562811e-01 -1.204575563168e-03 8.620127147062e-02 -1.160741036952e-01 -6.507209104533e-02 1.585504140165e-01 
278 209 91 2 1 1.712842760719e-03 -2.344062481973e-04 1.683355758827e-03 -2.125968555193e-04 1.717568704745e-01 -2.350530038912e-02 1.688000344585e-01 -2.131834364141e-02 -2.961986300151e-02 -6.271085318375e-03 -1.699642548729e-02 3.472090544101e-02 
279 209 104 2 2 1.903033050454e-03 -1.364286597225e-03 -1.326346613692e-03 -3.258116169637e-05 7.820922016217e-01 -5.606828048586e-01 -5.450905558202e-01 -1.338992640009e-02 3.430670665466e-02 -3.639970525157e-02 4.525454792176e-02 6.745267060312e-02 
280 300 170 2 2 1.999123719529e-03 -5.186362368266e-04 -1.062077503123e-03 1.612297577123e-03 6.718733321836e-04 -1.743052984784e-04 -3.569471684465e-04 5.418672866670e-04 1.680812519551e-04 -2.647930673939e-04 -1.203609896093e-04 3.359366660822e-04 
281 300 343 2 2 1.945099596705e-03 4.473556689631e-04 -1.887541070238e-03 1.430875770796e-04 3.331851653177e-01 7.662963519799e-02 -3.233256973558e-01 2.451013722121e-02 -3.981215949255e-03 -4.521144067427e-03 -4.719365401100e-02 4.757658881239e-02 
282 300 60 2 1 1.685928227700e-03 -1.950131715202e-04 9.820172051565e-04 -1.356453486362e-03 3.889099573241e-01 -4.498564231116e-02 2.265317485490e-01 -3.129067173952e-01 -8.941828988873e-02 7.549873941718e-02 6.751341368619e-02 1.351064441386e-01 
283 300 453 2 3 2.213925345880e-03 -9.954633138642e-04 -1.357377247692e-03 -1.438069968857e-03 1.870700995880e-01 -8.411368595030e-02 -1.146943357312e-01 -1.215126304007e-01 -4.511680210363e-02 -1.178184694131e-02 4.235157790698e-02 6.299201457819e-02 
284 439 455 3 3 2.401828144101e-03 1.020747799793e-03 2.036380815869e-03 7.615809449925e-04 8.907541512770e-01 3.785596993296e-01 7.552225040626e-01 2.824437668247e-01 -1.473794373966e-02 -2.267450115979e-02 8.038231949494e-02 8.480953528882e-02 
285 439 168 3 2 2.182895253793e-03 -6.363298644369e-04 1.135748767447e-03 1.752195973601e-03 4.746035099462e-01 -1.383503796715e-01 2.469336769644e-01 3.809611834280e-01 2.106997250105e-01 6.277289728402e-02 3.582948923523e-02 2.227522458962e-01 
286 439 398 3 2 2.199619195877e-03 1.793493668616e-03 1.915657660045e-05 1.273317750241e-03 3.087441623411e-01 2.517393471646e-01 2.688865966853e-03 1.787261281086e-01 5.344629354006e-02 -1.090006090154e-03 -7.526378100632e-02 9.231647273274e-02 
287 439 134 3 2 2.248633470165e-03 1.746855511885e-03 -1.410846464214e-03 -1.198355463111e-04 1.379204706598e-03 1.071437998102e-03 -8.653460466316e-04 -7.350141838720e-05 -1.241210902598e-05 -1.413499146044e-05 -1.451871667724e-05 2.376239819575e-05 
288 439 408 3 3 2.422884490898e-03 -2.995819788705e-04 -1.847648431234e-03 -1.538445698986e-03 6.201402963357e-01 -7.667837977896e-02 -4.729079120255e-01 -3.937670884641e-01 6.060171717016e-02 -9.138709911045e-02 9.795343965182e-02 1.470341672790e-01 
289 172 68 2 1 1.691775047112e-03 4.231593139986e-04 -1.552709574510e-03 5.216627092582e-04 3.369090514764e-01 8.427018908104e-02 -3.092148160358e-01 1.038866774083e-01 2.668053421338e-02 1.716632188613e-03 -1.653306848515e-02 3.143469556902e-02 
290 172 255 2 2 1.901940183067e-03 4.785400287809e-04 1.328280694080e-03 -1.274380751013e-03 7.953512550708e-01 2.001153432064e-01 5.554589605546e-01 -5.329191416113e-01 9.497735787699e-02 -1.533066375948e-01 -1.241259955418e-01 2.189312367141e-01 
291 172 442 2 3 2.121960132709e-03 -1.690072482490e-03 8.318401529217e-04 -9.769400026219e-04 1.250889427570e+00 -9.962928933426e-01 4.903673903572e-01 -5.759033366430e-01 -9.561483133572e-02 -3.980429406631e-02 1.315179899004e-01 1.674023878710e-01 
292 496 397 3 2 2.187826196948e-03 1.302597981484e-03 1.390143199090e-03 -1.075789873864e-03 4.232648947135e-01 2.520053915874e-01 2.689422110497e-01 -2.081262617342e-01 8.025503308841e-02 -5.999715517014e-02 1.964640808318e-02 1.021102850603e-01 
293 496 304 3 2 2.108490307656e-03 -8.051867567209e-05 -1.083220260314e-03 -1.807175140377e-03 1.453384040401e+00 -5.550158696539e-02 -7.466645840687e-01 -1.245687256752e+00 1.180924652685e-01 1.719366640076e-02 -1.556748767540e-02 1.203486567853e-01 
294 496 23 3 1 1.993058126260e-03 -1.346153959298e-03 -9.976747833323e-05 -1.466354889781e-03 1.450517926881e-02 -9.797107392787e-03 -7.260928014858e-04 -1.067191180614e-02 5.336129248304e-03 -8.194785044741e-04 -4.842957363886e-03 7.252589634215e-03 
295 333 255 2 2 1.883711718229e-03 5.127130807915e-04 4.765547425966e-04 1.748825523455e-03 1.027132063661e+00 2.795672180849e-01 2.598511499789e-01 9.535826270583e-01 1.022434535460e-01 -1.688470267638e-01 1.603550211467e-02 1.980408532804e-01 
296 333 498 2 3 2.151700260917e-03 -2.120545057893e-03 1.597616288690e-04 -3.279922136544e-04 8.414525830495e-01 -8.292689036885e-01 6.247702699388e-02 -1.282659580484e-01 -1.275166364255e-02 3.678667267713e-02 1.003608462336e-01 1.076483333315e-01 
297 333 76 2 1 1.729544397707e-03 1.147283749856e-03 1.050135263252e-03 -7.564917381125e-04 7.015640940561e-02 4.653786775637e-02 4.259718314120e-02 -3.068596802796e-02 -1.201301266553e-02 2.686131328898e-02 1.906918127381e-02 3.506388882261e-02 
298 333 401 2 3 2.113725570533e-03 1.098883257897e-03 -7.140840158045e-04 -1.658425576084e-03 1.373481011028e+00 7.140450534826e-01 -4.640057582020e-01 -1.077630922722e+00 4.440211406343e-02 -1.183035821349e-01 8.036021554916e-02 1.497499566689e-01 
299 32 330 1 2 1.678526089481e-03 -1.438809675869e-03 -7.421449308855e-04 4.432803303268e-04 4.582160287518e-01 -3.927765317072e-01 -2.025960186855e-01 1.210098275261e-01 5.442575235927e-02 -9.229283573425e-02 2.213867437660e-02 1.094086420302e-01 
300 123 261 2 2 1.875340178316e-03 1.604389884426e-03 -9.202489684244e-04 3.097994823576e-04 1.140019046758e+00 9.753083988820e-01 -5.594192263857e-01 1.883270644159e-01 1.079862451005e-01 1.005725127501e-01 -2.604920049491e-01 2.993859450512e-01 
301 31 156 1 2 1.697832319223e-03 1.107774100404e-03 -4.051147384285e-04 1.221209718018e-03 2.857269806326e-01 1.864265071100e-01 -6.817646814138e-02 2.055165056630e-01 -1.074217306133e-01 -1.637033824350e-02 9.201298027463e-02 1.423861114055e-01 
302 31 453 1 3 1.941370908780e-03 1.655768321122e-03 5.621635198406e-04 -8.434005271452e-04 3.560227433759e-01 3.036468597600e-01 1.030936425669e-01 -1.546689342469e-01 1.113994243248e-02 5.850247437203e-02 6.086446358259e-02 8.515351285910e-02 
303 31 217 1 2 1.684303626360e-03 -9.844710219793e-04 -2.364409205286e-04 -1.346027935725e-03 4.037951096372e-01 -2.360171753082e-01 -5.668436850301e-02 -3.226968637807e-01 -1.577744076768e-01 -2.036493681618e-02 1.189718522862e-01 1.986499333141e-01 
304 50 60 1 1 1.499999520155e-03 -9.884964581129e-04 -7.558360512929e-04 -8.376068148777e-04 7.342961680173e-09 -4.838995956585e-09 -3.700051291059e-09 -4.100344474819e-09 -2.690973135728e-09 2.189549664841e-09 1.199938710894e-09 3.670874155010e-09 
305 43 442 1 3 1.991506991347e-03 5.954831731294e-04 1.443422305138e-03 1.236135889024e-03 1.962910320644e-02 5.869324443169e-03 1.422695753574e-02 1.218385827831e-02 3.019160723517e-03 2.770859463175e-03 -4.689921079520e-03 6.228029654009e-03 
306 43 498 1 3 1.986654691878e-03 1.308375457155e-04 1.623069732569e-03 -1.138122596476e-03 3.866347377528e-02 2.546307638804e-03 3.158752967851e-02 -2.214968375823e-02 -1.775998065298e-02 4.770278719252e-03 4.761194216515e-03 1.899582696860e-02 
307 330 295 2 2 1.971776779914e-03 1.184340128793e-03 -1.535014297196e-03 -3.591284401743e-04 1.228095644666e-01 7.376509191057e-02 -9.560637857645e-02 -2.236785003996e-02 -1.169894289047e-02 -2.214330728809e-02 5.606563973325e-02 6.140478223321e-02 
308 330 370 2 2 1.964589054520e-03 -1.463689267809e-03 -1.308369302489e-03 -7.344146474315e-05 1.725951752233e-01 -1.285895923470e-01 -1.149442569174e-01 -6.452057974587e-03 -5.301752173207e-03 9.409110185735e-03 -6.196054494822e-02 6.289474589243e-02 
309 330 251 2 2 1.936347783984e-03 -9.244477608326e-04 4.124378470059e-04 -1.650676861287e-03 4.159514469746e-01 -1.985828098399e-01 8.859674933820e-02 -3.545858004532e-01 -1.459797113190e-01 5.827214546090e-02 9.631458417567e-02 1.843426651058e-01 
310 242 221 2 2 1.908158639602e-03 6.460323967988e-04 -1.108911404306e-03 1.412100220796e-03 7.209079524398e-01 2.440729416938e-01 -4.189499936350e-01 5.334956212164e-01 -1.207669014599e-01 9.321993124443e-02 1.284554544655e-01 1.994377192293e-01 
311 242 462 2 3 2.211050970278e-03 1.533608395928e-03 1.554504003470e-03 3.468558552208e-04 2.098679210831e-01 1.455666152140e-01 1.475499786795e-01 3.292276760204e-02 -3.120247482853e-02 2.346423094402e-02 3.280076221261e-02 5.099073024528e-02 
312 498 327 3 2 2.185237370641e-03 1.266893120434e-03 1.387200304125e-03 1.116207643622e-03 4.499744023833e-01 2.608730211234e-01 2.856461436275e-01 2.298445350251e-01 7.817525059337e-02 -1.296212584441e-01 7.236195026126e-02 1.677775083007e-01 
313 498 442 3 3 2.425957978454e-03 4.646456274138e-04 -1.796474274312e-04 2.374258485500e-03 5.834380693689e-01 1.117463493625e-01 -4.320484903631e-02 5.710044441271e-01 3.085021446690e-03 -3.545946637500e-02 -3.286770852617e-03 3.574484544048e-02 
314 498 431 3 3 2.354075824870e-03 -1.942731420646e-03 -8.306033300186e-05 -1.326864197104e-03 1.614240468910e+00 -1.332172755992e+00 -5.695625836529e-02 -9.098593431378e-01 -4.723584032816e-02 4.032212834973e-02 6.663634600447e-02 9.109062111429e-02 
315 498 221 3 2 2.202145851911e-03 5.296212114408e-04 -1.967793481434e-03 -8.347074576789e-04 2.858120191004e-01 6.873845693235e-02 -2.553959028705e-01 -1.083349786438e-01 1.288958268286e-01 9.103356828818e-03 6.032345494687e-02 1.426040830274e-01 
316 23 304 1 2 1.638648982779e-03 1.265635283626e-03 -9.834527819803e-04 -3.408202505957e-04 8.910257275432e-01 6.881971741656e-01 -5.347586577587e-01 -1.853231625199e-01 -1.741318362327e-01 -1.785621620335e-01 -1.313887332397e-01 2.819030707924e-01 
317 23 343 1 2 1.662414864766e-03 -7.253713892304e-04 -1.057193049499e-03 -1.058207156644e-03 6.215764692329e-01 -2.712161666479e-01 -3.952841958600e-01 -3.956633702481e-01 1.473651511638e-01 -1.690931841929e-01 6.791645112327e-02 2.343536580709e-01 
318 170 343 2 2 1.942449095064e-03 9.659919057897e-04 -8.254635671154e-04 -1.469210000043e-03 3.576025369650e-01 1.778379454452e-01 -1.519668476887e-01 -2.704797900161e-01 1.279911902114e-01 2.691925934200e-02 6.902865209649e-02 1.478896416438e-01 
319 170 156 2 2 1.901599159050e-03 -1.024821297755e-03 -1.262578002839e-03 -9.857573008168e-04 7.995038710367e-01 -4.308734523661e-01 -5.308353213932e-01 -4.144494775122e-01 1.586211043203e-02 -1.256486494456e-02 -3.973661168457e-04 2.023957208697e-02 
320 381 86 2 1 1.631355520504e-03 1.446304370519e-03 4.406638154496e-05 7.533808174581e-04 9.799868830204e-01 8.688230702317e-01 2.647152956756e-02 4.525704604230e-01 -8.252073239320e-02 -6.888328620614e-02 1.624484327199e-01 1.947923809763e-01 
321 381 401 2 3 2.180382401835e-03 -1.971509994618e-03 -6.837817876032e-05 9.287304151485e-04 5.015100686688e-01 -4.534672963559e-01 -1.572767469444e-02 2.136174158643e-01 5.127889163316e-02 2.523859445359e-02 1.107130926479e-01 1.245949447641e-01 
322 401 76 3 1 1.981993168579e-03 4.840049195818e-05 1.764219279057e-03 9.019338379713e-04 6.059878992868e-02 1.479829139230e-03 5.394042480798e-02 2.757633075798e-02 -4.841518949947e-03 -1.088372846510e-03 2.388712080645e-03 5.507341155216e-03 
323 401 298 3 2 2.107597402875e-03 4.938698670816e-04 1.842612259485e-03 -8.960130736723e-04 1.467161642317e+00 3.437975982935e-01 1.282697551767e+00 -6.237415224145e-01 1.794900071169e-01 -1.658016894711e-03 9.552273996593e-02 2.033322540215e-01 
324 397 408 2 3 2.177874087874e-03 -1.443903547314e-03 1.411336482879e-03 -8.163378104558e-04 5.288567387813e-01 -3.506254679272e-01 3.427171542260e-01 -1.982326501726e-01 -1.435224715254e-02 -4.390089732851e-03 1.779577841485e-02 2.327981133044e-02 
325 255 200 2 2 1.915485182180e-03 -1.076949438654e-04 9.979405434580e-04 1.631441066646e-03 6.363874999660e-01 -3.577982055048e-02 3.315488386307e-01 5.420186548053e-01 -5.715273075486e-02 1.607843685361e-01 -1.021233948878e-01 1.988648676406e-01 
326 255 475 2 3 2.247761122003e-03 2.694642591480e-04 2.226336505635e-03 -1.524625800126e-04 2.892321476960e-03 3.467349160806e-04 2.864753210275e-03 -1.961822323052e-04 3.078439212155e-04 -1.295414062141e-04 -1.347542638691e-03 1.388315532883e-03 
327 255 327 2 2 1.983808626875e-03 -1.366365018250e-03 1.070407190397e-03 -9.606100934874e-04 5.336393640693e-02 -3.675486382850e-02 2.879367518825e-02 -2.584016182119e-02 -5.142162244452e-03 -5.889399044290e-03 7.516218391139e-04 7.854412074763e-03 
328 255 358 2 2 1.923634020215e-03 1.553370976340e-03 -1.036480158707e-03 -4.616441640506e-04 5.466032892445e-01 4.413925290162e-01 -2.945172824103e-01 -1.311768329520e-01 4.071864380530e-02 1.584971848208e-01 -2.188439400210e-01 2.732618444521e-01 
329 255 442 2 3 2.244505387329e-03 -2.168612511271e-03 -4.964405411587e-04 2.974407483906e-04 1.112004908220e-02 -1.074404975891e-02 -2.459536615614e-03 1.473623427157e-03 1.431051705005e-03 -4.429546188172e-03 3.040573051522e-03 5.560024541060e-03 
330 60 53 1 1 1.480214405583e-03 1.413345535686e-03 -2.265471726627e-04 -3.770483547357e-04 6.242760151765e-02 5.960742685370e-02 -9.554559506110e-03 -1.590190201741e-02 -5.836430042121e-04 -2.073588878424e-02 1.027127606389e-02 2.314771770196e-02 
331 156 488 2 3 2.237309727122e-03 3.845452510479e-04 -9.644125725197e-04 1.981814359353e-03 3.903080475164e-02 6.708552879323e-03 -1.682458104112e-02 3.457358110779e-02 -1.799289629661e-02 -7.519982795640e-03 -1.681707088269e-04 1.950186503324e-02 
332 156 470 2 3 2.187345063570e-03 -1.946988071314e-03 5.932159320698e-05 9.950863409085e-04 4.281875588439e-01 -3.811360554121e-01 1.161260223870e-02 1.947948671880e-01 5.551644440564e-03 -1.695132144392e-02 1.187290427536e-02 2.142741026399e-02 
333 156 420 2 3 2.181835878114e-03 1.046143534891e-03 -1.862318701049e-03 -4.447027761962e-04 4.858865316555e-01 2.329721767254e-01 -4.147312745044e-01 -9.903361279872e-02 1.690551518025e-02 5.235930511803e-02 -1.794999309944e-01 1.877432249189e-01 
334 156 1 2 1 1.688948983053e-03 -6.631916483759e-04 -1.239079966483e-03 -9.366997072376e-04 3.617331563448e-01 -1.420400560560e-01 -2.653817917161e-01 -2.006190506915e-01 -3.787767108219e-02 -8.157553501611e-02 1.347270265678e-01 1.619896835220e-01 
335 150 154 2 2 1.894262793028e-03 9.450917383447e-06 1.722028865201e-03 7.891506805590e-04 8.905618946939e-01 4.443220297931e-03 8.095884554958e-01 3.710084619010e-01 -1.661907842122e-01 8.833144395433e-02 -1.907603257275e-01 2.679763471274e-01 
336 150 278 2 2 1.820863500963e-03 -7.170945850859e-04 -1.593860449723e-03 5.108112293078e-04 1.963805531609e+00 -7.733881821093e-01 -1.718982211530e+00 5.509111018988e-01 1.264606924174e-01 -1.033644913988e-01 -1.449934781699e-01 2.184024576799e-01 
337 150 158 2 2 1.884571373857e-03 -1.782264413450e-03 -4.142669749783e-04 -4.511382239972e-04 1.015763598033e+00 -9.606212523260e-01 -2.232854212303e-01 -2.431586258682e-01 -5.122411449080e-02 4.548320735597e-01 -2.152931976699e-01 5.058134893485e-01 
338 343 419 2 3 2.133675229109e-03 1.350352731331e-03 -1.638814599071e-03 -2.083367326509e-04 1.083201888621e+00 6.855329287829e-01 -8.319762279635e-01 -1.057662099639e-01 -2.430393523855e-01 -1.683919005743e-01 -2.506795019490e-01 3.876392287738e-01 
339 343 453 2 3 2.205189216602e-03 -1.442818982827e-03 5.301638225460e-04 -1.581157545937e-03 2.589851711956e-01 -1.694497317775e-01 6.226430245082e-02 -1.856966987861e-01 -1.841730391559e-02 -7.916796927469e-02 -9.739167059376e-03 8.186339730068e-02 
340 408 358 3 2 2.114704161159e-03 -1.314934362005e-03 1.650721284963e-03 -1.343151227922e-04 1.358713091532e+00 -8.448550700271e-01 1.060600655896e+00 -8.629846154390e-02 2.008060118840e-01 1.559292099661e-01 -4.951832084303e-02 2.590155150344e-01 
341 358 125 2 2 1.885124837387e-03 2.407488544739e-04 1.708305051193e-03 7.598878165044e-04 1.008466701074e+00 1.287910478095e-01 9.138751584183e-01 4.065097145285e-01 -1.966182255959e-01 6.387947029439e-02 -8.131464644509e-02 2.221517163743e-01 
342 442 33 3 1 1.911817139729e-03 -1.840901846243e-03 4.366123133621e-04 2.747632728050e-04 6.567260814283e-01 -6.323660514668e-01 1.499801878009e-01 9.438361217704e-02 -4.331794166464e-03 7.207283695380e-02 -1.435501023990e-01 1.606856874960e-01 
343 442 327 3 2 2.163632310419e-03 8.022474930202e-04 1.566847731556e-03 -1.258050841878e-03 6.929917288730e-01 2.569525674464e-01 5.018470620645e-01 -4.029422299366e-01 -9.178149620633e-02 3.919548099865e-02 -9.711948348193e-03 1.002718839820e-01 
344 304 299 2 2 1.855000070291e-03 3.305032203557e-04 -1.499659844562e-03 1.040583121485e-03 1.430125159192e+00 2.548037480941e-01 -1.156173149688e+00 8.022447686667e-01 -2.527966827050e-01 2.697804677562e-01 4.690918408063e-01 5.972728176307e-01 
345 304 259 2 2 1.904642509058e-03 1.813397328233e-03 5.078186965486e-04 2.852602122693e-04 7.627014463834e-01 7.261629195682e-01 2.033526252387e-01 1.142305579439e-01 -4.090258331753e-02 1.402396156757e-01 1.036364790061e-02 1.464499106341e-01 
346 86 144 1 2 1.741047423780e-03 1.064468017343e-03 -3.911634571069e-04 1.321039409605e-03 2.031285421600e-02 1.241918132645e-02 -4.563716168964e-03 1.541260770636e-02 7.676727036660e-03 4.567172214704e-03 -4.833405793572e-03 1.015642710797e-02 
347 453 390 3 2 2.210552349344e-03 -1.555142539889e-03 1.430749414290e-03 6.488678473542e-04 2.139108493986e-01 -1.504881174799e-01 1.384508367685e-01 6.278967897601e-02 6.834385828639e-02 7.989889253966e-02 -1.237671486138e-02 1.058673654404e-01 
348 390 55 2 1 1.731177619662e-03 -9.939759821110e-04 1.334493180930e-03 4.776145389937e-04 6.192425166918e-02 -3.555453707943e-02 4.773484283075e-02 1.708427984372e-02 1.776087530679e-02 1.578274569822e-02 -7.135635034773e-03 2.480848727326e-02 
349 390 494 2 3 2.219483343519e-03 -1.830752390694e-03 -2.557830207965e-04 -1.228424618118e-03 1.455480933139e-01 -1.200561025040e-01 -1.677360232854e-02 -8.055697352676e-02 -2.149998624488e-02 6.512735498138e-02 1.848113371104e-02 7.103079669162e-02 
350 365 421 2 3 2.131931534780e-03 1.247461111667e-03 8.216359174494e-04 1.521146693461e-03 1.107648543783e+00 6.481204772392e-01 4.268822955313e-01 7.903142724824e-01 -2.910996954846e-02 -5.986861637700e-02 5.621006895862e-02 8.712756972590e-02 
351 365 88 2 1 1.693810512652e-03 -6.369715952783e-04 -6.519664568339e-04 1.427655763390e-03 3.193975338729e-01 -1.201121112187e-01 -1.229396540671e-01 2.692094107577e-01 -1.288367259909e-01 9.317636818942e-02 -1.493179854864e-02 1.596987669361e-01 
352 365 435 2 3 2.159126742683e-03 -1.414843348416e-03 -2.088905840896e-05 -1.630831149338e-03 7.479201764488e-01 -4.901008661861e-01 -7.235956992345e-03 -5.649189076577e-01 -5.767638930784e-02 -9.694542165592e-02 5.127946841017e-02 1.239135365651e-01 
353 365 200 2 2 1.906094627455e-03 1.124486845963e-03 -1.040041270278e-03 -1.134477949625e-03 7.453461517878e-01 4.397116131081e-01 -4.066905951766e-01 -4.436184656635e-01 -5.465956736336e-02 7.298311191101e-02 -1.210860139997e-01 1.515784473957e-01 
354 324 202 2 2 1.920963788101e-03 3.885557819053e-04 2.982213925668e-04 1.857468783199e-03 5.755215574908e-01 1.164114754059e-01 8.934725443043e-02 5.564984273618e-01 1.664744343990e-01 -5.520973566949e-02 -2.595999470176e-02 1.773013636329e-01 
355 324 424 2 3 2.157096173199e-03 -1.677263747819e-03 2.035935171320e-04 1.341044332027e-03 7.731281922209e-01 -6.011507068349e-01 7.297026892163e-02 4.806457834333e-01 -1.619506985100e-01 -7.157264268927e-02 -1.916881518554e-01 2.609502241638e-01 
356 324 139 2 2 1.903628702450e-03 1.286013572599e-03 1.324614816408e-03 4.640764118464e-04 7.748968983593e-01 5.234886022536e-01 5.392017421436e-01 1.889083578529e-01 -2.831577198842e-01 2.464233868750e-01 8.129825295514e-02 3.840731517075e-01 
357 324 354 2 2 1.988993957848e-03 -1.275019636973e-03 1.488873461837e-03 -3.371612438033e-04 2.990675273175e-02 -1.917134884229e-02 2.238688071241e-02 -5.069597074125e-03 5.263592672019e-03 6.440139973863e-03 8.534105063181e-03 1.191686871327e-02 
358 324 143 2 2 1.872189836024e-03 2.759252447714e-04 -1.835646354938e-03 2.436442098947e-04 1.183505916715e+00 1.744263073510e-01 -1.160404933443e+00 1.540198319824e-01 -2.012667415642e-01 1.701974996644e-02 3.561620322491e-01 4.094500779883e-01 
359 324 299 2 2 1.880573771337e-03 -9.179184256033e-05 8.562829098999e-04 -1.671798894991e-03 1.068985839617e+00 -5.217778817559e-02 4.867420355111e-01 -9.503106831925e-01 1.658948874997e-02 2.630334329100e-01 1.338128971995e-01 2.955802588508e-01 
360 362 478 2 3 2.179342665957e-03 1.155468797891e-03 8.181186420789e-04 1.656836805556e-03 5.127869466205e-01 2.718752429533e-01 1.924986680608e-01 3.898442864635e-01 -8.927175868277e-03 1.549601662968e-01 -7.029100708448e-02 1.703912359385e-01 
361 362 269 2 2 1.951713574798e-03 -1.153983193972e-03 -8.939970499693e-04 1.295483670576e-03 2.748273445447e-01 -1.624962499333e-01 -1.258867276666e-01 1.824214073636e-01 -9.866117785785e-02 -1.037599357334e-02 -9.504515695991e-02 1.373873033452e-01 
362 362 294 2 2 1.995448069001e-03 -1.257308666986e-03 -1.458102471219e-03 -5.243330005128e-04 7.954549071878e-03 -5.012069041239e-03 -5.812502885602e-03 -2.090173453962e-03 2.167975424235e-03 -8.174034542471e-04 -2.925538335607e-03 3.731895014628e-03 
363 362 167 2 2 1.935049997383e-03 4.604001639733e-04 -1.181678566371e-03 -1.461535475849e-03 4.287371427931e-01 1.020080365419e-01 -2.618172620506e-01 -3.238234385952e-01 -1.009545775361e-01 5.725106999144e-02 -7.809038390608e-02 1.398843086241e-01 
364 21 360 1 2 1.585711985126e-03 9.041217362135e-04 -9.298189585008e-05 1.299384759385e-03 1.596826688524e+00 9.104589809512e-01 -9.363363223311e-02 1.308492514347e+00 1.138422817538e-01 1.620186642157e-01 -6.761852344614e-02 2.092423890663e-01 
365 21 10 1 1 1.383566102547e-03 -1.370939283526e-03 -1.565804004469e-04 -1.013075475833e-04 8.911937654717e-01 -8.830604768863e-01 -1.008578313797e-01 -6.525503525657e-02 -4.588759479036e-03 8.076510293297e-02 -6.273295197685e-02 1.023693402785e-01 
366 21 117 1 2 1.625723253219e-03 -6.383013696890e-04 9.234356685673e-04 -1.175931130436e-03 1.050591235169e+00 -4.124895323136e-01 5.967518873328e-01 -7.599220447592e-01 6.989319103988e-02 1.084475966523e-01 4.722339425682e-02 1.373899135255e-01 
367 195 456 2 3 2.103121041010e-03 5.970807686255e-04 2.016315016878e-03 3.296091001776e-05 1.536881852046e+00 4.363241960937e-01 1.473447270519e+00 2.408659484901e-02 -4.958577738175e-02 1.697406242583e-02 -1.401157616285e-01 1.495971081623e-01 
368 195 361 2 2 1.920076123652e-03 -1.749037367734e-03 4.325131565686e-04 6.636964489023e-04 5.852442969440e-01 -5.331112303303e-01 1.318311576905e-01 2.022964385825e-01 2.992344282433e-02 2.319363277126e-01 -7.228951379488e-02 2.447767275457e-01 
369 195 476 2 3 2.114536225634e-03 4.308001102588e-04 -1.862411390731e-03 9.039350232145e-04 1.361243631214e+00 2.773297989918e-01 -1.198936964806e+00 5.819128461670e-01 1.125493597166e-01 -7.201498126801e-02 -2.020142968400e-01 2.422050619359e-01 
370 195 403 2 3 2.159238591904e-03 -1.066308574719e-03 -1.595710971452e-03 -9.894462167475e-04 7.465397457099e-01 -3.686677957702e-01 -5.517045070057e-01 -3.420932405590e-01 9.523798831532e-02 -3.153236006758e-02 -5.178305790473e-02 1.128984022728e-01 
371 444 192 3 2 2.200499846453e-03 3.851066843349e-06 1.303703043296e-03 1.772721951808e-03 3.006844108913e-01 5.262239699594e-04 1.781427897769e-01 2.422312624165e-01 8.319515154707e-02 5.728619176525e-02 -4.231039873412e-02 1.095139755873e-01 
372 444 281 3 2 2.150938376533e-03 6.945882485676e-04 -6.519348885805e-04 1.928487481330e-03 8.512541819676e-01 2.748898609972e-01 -2.580093908451e-01 7.632171387449e-01 1.747855133206e-01 -2.883379938033e-01 -1.604270520349e-01 3.733973933517e-01 
373 444 277 3 2 2.194657930806e-03 -1.195180382327e-03 -2.632150049552e-04 1.821753317032e-03 3.554546512793e-01 -1.935756912512e-01 -4.263124402418e-02 2.950576857254e-01 -1.163039014833e-02 -3.967957513027e-02 -1.336332066244e-02 4.345472352516e-02 
374 444 63 3 1 1.955969425686e-03 1.869551687252e-03 5.383580936700e-04 2.018995935874e-04 2.317072004240e-01 2.214700198339e-01 6.377474262725e-02 2.391734194950e-02 -9.975036530866e-03 7.945996659165e-03 7.117921590793e-02 7.231266136693e-02 
375 444 269 3 2 2.156665901714e-03 -4.017965080146e-04 2.098271824981e-03 -2.949961461639e-04 7.785053545589e-01 -1.450390311656e-01 7.574264747126e-01 -1.064866278918e-01 6.900278625542e-03 -5.288756591932e-02 -3.855812992027e-01 3.892526772790e-01 
376 444 336 3 2 2.165770297601e-03 1.624787378257e-03 1.901993579728e-04 -1.419313623429e-03 6.674196743792e-01 5.007064064612e-01 5.861323045476e-02 -4.373861057382e-01 1.084459007510e-01 -1.241260397331e-01 1.075117120988e-01 1.967906384153e-01 
377 444 288 3 2 2.148510730766e-03 -2.144011392335e-03 -1.276630129698e-04 -5.491506962825e-05 8.827369016749e-01 -8.808883039420e-01 -5.245161260483e-02 -2.256239995675e-02 8.111561552625e-03 -1.967999202155e-01 1.408136326335e-01 2.421249370947e-01 
378 444 117 3 2 2.184790254223e-03 -9.507702084686e-04 -1.054162845302e-03 -1.660748373842e-03 4.546423165625e-01 -1.978498252916e-01 -2.193652397963e-01 -3.455922079713e-01 5.992737433611e-02 1.510991639930e-01 -1.302185750796e-01 2.082765585705e-01 
379 405 413 3 3 2.380703885841e-03 -9.377276091166e-04 -1.152080408210e-03 1.860410883697e-03 1.193209854078e+00 -4.699894977672e-01 -5.774232166974e-01 9.324387683253e-01 1.493611625796e-01 -1.099437453018e-01 7.200587206932e-03 1.856023504007e-01 
380 405 153 3 2 2.132671007759e-03 -1.064887422843e-03 1.011994545938e-03 1.546016637361e-03 1.097258907973e+00 -5.478844165140e-01 5.206710394199e-01 7.954253239470e-01 4.662657418702e-01 2.335074060314e-01 1.683114505628e-01 5.479582056178e-01 
381 405 303 3 2 2.135109553332e-03 -1.339104551941e-03 7.767580322406e-04 -1.470421287608e-03 1.063229367294e+00 -6.668394524670e-01 3.868054217035e-01 -7.322317924339e-01 1.507688490194e-01 2.620672205051e-02 -1.234605155022e-01 1.966228293035e-01 
382 405 455 3 3 2.371944513162e-03 -8.550205894638e-06 -8.378497795604e-04 -2.219021273983e-03 1.327011396749e+00 -4.783510155393e-03 -4.687446102011e-01 -1.241456747350e+00 2.145437558349e-01 1.006228008487e-02 -4.625945952479e-03 2.148294021409e-01 
383 99 305 1 2 1.681575902471e-03 1.241269679066e-03 9.695119227354e-04 5.890617380860e-04 4.292028643868e-01 3.168197765850e-01 2.474567420261e-01 1.503512181137e-01 2.525299762370e-02 -1.799715914294e-02 -2.359229776542e-02 3.896419048372e-02 
384 99 167 1 2 1.694562588793e-03 -9.780028162317e-04 1.309436775360e-03 4.476920706405e-04 3.130065063229e-01 -1.806491224976e-01 2.418690422041e-01 8.269421965670e-02 -9.598122948487e-02 -9.761574078864e-02 7.583723344950e-02 1.565008474112e-01 
385 99 421 1 3 1.949283829665e-03 -1.815806886961e-03 -5.874416798665e-04 3.968186873299e-04 2.864360583919e-01 -2.668223886058e-01 -8.632117947903e-02 5.831022602520e-02 -1.534664371226e-02 3.586006365169e-03 -6.491622645352e-02 6.680191143857e-02 
386 99 303 1 2 1.680826647263e-03 1.026994562163e-03 -6.356237958179e-04 -1.168949433307e-03 4.362718526918e-01 2.665645627816e-01 -1.649811843880e-01 -3.034100725391e-01 -4.983792131380e-02 -1.259964901582e-01 2.472570016003e-02 1.377326910413e-01 
387 289 478 2 3 2.088748969887e-03 -2.022583960719e-03 3.862005266701e-04 3.505360669664e-04 1.767888370994e+00 -1.711887218170e+00 3.268748087086e-01 2.966889010303e-01 1.186629104065e-02 -2.741278371640e-01 3.704865127705e-01 4.610283463260e-01 
388 289 348 2 2 1.901447357331e-03 1.028326637494e-03 -1.410500300474e-03 7.540127861539e-04 8.013546508282e-01 4.333826704953e-01 -5.944476829303e-01 3.177745892564e-01 2.187261517607e-02 9.860656049361e-02 1.546291954125e-01 1.846939445162e-01 
389 289 499 2 3 2.089938450956e-03 1.550329022761e-03 9.848880132228e-04 -9.971550789001e-04 1.748363072027e+00 1.296946334304e+00 8.239198774555e-01 -8.341820383447e-01 2.445679759362e-01 -1.983206254197e-01 1.843617189645e-01 3.648750590819e-01 
390 289 108 2 2 1.976078873991e-03 5.285488394033e-04 -1.571734651715e-03 -1.074790223810e-03 9.582854870805e-02 2.563160249725e-02 -7.622016135610e-02 -5.212119246299e-02 -4.352237569905e-02 -1.718163221457e-02 3.722833966200e-03 4.693895146662e-02 
391 289 379 2 2 1.925888951811e-03 -1.138920444530e-03 -5.650001947769e-04 -1.446610955178e-03 5.225728142446e-01 -3.090359188878e-01 -1.533077707080e-01 -3.925249985227e-01 3.017802413859e-02 6.420448994619e-02 -4.883546449796e-02 8.612683822648e-02 
392 421 336 3 2 2.115037067091e-03 1.250004599055e-03 2.764875046198e-04 1.683575052469e-03 1.353701350340e+00 8.000488218395e-01 1.769621507725e-01 1.077549825196e+00 -8.006111358086e-02 -3.249378388009e-01 1.128063831842e-01 3.531567089544e-01 
393 421 294 3 2 2.091984521778e-03 -8.799047602302e-04 1.620454550379e-03 9.880758586464e-04 1.714946377418e+00 -7.213196203510e-01 1.328400201824e+00 8.099950533855e-01 -2.999735035739e-01 -1.465960440858e-02 -2.430915491485e-01 3.863838869768e-01 
394 421 117 3 2 2.184866313126e-03 -1.325552987671e-03 -9.678746986553e-04 1.442140302056e-03 4.538471341536e-01 -2.753479336510e-01 -2.010499020308e-01 2.995658083075e-01 3.257639598415e-02 2.250127587289e-03 3.145295957761e-02 4.533843089109e-02 
395 421 114 3 2 2.124752244542e-03 4.287750912450e-04 -1.797244148049e-03 1.049112717547e-03 1.210196873789e+00 2.442177794217e-01 -1.023657819396e+00 5.975439886177e-01 -1.014015568605e-01 -6.495078865628e-02 -6.982468311455e-02 1.391990195829e-01 
396 421 167 3 2 2.074283403000e-03 8.378040707290e-04 1.896878455226e-03 5.087338331065e-05 2.011037993595e+00 8.122592192504e-01 1.839042166165e+00 4.932224138345e-02 -4.622487416308e-01 2.137098786073e-01 -3.559383314003e-01 6.213194887605e-01 
397 421 476 3 3 2.464934818492e-03 -2.433372311889e-03 3.363147726708e-04 2.037037673360e-04 1.901478988711e-01 -1.877131309135e-01 2.594370727490e-02 1.571394223510e-02 -4.010653174043e-03 1.591032423955e-03 -5.053662102342e-02 5.072047700407e-02 
398 421 233 3 2 2.061736222979e-03 1.056683833371e-03 -1.415407906103e-03 -1.063388916991e-03 2.230238198722e+00 1.143044693540e+00 -1.531086636486e+00 -1.150297771528e+00 -5.261711493769e-01 -2.019974587904e-01 -2.539877390676e-01 6.181980454442e-01 
399 421 57 3 1 1.979896208115e-03 -3.972151132738e-04 1.573129808709e-03 -1.134668124892e-03 7.148664558342e-02 -1.434195181879e-02 5.679983255232e-02 -4.096862136838e-02 -2.271605388226e-02 1.919476150699e-03 1.061345146515e-02 2.514654737092e-02 
400 257 310 2 2 1.836299972610e-03 -3.145061066544e-04 4.408485756231e-04 1.754632734123e-03 1.715518799760e+00 -2.938197171773e-01 4.118521105537e-01 1.639223159048e+00 -5.292023078777e-01 -3.965223607302e-01 4.769636515890e-03 6.612925333426e-01 
401 257 479 2 3 2.138075833612e-03 7.630399354210e-04 1.916375564512e-03 5.627104255027e-04 1.022320100910e+00 3.648472385846e-01 9.163142063033e-01 2.690597638958e-01 2.841676369135e-01 -4.517370505124e-02 -2.314893501774e-01 3.692955845155e-01 
402 257 294 2 2 1.820999501009e-03 1.013832811597e-03 -1.510622450730e-03 -7.875293109107e-05 1.961569574586e+00 1.092094531516e+00 -1.627233305883e+00 -8.483217785184e-02 -1.416618356397e-01 -9.667900777481e-02 3.078059907012e-02 1.742479598166e-01 
403 257 456 2 3 2.078814908578e-03 -3.733540816960e-04 1.083964179171e-03 -1.734099135598e-03 1.933748576442e+00 -3.473002435229e-01 1.008321702782e+00 -1.613088169146e+00 -4.291252960590e-01 -1.708796319336e-01 -1.442346544053e-02 4.621216340779e-01 
404 309 12 2 1 1.665633284156e-03 -1.114026121021e-03 1.207981899993e-03 2.721392442459e-04 5.876323195075e-01 -3.930263400202e-01 4.261737637981e-01 9.601021836346e-02 7.995796613914e-02 1.842032869353e-02 2.455501754953e-01 2.588966464519e-01 
405 309 241 2 2 1.933043394681e-03 5.513547012631e-04 -1.852016403632e-03 5.196152222490e-05 4.487583006850e-01 1.279976432471e-01 -4.299477892848e-01 1.206292858133e-02 7.317713125397e-02 2.411595013026e-02 8.307262156436e-02 1.133028333398e-01 
406 309 192 2 2 1.942392466486e-03 -1.462117778915e-03 -1.278570817184e-03 -1.888808853999e-05 3.581304657624e-01 -2.695793616363e-01 -2.357377153015e-01 -3.482509360441e-03 6.942253076748e-02 -7.809149512779e-02 -8.780188280752e-02 1.364805481158e-01 
407 309 478 2 3 2.163295710598e-03 4.416866380903e-04 1.228113656550e-03 -1.725253051531e-03 6.970468626403e-01 1.423181693759e-01 3.957169457093e-01 -5.559028388672e-01 1.512984968536e-01 -1.331673235780e-01 -5.606023076443e-02 2.092068849069e-01 
408 309 3 2 1 1.747994322685e-03 -1.989006895323e-04 -6.716461100699e-04 -1.601503721716e-03 2.153971015884e-03 -2.450959449535e-04 -8.276378448410e-04 -1.973457552830e-03 -9.475094608220e-04 -4.516395984849e-05 1.366181545568e-04 9.583728302550e-04 
409 3 63 1 1 1.498749311026e-03 6.024835310264e-04 -1.372269656740e-03 1.179327495579e-05 9.921507200565e-04 3.988355255495e-04 -9.084229884409e-04 7.806980228870e-06 1.392773453527e-04 5.863993591979e-05 -2.919038262987e-04 3.287014828396e-04 
410 3 269 1 2 1.748040036047e-03 -1.668864664241e-03 1.876440745714e-04 -4.851024647955e-04 2.080757423058e-03 -1.986512017225e-03 2.233597589333e-04 -5.774356043066e-04 2.557984773328e-04 -2.463690117589e-04 -9.753047233047e-04 1.037954649424e-03 
411 114 248 2 2 1.918285067381e-03 9.648566648837e-04 4.496776541350e-04 1.595825561688e-03 6.050266311451e-01 3.043155511238e-01 1.418282198036e-01 5.033229835864e-01 -6.112288027081e-02 -6.348071586842e-02 5.484351168810e-02 1.037960430558e-01 
412 114 116 2 2 1.941938214391e-03 -8.676634879103e-04 -1.531714933703e-03 8.198374607996e-04 3.623747719818e-01 -1.619100732754e-01 -2.858251852343e-01 1.529855124729e-01 1.524094128430e-01 -3.807059330345e-02 9.017249148920e-02 1.811327618599e-01 
413 114 117 2 2 1.979896808989e-03 -1.754328078916e-03 8.293694493936e-04 3.930275845090e-04 7.382777467304e-02 -6.541661036310e-02 3.092610713475e-02 1.465548700199e-02 -5.501451594755e-03 -2.447149204716e-02 2.708348547744e-02 3.691388733621e-02 
414 114 83 2 1 1.673934957890e-03 9.284138183017e-04 -1.382053245739e-03 1.733056582274e-04 5.030679202037e-01 2.790163419791e-01 -4.153486661281e-01 5.208357507145e-02 -1.055651756003e-01 -7.176580674835e-02 -6.785689602105e-03 1.278295071614e-01 
415 114 416 2 3 2.178166346478e-03 -9.687991424109e-04 -9.425122792772e-04 -1.708071268421e-03 5.256456061095e-01 -2.337952807114e-01 -2.274516081416e-01 -4.121999950183e-01 4.038640496587e-02 -1.349488494328e-01 5.155793835826e-02 1.500015822485e-01 
416 310 28 2 1 1.636290362328e-03 -2.159313345583e-04 1.339370438704e-03 9.148260143490e-04 9.194854785425e-01 -1.213389329056e-01 7.526363884617e-01 5.140708855548e-01 -1.460160663745e-01 7.273705796934e-02 -1.409571954228e-01 2.155929084710e-01 
417 310 214 2 2 1.847708382177e-03 1.680512796796e-03 3.882635880630e-04 6.626872501862e-04 1.539346394114e+00 1.400053893223e+00 3.234667115306e-01 5.520921152054e-01 1.505231746261e-01 -1.398601778505e-01 -2.997696220966e-01 3.634280145776e-01 
418 310 269 2 2 1.993647503708e-03 1.431664391265e-03 -1.387365605103e-03 -1.356899412549e-05 1.311412019322e-02 9.417421519340e-03 -9.126026172345e-03 -8.925620980227e-05 -1.702367298619e-03 -1.815789486201e-03 6.039153346793e-03 6.531961345851e-03 
419 28 138 1 2 1.615654471451e-03 -6.094571827889e-04 1.211754404938e-03 -8.778112414296e-04 1.180820227502e+00 -4.454290084606e-01 8.856250747907e-01 -6.415587541299e-01 -1.483485065307e-02 1.215537968858e-01 1.780958681879e-01 2.161331455304e-01 
420 202 41 2 1 1.583925195410e-03 1.125329166093e-03 -9.172001326085e-04 6.334013019703e-04 1.622947866744e+00 1.153053549996e+00 -9.397969063867e-01 6.490062124174e-01 2.781229122574e-02 2.315875530305e-01 2.859390267406e-01 3.690087333319e-01 
421 202 334 2 2 1.910795807618e-03 -6.593606464990e-04 1.664317864650e-03 -6.681543247386e-04 6.900812659562e-01 -2.381271865072e-01 6.010660973884e-01 -2.413030112540e-01 2.626236983808e-01 1.640060189807e-01 1.493583324308e-01 3.437689524661e-01 
422 202 424 2 3 2.131492195146e-03 -2.065819529725e-03 -9.462787543483e-05 -5.164244511722e-04 1.113836715165e+00 -1.079518679145e+00 -4.944892698994e-02 -2.698637675684e-01 -2.099133250290e-02 -1.637451686278e-01 1.139743903295e-01 2.006072728995e-01 
423 202 139 2 2 1.949475890368e-03 8.974577906942e-04 1.026393423841e-03 -1.393392371353e-03 2.941512332750e-01 1.354150196211e-01 1.548697744558e-01 -2.102452697643e-01 4.261854192685e-02 3.559907562140e-02 5.367260587051e-02 7.722941746511e-02 
424 355 12 2 1 1.703082014466e-03 1.470458323538e-03 8.194474653013e-04 2.583534755850e-04 2.437013796009e-01 2.104142484319e-01 1.172582859241e-01 3.696891746255e-02 -3.164614451669e-02 6.326114627442e-02 -2.053329976744e-02 7.365505746426e-02 
425 355 214 2 2 1.943208578405e-03 9.655674963170e-04 9.030927229761e-04 -1.424135710861e-03 3.505471659505e-01 1.741845693403e-01 1.629143665523e-01 -2.569084672223e-01 -5.847091577533e-02 -9.018025992133e-02 -9.682978326631e-02 1.446628293602e-01 
426 355 260 2 2 1.954278032819e-03 -9.360097400957e-04 -1.598767230204e-03 -6.221187504267e-04 2.532268104578e-01 -1.212840532726e-01 -2.071612736622e-01 -8.061143002732e-02 -5.433150639946e-02 3.668064882220e-02 -1.252011795213e-02 6.673931329574e-02 
427 58 288 1 2 1.749999835607e-03 -4.884695969863e-05 -1.658205485795e-03 5.571965237107e-04 1.066818452366e-09 -2.977762448211e-11 -1.010859643564e-09 3.396729079591e-10 -2.553078857351e-10 3.839632708381e-11 9.188497067622e-11 2.740424096526e-10 
428 139 253 2 2 1.860719583858e-03 1.018774214521e-03 -1.853595619610e-04 -1.545968402772e-03 1.346348269656e+00 7.371475598951e-01 -1.341193631084e-01 -1.118605888857e+00 1.507498022977e-01 -4.454001937704e-02 1.046825598511e-01 1.888590865060e-01 
429 260 486 2 3 2.220854283084e-03 -2.180111475074e-03 1.216366349393e-04 4.056010749276e-04 1.358511086046e-01 -1.333588443989e-01 7.440592491506e-03 2.481088295610e-02 -3.418154070142e-03 5.767600456296e-02 -3.566921515775e-02 6.790064940458e-02 
430 260 277 2 2 1.954530148452e-03 8.593449565692e-04 -1.635256069923e-03 6.384762584500e-04 2.511352345618e-01 1.104162027935e-01 -2.101120911407e-01 8.203704867639e-02 2.168832573641e-02 3.441189765643e-02 5.894426097087e-02 7.161695382357e-02 
431 260 288 2 2 1.946853826435e-03 -8.948605343897e-05 -1.499704077938e-03 -1.238192128211e-03 3.173440324610e-01 -1.458654196928e-02 -2.444570481506e-01 -2.018296790403e-01 8.416928837639e-02 -2.036635698318e-02 1.858478230776e-02 8.857003859083e-02 
432 269 214 2 2 1.916274267565e-03 2.488484055311e-04 1.775629193166e-03 6.762562443117e-04 6.274957476296e-01 8.148693478706e-02 5.814406564541e-01 2.214442498113e-01 -1.489325392982e-01 -2.365388062484e-02 1.169115206773e-01 1.908106679342e-01 
433 269 294 2 2 1.908041874810e-03 -1.033254730136e-04 -5.641054212493e-04 -1.819816671088e-03 7.222832009629e-01 -3.911353014550e-02 -2.135403183335e-01 -6.888858298723e-01 -2.867527010123e-01 2.130649093082e-01 -4.976446991896e-02 3.606941496374e-01 
434 233 72 2 1 1.715430401082e-03 1.005809552175e-03 6.735271572033e-05 1.387988550887e-03 1.541311730531e-01 9.037184256908e-02 6.051631751273e-03 1.247105702438e-01 4.323058776228e-03 -2.844087133760e-02 -1.752610917322e-03 2.882088903300e-02 
435 233 168 2 2 1.875137678980e-03 1.459594297570e-03 -1.148014070072e-03 -2.603641614115e-04 1.142797955955e+00 8.895460842613e-01 -6.996542959982e-01 -1.586782852270e-01 -3.288473909411e-02 -1.402033898009e-01 4.338426839886e-01 4.571190993903e-01 
436 348 77 2 1 1.711020148401e-03 7.157971410126e-06 7.018992482646e-04 1.560408971060e-03 1.845479486175e-01 7.720475654458e-04 7.570575163857e-02 1.683032633383e-01 6.605705120906e-02 5.857317529033e-02 -2.665025833530e-02 9.222031851694e-02 
437 348 136 2 2 1.896812503613e-03 -1.489252208996e-03 -5.429735940753e-05 1.173489381555e-03 8.585448173756e-01 -6.740728265782e-01 -2.457634396005e-02 5.311506671642e-01 -2.368694676954e-01 1.948855437692e-01 -2.915890104966e-01 4.232158680141e-01 
438 348 119 2 2 1.806822907306e-03 9.724831593871e-04 -6.886712499464e-04 1.358166938403e-03 2.199154772080e+00 1.183647258448e+00 -8.382086919477e-01 1.653078058615e+00 2.736885338008e-01 -1.455584741886e-01 -2.697749563915e-01 4.109394238062e-01 
439 348 5 2 1 1.664707602644e-03 1.138658315170e-03 1.120360217602e-03 -4.685100067325e-04 5.973301528951e-01 4.085732199551e-01 4.020074991038e-01 -1.681106961426e-01 -8.386453532471e-02 2.825192194877e-02 -1.362633032292e-01 1.624780575523e-01 
440 348 224 2 2 1.929314192711e-03 -1.464874891642e-03 -1.199345766999e-03 -3.714357780507e-04 4.867664932595e-01 -3.695883318344e-01 -3.025952617842e-01 -9.371334738318e-02 3.997584086088e-02 -2.959690372328e-02 -6.209063777097e-02 7.955684672827e-02 
441 348 108 2 2 1.902707232534e-03 -4.997777980905e-04 -1.612343512411e-04 -1.828803009964e-03 7.860373009759e-01 -2.064658108098e-01 -6.660836312970e-02 -7.555063424310e-01 2.100320373628e-02 1.631363956798e-01 -2.012252034605e-02 1.657091849828e-01 
442 348 203 2 2 1.982643659784e-03 1.254220647020e-03 -1.002190088088e-03 -1.163366441671e-03 5.922571333012e-02 3.746619425360e-02 -2.993751427115e-02 -3.475218909475e-02 -5.067080957331e-03 1.868015153635e-02 -2.155494552043e-02 2.896962283562e-02 
443 277 192 2 2 1.973654645781e-03 1.199031449170e-03 1.566918048251e-03 -4.903136522423e-05 1.107588417171e-01 6.728803074864e-02 8.793333142703e-02 -2.751574208615e-03 4.289778913428e-02 -3.317631392505e-02 -1.119215811854e-02 5.537285004055e-02 
444 277 281 2 2 1.932283832170e-03 1.889768630895e-03 -3.887198836253e-04 1.067341642975e-04 4.564160547286e-01 4.463737306615e-01 -9.181777165704e-02 2.521119587213e-02 2.288209439736e-02 1.073292072283e-01 -1.424911423210e-02 1.106624878839e-01 
445 277 149 2 2 1.925983079129e-03 -8.235267652305e-04 -1.740495075989e-03 -4.348998155718e-05 5.215775332921e-01 -2.230201622557e-01 -4.713453291875e-01 -1.177756832307e-02 -1.411208010929e-01 7.194845949321e-02 -2.071553561108e-01 2.607776886352e-01 
446 72 413 1 3 1.966447208037e-03 1.181685006403e-03 -6.289653660199e-04 1.440464416773e-03 1.541349062055e-01 9.262333963605e-02 -4.929983235846e-02 1.129070980722e-01 2.071557896655e-03 2.691060960310e-02 1.005086438546e-02 2.880090512856e-02 
447 476 294 3 2 2.162756569838e-03 1.553467551659e-03 1.284139777708e-03 7.843720913104e-04 7.035584651797e-01 5.053528730854e-01 4.177388355584e-01 2.551612291408e-01 -4.108242308989e-03 2.422168200365e-02 -3.151820991514e-02 3.996204562094e-02 
448 476 117 3 2 2.112320733876e-03 1.107819324219e-03 -1.304189471326e-03 1.238436534720e-03 1.394774212906e+00 7.314977319491e-01 -8.611617611741e-01 8.177448221978e-01 -8.616051833044e-02 1.052526742428e-01 1.879141242590e-01 2.319773231380e-01 
449 476 183 3 2 2.227110668817e-03 -8.998950300732e-04 -1.800322413291e-03 9.534411750125e-04 9.454764406794e-02 -3.820329011627e-02 -7.642918024806e-02 4.047648736857e-02 -2.440123972592e-02 2.006351486053e-02 1.485381743186e-02 3.490846632293e-02 
450 476 7 3 1 1.909060675217e-03 -6.057393045280e-04 -1.373847958300e-03 -1.179039585461e-03 6.877579005848e-01 -2.182235472094e-01 -4.949422508091e-01 -4.247606168469e-01 -1.997702569797e-01 8.862824475987e-03 9.230608082291e-02 2.202433149685e-01 
451 476 247 3 2 2.190364591360e-03 -2.030981362739e-03 -7.998239696063e-04 -1.819158182549e-04 3.976100491157e-01 -3.686777089884e-01 -1.451895493077e-01 -3.302261080944e-02 -2.810731341846e-02 9.443677322052e-02 -1.014060533167e-01 1.413913464579e-01 
452 476 88 3 1 1.914538967188e-03 5.489396049446e-04 -1.809917146954e-03 -2.971946974068e-04 6.265564417518e-01 1.796472422370e-01 -5.923176633624e-01 -9.726062269090e-02 2.232174384408e-01 8.172671968185e-02 -8.541773808386e-02 2.525895316781e-01 
453 476 403 3 3 2.428447250430e-03 -1.497108684978e-03 2.667004192798e-04 -1.893381239962e-03 5.542642557412e-01 -3.416972845080e-01 6.087120458220e-02 -4.321417908567e-01 -2.060322781349e-02 2.121785499534e-03 1.658997763366e-02 2.653718764161e-02 
454 149 94 2 1 1.673764706157e-03 1.630598604338e-03 -1.695739191296e-04 3.374628410016e-04 5.047578450204e-01 4.917402276386e-01 -5.113846986776e-02 1.017687944858e-01 -3.868749846918e-02 1.733038183796e-02 1.956439457594e-01 2.001839608579e-01 
455 149 291 2 2 1.967326608960e-03 1.165475578965e-03 -1.285955890981e-03 -9.264761775735e-04 1.529726055008e-01 9.062340495463e-02 -9.999154299367e-02 -7.203962685829e-02 -5.536000887429e-02 -4.967901932029e-02 -6.861599520690e-04 7.438552519588e-02 
456 63 241 1 2 1.659442298449e-03 1.477718597691e-04 1.918993631779e-04 1.641671968986e-03 6.534871410725e-01 5.819244830732e-02 7.556982628079e-02 6.464891985664e-01 -2.700247801007e-01 -1.924354489494e-02 2.655517591426e-02 2.720089580444e-01 
457 63 224 1 2 1.650669028650e-03 1.624139503167e-03 2.759828292168e-04 -1.035016636340e-04 7.507165451342e-01 7.386510411663e-01 1.255156984653e-01 -4.707207198436e-02 -7.674070874769e-03 5.793161744861e-03 -1.049736604890e-01 1.054130992014e-01 
458 63 336 1 2 1.676143301520e-03 -2.447643089951e-04 -3.481587356972e-04 -1.621213217017e-03 4.813198694162e-01 -7.028630853725e-02 -9.997696321666e-02 -4.655461935759e-01 -2.368252161638e-01 -1.678721149851e-02 3.936001388101e-02 2.406599347080e-01 
459 305 108 2 2 1.899485109430e-03 1.026928938742e-03 3.817868826895e-04 1.551676323182e-03 8.254066603968e-01 4.462440803479e-01 1.659025565716e-01 6.742690245777e-01 6.498022888447e-02 2.810255017004e-01 -1.121509203059e-01 3.094763184434e-01 
460 305 379 2 2 1.931409501363e-03 -6.405403451909e-04 1.388521339627e-03 1.179855591815e-03 4.652842082286e-01 -1.543087093339e-01 3.345002971463e-01 2.842318909968e-01 -4.983869285605e-02 1.107751573682e-01 -1.574238107874e-01 1.988398526412e-01 
461 305 153 2 2 1.861143404042e-03 5.994201219589e-05 -1.369899204856e-03 1.258426753576e-03 1.340207763619e+00 4.316419139838e-02 -9.864632385323e-01 9.061920222950e-01 -3.672858587675e-01 -1.375852395725e-01 -1.322779068321e-01 4.139155044628e-01 
462 305 143 2 2 1.860603839479e-03 5.549566483256e-04 1.905726913429e-04 -1.765659031432e-03 1.348026923668e+00 4.020718906079e-01 1.380719062249e-01 -1.279238418134e+00 -1.716070010197e-01 2.692126166802e-01 -2.488015660567e-02 3.202240121719e-01 
463 281 241 2 2 1.915018293071e-03 1.322735298454e-03 1.382192345428e-03 -8.491591875681e-05 6.416682193497e-01 4.432110161564e-01 4.631333832679e-01 -2.845291169295e-02 8.923510522802e-02 -8.839547268240e-02 -4.881443044699e-02 1.347572343723e-01 
464 281 449 2 3 2.144679789063e-03 1.977540599190e-03 -7.151750137399e-04 -4.213184969741e-04 9.331869979648e-01 8.604618668589e-01 -3.111849272300e-01 -1.833229115989e-01 2.761988593665e-02 1.180431021371e-01 -7.073516021964e-02 1.403584516607e-01 
465 281 360 2 2 1.806645646044e-03 -1.029353511336e-04 -1.418645521139e-03 -1.113919965351e-03 2.202182403400e+00 -1.254714334550e-01 -1.729235730403e+00 -1.357795288668e+00 -6.238513633682e-02 2.947157111713e-01 -3.695736681080e-01 4.767955031309e-01 
466 153 224 2 2 1.890463321371e-03 1.889832994382e-06 7.135746717879e-04 1.750616801519e-03 9.389915906569e-01 9.386785077553e-04 3.544319577852e-01 8.695299382469e-01 -2.025970169161e-01 7.723749603448e-02 -3.126432139289e-02 2.190630955893e-01 
467 153 336 2 2 1.883609389874e-03 -1.867013979167e-03 8.943310687390e-05 2.329052481368e-04 1.028488128021e+00 -1.019426704255e+00 4.883225214648e-02 1.271708900742e-01 -6.538466149901e-03 -3.896658220099e-01 9.721385644633e-02 4.016624680841e-01 
468 153 374 2 2 1.878553357723e-03 1.458012370783e-03 -5.518946920965e-04 1.048129235015e-03 1.096227324868e+00 8.508211886967e-01 -3.220574169153e-01 6.116344274664e-01 1.642609944084e-02 2.736482757993e-01 1.212403685360e-01 2.997539366773e-01 
469 153 413 2 3 2.190487107364e-03 1.271598137259e-04 -2.164074954148e-03 3.143942463359e-04 3.963854440224e-01 2.301054366223e-02 -3.916059623058e-01 5.689205040880e-02 -6.837463587641e-02 -2.069077022913e-02 -1.147663231953e-01 1.351832376579e-01 
470 336 248 2 2 1.892722748894e-03 1.436271570734e-04 -1.624053998534e-03 9.613632267659e-04 9.100888865936e-01 6.906108120799e-02 -7.809033288987e-01 4.622578711915e-01 -7.299774470153e-02 1.098171135146e-01 1.964225130354e-01 2.365803727686e-01 
471 88 117 1 2 1.710634473988e-03 5.588797192743e-04 5.057276756280e-04 1.535631232127e-03 1.872936331822e-01 6.119052008271e-02 5.537101888772e-02 1.681329103714e-01 7.568613287693e-02 3.693106202148e-02 -3.970777852174e-02 9.310747406642e-02 
472 88 416 1 3 1.931407349563e-03 1.344408655779e-03 -1.266154053043e-03 -5.654676208029e-04 4.505306665343e-01 3.136041332345e-01 -2.953500356005e-01 -1.319040771806e-01 -3.069030271414e-02 8.920370847658e-03 -9.294055111199e-02 9.828231650580e-02 
473 424 379 3 2 2.167347525873e-03 7.576919990741e-04 -8.412912237850e-04 1.848114501115e-03 6.487612226537e-01 2.268031231015e-01 -2.518272295675e-01 5.532038628019e-01 1.759285991976e-01 -9.175518332128e-02 -1.138958232309e-01 2.287840558942e-01 
474 424 175 3 2 2.166024900045e-03 -2.079197435126e-03 -6.071027003844e-04 -5.310797362545e-06 6.643958437525e-01 -6.377628134420e-01 -1.862197017485e-01 -1.629007909657e-03 -9.908367383487e-03 3.199190388847e-02 2.220157685621e-01 2.245276356016e-01 
475 424 167 3 2 2.126827393602e-03 -8.210401510327e-04 -1.889887710788e-03 5.268892418542e-04 1.180245344036e+00 -4.556217483554e-01 -1.048759846765e+00 2.923878902406e-01 -2.352546708509e-01 7.233278246505e-02 -1.071433789860e-01 2.684334093156e-01 
476 229 136 2 2 1.885245407942e-03 3.271498948152e-04 -1.846006826846e-03 -1.984489600005e-04 1.006879436352e+00 1.747255292635e-01 -9.859227374254e-01 -1.059884172895e-01 2.409188332910e-01 6.965919946174e-02 -2.508190857660e-01 3.546893036003e-01 
477 229 478 2 3 2.162437230149e-03 -1.234508494401e-03 4.991359705397e-06 -1.775415060743e-03 7.074248892928e-01 -4.038600625289e-01 1.632885356292e-03 -5.808135308087e-01 -1.482112033854e-01 1.193564559569e-01 1.033920149380e-01 2.165696958037e-01 
478 182 472 2 3 2.227517007746e-03 6.449278047664e-04 -2.129858127541e-03 -9.800256619831e-05 9.204118145601e-02 2.664846863037e-02 -8.800590869157e-02 -4.049473897280e-03 2.456228893831e-02 6.517631518711e-03 1.999205425260e-02 3.233369437200e-02 
479 182 449 2 3 2.239881747954e-03 -1.636953178240e-03 -1.506847539733e-03 -2.585827315693e-04 2.778812506741e-02 -2.030815228883e-02 -1.869405290252e-02 -3.207994927270e-03 -2.048088737817e-03 -1.310048130569e-04 1.372879629752e-02 1.388134278511e-02 
480 182 224 2 2 1.974846944731e-03 -8.153908355785e-04 6.746032854739e-04 -1.667353785972e-03 1.033257159178e-01 -4.266196024143e-02 3.529583273180e-02 -8.723740545238e-02 1.238410901620e-02 4.815963808628e-02 1.342892029047e-02 5.150779355490e-02 
481 449 241 3 2 2.222810499302e-03 -6.548053007364e-04 2.097367359168e-03 3.364025782173e-04 1.224060700626e-01 -3.605891889769e-02 1.154981479500e-01 1.852506885828e-02 3.278290105538e-02 1.800514538180e-02 -4.844489276698e-02 6.120303503120e-02 
482 449 472 3 3 2.370845630284e-03 2.281880983006e-03 -6.230105878080e-04 1.605801653710e-04 1.344129196303e+00 1.293691505076e+00 -3.532101415553e-01 9.103945270213e-02 -2.432267454790e-02 -3.291868995044e-02 2.179145602854e-01 2.217250284239e-01 
483 449 248 3 2 2.163989048083e-03 -9.037143124271e-04 -6.674473824058e-05 -1.965119381019e-03 6.887026195467e-01 -2.876125527722e-01 -2.124191714739e-02 -6.254111436601e-01 -1.382519743661e-01 1.082414685796e-01 5.990258942930e-02 1.855212768303e-01 
484 214 478 2 3 2.085493963812e-03 2.060603586332e-03 -6.351350111828e-05 -3.149031093311e-04 1.821687412092e+00 1.799945566695e+00 -5.547930010480e-02 -2.750691396146e-01 4.788035075639e-02 -3.107688880663e-01 3.759900720809e-01 4.901411675038e-01 
485 472 187 3 2 2.112602819458e-03 1.142401526171e-03 1.596697517911e-03 -7.801066991632e-04 1.390489899864e+00 7.519150164433e-01 1.050927202854e+00 -5.134568959258e-01 1.463939697676e-01 -1.378607077226e-01 -6.778708016496e-02 2.122071095779e-01 
486 472 429 3 3 2.314765880366e-03 -3.459460853105e-04 -1.681792718056e-03 -1.552428948602e-03 2.308653938434e+00 -3.450326441703e-01 -1.677352087787e+00 -1.548329892336e+00 3.129749240701e-01 1.775202310738e-01 -2.620568767732e-01 4.451298037666e-01 
487 108 41 2 1 1.668360194390e-03 7.659874128105e-04 1.025453423549e-03 -1.070109479340e-03 5.593734708310e-01 2.568228606493e-01 3.438175057371e-01 -3.587899397505e-01 8.411352247075e-02 5.293301427464e-02 1.109327993977e-01 1.489398356547e-01 
488 108 379 2 2 1.982982283310e-03 -1.667469283933e-03 1.006734456938e-03 -3.718207313676e-04 5.750085010437e-02 -4.835186988612e-02 2.919243787023e-02 -1.078174440590e-02 1.528644613762e-02 2.411137153381e-02 -3.270207282431e-03 2.873548204624e-02 
489 294 167 2 2 1.976178707228e-03 1.717708830959e-03 2.764239048475e-04 -9.372024753358e-04 9.522924440802e-02 8.277394827043e-02 1.332047526808e-02 -4.516245583312e-02 1.889994458750e-02 1.136302717955e-02 3.799137860211e-02 4.392802226577e-02 
490 136 77 2 1 1.720692740213e-03 1.496410180407e-03 7.561966076721e-04 3.869195895051e-04 1.203127793392e-01 1.046306895058e-01 5.287412067806e-02 2.705385459368e-02 1.845713863411e-02 -3.113579433896e-02 -1.053104627897e-02 3.769624107794e-02 
491 136 241 2 2 1.912888005253e-03 -1.451990326044e-03 -1.229131873630e-03 2.002484730140e-04 6.659464342111e-01 -5.054910572298e-01 -4.279058607568e-01 6.971383384372e-02 5.653362761878e-02 -2.554518189581e-02 2.531249421583e-01 2.606162767605e-01 
492 136 224 2 2 1.923154663076e-03 2.437731735417e-05 -1.145048407591e-03 -1.544925159606e-03 5.517579920564e-01 6.993914703431e-03 -3.285173170469e-01 -4.432429800409e-01 -1.764222280052e-01 1.427569452956e-02 -1.336444152308e-02 1.775026937425e-01 
493 374 187 2 2 1.882360396699e-03 1.146597628728e-03 5.770546878031e-05 1.491732087115e-03 1.045087556023e+00 6.365916514448e-01 3.203810887784e-02 8.282104977869e-01 5.041318289952e-02 -2.684561109000e-01 -2.836451036233e-02 2.746174028311e-01 
494 374 203 2 2 1.934521357951e-03 1.262973000874e-03 1.462625042795e-03 -8.944309711581e-05 4.339821780654e-01 2.833299159527e-01 3.281189939601e-01 -2.006527864874e-02 2.271413550892e-02 -2.029805111942e-02 -1.119256842246e-02 3.245329596598e-02 
495 374 413 2 3 2.215549764637e-03 -1.330852557057e-03 -1.612180262052e-03 -7.337349886786e-04 1.745779364039e-01 -1.048667453908e-01 -1.270344308001e-01 -5.781587136313e-02 -2.093482158104e-02 7.222376735037e-03 2.210251367595e-02 3.128818612717e-02 
496 167 175 2 2 1.873962117060e-03 -1.258157284093e-03 1.282785010404e-03 -5.322000392168e-04 1.158974831789e+00 -7.781227877668e-01 7.933541068518e-01 -3.291456349700e-01 2.699535936744e-01 2.533740559328e-01 -2.747019593770e-02 3.712518910691e-01 
497 167 57 2 1 1.742295680603e-03 -1.235019184003e-03 -3.237486465174e-04 -1.185541508202e-03 1.621625466971e-02 -1.149482595448e-02 -3.013260354916e-03 -1.103431709816e-02 4.895095880134e-03 -3.019288878953e-03 -4.274879113641e-03 7.166077061162e-03 
498 360 94 2 1 1.632021558635e-03 -9.797614406531e-04 -1.027035903544e-04 1.301158660498e-03 9.717464122879e-01 -5.833744412353e-01 -6.115228375990e-02 7.747423760831e-01 1.474631799128e-01 3.795820564064e-02 1.140346570937e-01 1.902370043497e-01 
499 360 15 2 1 1.700174611529e-03 1.041721832576e-03 -1.082830685100e-03 7.955419791746e-04 2.667012172261e-01 1.634117336391e-01 -1.698603542292e-01 1.247942492268e-01 2.206967832835e-02 1.209684019124e-02 -1.243383283296e-02 2.807141683362e-02 
500 360 291 2 2 1.890832099867e-03 -1.444884466027e-03 -1.219085562205e-03 3.721964192239e-05 9.342536300141e-01 -7.139124396245e-01 -6.023459787192e-01 1.839009691884e-02 3.040918930113e-02 -4.053667242696e-02 -1.472315838865e-01 1.557083167308e-01 
501 360 248 2 2 1.846480299254e-03 1.176761637897e-03 6.367257691587e-04 -1.272517912643e-03 1.558003870969e+00 9.929156502736e-01 5.372498225386e-01 -1.073711880152e+00 4.690271613694e-02 -1.432104243533e-01 -2.828443537141e-02 1.533267742723e-01 
502 360 103 2 2 1.873887616704e-03 9.876866586803e-04 -1.297790075362e-03 -9.228601110630e-04 1.160002577108e+00 6.114129039709e-01 -8.033778645773e-01 -5.712829828216e-01 1.191465338122e-01 -1.329562686795e-01 3.144883654030e-01 3.616299183896e-01 
503 478 379 3 2 2.217065953355e-03 8.836635161893e-04 -9.512007214470e-04 -1.797147022144e-03 1.631806959213e-01 6.503948487137e-02 -7.001036457743e-02 -1.322737834220e-01 4.829946418786e-02 4.116748827000e-03 2.157008827175e-02 5.305708783744e-02 
504 303 143 2 2 1.953546695570e-03 7.692317652285e-04 1.795708409896e-03 -7.647860039131e-06 2.593267108419e-01 1.021129128903e-01 2.383742127207e-01 -1.015227531251e-03 -3.602991808945e-02 1.570800771432e-02 6.428517957029e-02 7.534905982340e-02 
505 303 455 2 3 2.222101526329e-03 1.330554346047e-03 -1.614607811801e-03 -7.485999863745e-04 1.272248042350e-01 7.617991986149e-02 -9.244319412897e-02 -4.286054691397e-02 -3.602769907842e-04 -2.642818313344e-02 5.636091850510e-02 6.225055660781e-02 
506 75 485 1 3 1.999999395335e-03 -9.320047590783e-04 5.792544833360e-04 -1.672073250169e-03 1.154238898912e-08 -5.378782360675e-09 3.342991295872e-09 -9.649862853341e-09 -8.777540701650e-11 5.906878669089e-11 6.938868043795e-11 1.265244348376e-10 
507 413 429 3 3 2.382763572576e-03 9.891025743029e-04 -1.608604505136e-03 1.453144826355e-03 1.162441845832e+00 4.825381063497e-01 -7.847648888396e-01 7.089231905551e-01 -6.870970860881e-03 3.522442143068e-01 3.946046633887e-01 5.289953091676e-01 
508 413 122 3 2 2.179175606892e-03 2.142901569792e-03 -3.878962704720e-04 7.947119735807e-05 5.146066396294e-01 5.060406203152e-01 -9.160069323511e-02 1.876691611746e-02 -3.426535093250e-02 -1.583563436354e-01 1.510162119762e-01 2.214875665218e-01 
509 413 248 3 2 2.143575033962e-03 -1.850546635820e-03 6.294540624881e-04 8.798742285668e-04 9.479084369057e-01 -8.183286058055e-01 2.783503292508e-01 3.890884113970e-01 -7.420800342762e-02 -2.719258185755e-01 3.845940581777e-02 2.844812902047e-01 
510 413 465 3 3 2.397442518290e-03 -3.154717842761e-04 -1.852792029257e-03 -1.488411864422e-03 9.511048321340e-01 -1.251528393853e-01 -7.350330356294e-01 -5.904774382108e-01 -3.268520238748e-01 1.692213029253e-01 -1.413716828571e-01 3.942766130379e-01 
511 117 10 2 1 1.690564659202e-03 -7.326379138371e-04 -1.080016069014e-03 1.074623582853e-03 3.474690347723e-01 -1.505822255143e-01 -2.219803537216e-01 2.208720128183e-01 1.385877261225e-01 2.961610084311e-03 9.746036725213e-02 1.694516218601e-01 
512 57 175 1 2 1.734456928722e-03 -2.313810009023e-05 1.606533656921e-03 6.533414689857e-04 4.646801423035e-02 -6.198952227936e-04 4.304080867914e-02 1.750373859123e-02 4.208875100770e-03 8.659826995252e-03 -2.114501958879e-02 2.323400711483e-02 
513 57 275 1 2 1.731907059159e-03 -1.383706848274e-03 -5.829304273707e-04 -8.631625203000e-04 5.835965839159e-02 -4.662643907611e-02 -1.964286733951e-02 -2.908578122292e-02 -6.202813556122e-04 2.062900429471e-02 -1.293729334918e-02 2.435804028148e-02 
514 10 430 1 3 1.904957967209e-03 -1.730282360722e-03 2.885621527661e-04 7.427783606143e-04 7.348210193602e-01 -6.674414186418e-01 1.113103485192e-01 2.865203125217e-01 -4.967332936954e-02 -1.271664312752e-01 -6.630977566467e-02 1.517752524051e-01 
515 175 485 2 3 2.165420140112e-03 2.983792655914e-04 2.143438920772e-03 -7.539091449292e-05 6.715858570978e-01 9.253968369023e-02 6.647685768125e-01 -2.338182368827e-02 -3.752199589610e-02 9.746559611630e-03 1.286013006460e-01 1.343174974757e-01 
516 175 456 2 3 2.125329370754e-03 -1.846738440159e-03 1.035377714650e-03 -1.859436899546e-04 1.201841884906e+00 -1.044302891773e+00 5.854905697385e-01 -1.051483680114e-01 -1.629661806553e-01 -3.158046960127e-01 -1.399414743392e-01 3.819348089678e-01 
517 288 430 2 3 2.146674489698e-03 -1.269679090692e-03 -1.717953748581e-03 2.115686392530e-04 9.068019575146e-01 -5.363400414832e-01 -7.257009992008e-01 8.937119118156e-02 -1.883273136743e-01 1.322817668686e-01 -5.606357903573e-02 2.368728937974e-01 
518 288 460 2 3 2.220187516002e-03 -1.709551152718e-03 7.578830473078e-04 -1.196779323458e-03 1.405394358035e-01 -1.082157938230e-01 4.797453147806e-02 -7.575697534004e-02 2.968917092541e-02 3.136977779750e-02 -2.254428453340e-02 4.872119245693e-02 
519 248 103 2 2 1.974933284614e-03 -1.890749792165e-04 -1.934515844521e-03 3.496578015796e-04 1.027941834264e-01 -9.841247927888e-03 -1.006904780593e-01 1.819949487513e-02 -2.948550013090e-02 -4.584754447756e-03 -4.130967587030e-02 5.095982743127e-02 
520 456 357 3 2 2.108833330990e-03 -2.835594023843e-04 -1.064164490321e-03 -1.798423204019e-03 1.448102650289e+00 -1.947157777113e-01 -7.307450029982e-01 -1.234948902699e+00 -6.132503179417e-02 1.788220488092e-01 -9.614354661562e-02 2.120888168214e-01 
521 77 119 1 2 1.704828691925e-03 9.653251879770e-04 -1.390570498211e-03 -2.022420326568e-04 2.302199545280e-01 1.303574499499e-01 -1.877825486997e-01 -2.731075080003e-02 5.936072834935e-03 1.657756132197e-04 2.719374338095e-02 2.783458498567e-02 
522 171 268 2 2 1.905286959037e-03 -1.426969231708e-03 5.349245173456e-04 1.143561528199e-03 7.549827533158e-01 -5.654461415073e-01 2.119674325205e-01 4.531439356423e-01 -1.250328095533e-01 -9.882477031654e-02 -1.097922381500e-01 1.935300344931e-01 
523 171 162 2 2 1.909862044216e-03 8.542614457533e-04 3.663766816876e-04 1.668405986968e-03 7.009449449392e-01 3.135253898944e-01 1.344651482814e-01 6.123273386230e-01 2.625766753881e-01 -1.307574532774e-01 -1.057312487796e-01 3.118062202939e-01 
524 1 420 1 3 1.884758411354e-03 1.709335183267e-03 -6.232387345656e-04 4.919969310414e-04 9.811193651106e-01 8.898020243151e-01 -3.244296923604e-01 2.561111884217e-01 1.525341500025e-01 2.590656284408e-01 -2.017741342794e-01 3.620697005006e-01 
525 1 320 1 2 1.608196352469e-03 -3.564777539021e-04 -5.775534495798e-04 1.457961293020e-03 1.280501420477e+00 -2.838398865533e-01 -4.598679828201e-01 1.160879082860e+00 -2.438423545959e-01 1.735123465260e-01 9.114288157840e-03 2.994139250945e-01 
526 1 164 1 2 1.598230491668e-03 -8.172602191059e-04 -3.871566599735e-04 -1.317776976351e-03 1.417835191994e+00 -7.250145118028e-01 -3.434575552068e-01 -1.169036995609e+00 3.044284398457e-02 3.482199317794e-01 -1.211854463835e-01 3.699591870105e-01 
527 104 268 2 2 1.908250243093e-03 1.261625775657e-03 -8.325375664625e-04 1.164731983287e-03 7.198296569495e-01 4.759101446872e-01 -3.140496027885e-01 4.393598937048e-01 8.582010406748e-02 -1.470062841285e-01 -1.980379286265e-01 2.611416454917e-01 
528 104 164 2 2 1.856791960237e-03 -9.446581324457e-04 9.769888105870e-07 1.598529462318e-03 1.403697276575e+00 -7.141424974929e-01 7.385838381647e-04 1.208456036450e+00 8.906476236079e-02 1.463785516890e-01 5.254375594399e-02 1.792206979611e-01 
529 268 417 2 3 2.157845511470e-03 -1.271217126293e-04 -1.634971838841e-03 1.402499343224e-03 7.637932910530e-01 -4.499613653402e-02 -5.787163700690e-01 4.964301583997e-01 -9.601412255982e-02 1.092646229335e-01 1.186732118732e-01 1.877253333251e-01 
530 268 370 2 2 1.966351165672e-03 1.091598547131e-03 1.574646591029e-03 4.420832862771e-04 1.598738392530e-01 8.875222986588e-02 1.280263669935e-01 3.594350463975e-02 -3.888690721828e-02 3.835766264019e-02 -4.060517973698e-02 6.806087317758e-02 
531 268 331 2 2 1.982914759476e-03 -3.720480630646e-04 -1.664717602079e-03 -1.011062059146e-03 5.784342660105e-02 -1.085298030341e-02 -4.856132618268e-02 -2.949359962542e-02 -2.675079092855e-02 3.715823451270e-03 3.725570762318e-03 2.726338270885e-02 
532 467 319 3 2 2.184069500656e-03 -7.432076008382e-05 9.280058507986e-04 1.975712820528e-03 4.622007520602e-01 -1.572803026374e-02 1.963879821712e-01 4.181075516273e-01 -2.948976702467e-02 -2.811058517345e-02 1.209441239007e-02 4.249854314002e-02 
533 467 367 3 2 2.144079360172e-03 1.613086402522e-03 -7.707701744497e-04 1.183613914625e-03 9.411784886710e-01 7.080904982451e-01 -3.383420974880e-01 5.195665683042e-01 6.568951121976e-02 3.102334687928e-02 -6.932242509884e-02 1.004149319447e-01 
534 467 157 3 2 2.090774688675e-03 1.198052857971e-03 1.523354140169e-03 7.844745451199e-04 1.734679558582e+00 9.940037126338e-01 1.263900554061e+00 6.508649473416e-01 -3.923583342473e-01 3.034176282776e-01 1.001118958733e-02 4.960922731911e-01 
535 467 285 3 2 2.106728793531e-03 2.059061352639e-03 3.058325922626e-04 -3.240971784351e-04 1.480605905525e+00 1.447105297994e+00 2.149386971861e-01 -2.277750215540e-01 9.926364538476e-02 -1.617145150900e-01 4.780429351784e-01 5.143247063479e-01 
536 467 314 3 2 2.181282046756e-03 -1.923183344232e-03 -5.194839821115e-04 8.885345149737e-04 4.918202693327e-01 -4.336259731945e-01 -1.171296267606e-01 2.003405681148e-01 -3.941556895849e-02 1.284536911143e-01 -1.021201832521e-02 1.347524513895e-01 
537 467 363 3 2 2.037914743445e-03 -1.744797419399e-03 -2.162165963065e-04 -1.030547839885e-03 2.666654910045e+00 -2.283104639406e+00 -2.829240281168e-01 -1.348493829835e+00 -1.858698573604e-01 2.204108538700e-01 2.684482485399e-01 3.939454410486e-01 
538 467 262 3 2 2.163847648784e-03 1.368457140692e-03 -1.345797891940e-03 -9.991945432626e-04 6.904016212960e-01 4.366227119265e-01 -4.293930060438e-01 -3.188050383521e-01 -1.926354173164e-01 1.644859258344e-02 -2.859801382425e-01 3.452008106477e-01 
539 467 298 3 2 2.135867467766e-03 -5.206372106729e-04 -1.842475255877e-03 -9.466528752420e-04 1.052725836109e+00 -2.566115412996e-01 -9.081187543353e-01 -4.665860380543e-01 7.806374350094e-02 -1.092487237175e-01 1.696980855402e-01 2.163947132425e-01 
540 367 238 2 2 1.894363425851e-03 -6.402553671826e-05 1.908003545572e-04 1.883642414194e-03 8.892908300737e-01 -3.005617713956e-02 8.956940540924e-02 8.842579534748e-01 1.505916986788e-01 -5.415558665770e-02 1.060425237211e-02 1.603843428941e-01 
541 367 89 2 1 1.710873240673e-03 -1.489346489165e-03 -2.342950927452e-06 8.419790920467e-04 1.855922268557e-01 -1.615614324385e-01 -2.541587942941e-04 9.133626673442e-02 -2.052042451623e-02 -4.565617117204e-03 -3.631054441001e-02 4.195698174724e-02 
542 367 285 2 2 1.905560262380e-03 4.459749501173e-04 1.076602766712e-03 -1.507711093060e-03 7.517172432084e-01 1.759309672125e-01 4.247049436332e-01 -5.947712327997e-01 5.316403246695e-02 1.574720258904e-01 1.281708719780e-01 2.098847915162e-01 
543 367 411 2 3 2.150078900521e-03 1.521832978340e-03 -1.184399470379e-03 -9.508215179884e-04 8.623566312573e-01 6.103788843375e-01 -4.750405843670e-01 -3.813568148502e-01 -3.123062430745e-02 -1.149808170605e-01 9.324086932419e-02 1.512937536677e-01 
544 367 204 2 2 1.948528970745e-03 -8.610271557713e-04 -1.595430899308e-03 -7.141411851932e-04 3.024590820707e-01 -1.336523536897e-01 -2.476496744760e-01 -1.108520789711e-01 1.871911848708e-02 -6.960917580638e-02 1.329414443523e-01 1.512258918964e-01 
545 363 314 2 2 1.951068868646e-03 -1.783859248330e-04 -3.032673858050e-04 1.919082354858e-03 2.803497971173e-01 -2.563233858076e-02 -4.357660124099e-02 2.757536432884e-01 3.089387915177e-04 -5.969869280069e-02 -9.405305674065e-03 6.043582662718e-02 
546 363 331 2 2 1.976476839033e-03 -5.548235058047e-04 1.885177486826e-03 2.115122119504e-04 9.344710999106e-02 -2.623185465605e-02 8.913050964478e-02 1.000022086990e-02 -3.900057272584e-02 -1.157580398667e-02 8.699761137518e-04 4.069153191169e-02 
547 363 351 2 2 1.762978152328e-03 -1.684638543522e-03 2.274101550635e-04 4.673002938594e-04 2.988855538879e+00 -2.856042903972e+00 3.855385846167e-01 7.922350426051e-01 3.451870685270e-02 -8.817155550930e-02 1.673498863142e-01 1.922803910259e-01 
548 363 462 2 3 2.219281344145e-03 -1.071940763576e-03 -1.899403348039e-03 4.103895774900e-04 1.469956243781e-01 -7.100073285164e-02 -1.258082855639e-01 2.718243558464e-02 6.434341104875e-02 -3.451526115757e-02 8.318736044724e-03 7.348863291384e-02 
549 285 157 2 2 1.858124219145e-03 -8.610084946680e-04 1.217521547906e-03 1.108571723555e-03 1.384155088135e+00 -6.413830014931e-01 9.069569343561e-01 8.257979611436e-01 -2.254438734566e-01 -2.129027394004e-01 5.872834506432e-02 3.155971087277e-01 
550 285 262 2 2 1.913262628576e-03 -6.906042119470e-04 -1.651630484203e-03 -6.750973648275e-04 6.616552184114e-01 -2.388286238737e-01 -5.711761221060e-01 -2.334659589868e-01 9.914485195801e-03 7.024946099748e-03 -2.732879928738e-02 2.990836262472e-02 
551 148 320 2 2 1.907445049664e-03 3.183730047782e-04 1.582620353291e-03 1.016020700904e-03 7.293262183507e-01 1.217323558761e-01 6.051270087985e-01 3.884832937581e-01 9.363892339751e-02 2.196583460616e-02 -6.355744752099e-02 1.152835417585e-01 
552 148 394 2 2 1.957517201143e-03 9.176943452720e-04 -1.367572563187e-03 1.058043461227e-03 2.267994734853e-01 1.063247843782e-01 -1.584480264606e-01 1.225857426901e-01 1.572193283814e-02 2.350486655205e-02 1.674475800934e-02 3.286403573191e-02 
553 148 417 2 3 2.204630236686e-03 1.936752735047e-03 -6.954692512162e-04 -7.910157042746e-04 2.638462153641e-01 2.317871136552e-01 -8.323251980402e-02 -9.466734892476e-02 3.918743561239e-02 1.249752718170e-01 -1.393156358885e-02 1.317139405668e-01 
554 419 299 3 2 2.203368511762e-03 9.711571618812e-04 2.128950220268e-04 1.966306760185e-03 2.749286940606e-01 1.211776281717e-01 2.656430373103e-02 2.453489494900e-01 -1.180763836361e-01 3.773455515373e-02 5.423224332329e-02 1.353036039472e-01 
555 419 180 3 2 2.192160603514e-03 -9.536454922789e-04 -2.965395986126e-04 1.951459108747e-03 3.797840346966e-01 -1.652156927496e-01 -5.137443170353e-02 3.380833560631e-01 5.912438561305e-02 1.028303696563e-01 4.451898580392e-02 1.266953747964e-01 
556 419 304 3 2 2.049450145555e-03 6.406539415255e-04 1.712554866589e-03 9.257236386996e-04 2.452079952760e+00 7.665151992490e-01 2.048999076885e+00 1.107588970229e+00 -1.724444626574e-01 3.031006483723e-02 6.326896402729e-02 1.861686185712e-01 
557 419 420 3 3 2.400957409910e-03 -2.295022399985e-03 -6.606185377013e-04 2.470866556811e-04 9.026312147541e-01 -8.628053326709e-01 -2.483571389951e-01 9.289133045276e-02 -6.926457217723e-02 2.716922005431e-01 8.305248001157e-02 2.924242589645e-01 
558 419 443 3 3 2.346665042525e-03 7.778391062214e-04 -2.160715769238e-03 4.828151936370e-04 1.738757926901e+00 5.763387135735e-01 -1.600979093080e+00 3.577411901367e-01 -6.490434436646e-02 -1.263583654673e-01 -4.609204072608e-01 4.823138317223e-01 
559 419 330 3 2 2.199399654134e-03 -6.004607931575e-05 1.624964875135e-03 -1.480959979722e-03 3.107644539314e-01 -8.484218415791e-03 2.295996187551e-01 -2.092524287379e-01 5.342308687624e-02 -5.883112510422e-02 -6.671777774132e-02 1.037612131731e-01 
560 419 295 3 2 2.158252443344e-03 1.124294049478e-03 8.995057793891e-05 -1.840088419897e-03 7.587397972278e-01 3.952487772021e-01 3.162238202318e-02 -6.468883280542e-01 -5.484948751521e-02 5.155233735392e-02 -3.099296168203e-02 8.140438219873e-02 
561 419 370 3 2 2.199583145792e-03 -1.523735347125e-03 3.165955726464e-04 -1.554401444465e-03 3.090755956240e-01 -2.141084827308e-01 4.448659527819e-02 -2.184175457090e-01 -1.016509908095e-01 -8.157841492205e-02 8.302992977675e-02 1.545377978116e-01 
562 419 162 3 2 2.076664233793e-03 -3.341032167948e-04 -1.426598854040e-03 -1.471640271973e-03 1.970304626706e+00 -3.169915979368e-01 -1.353533362221e+00 -1.396267913480e+00 6.194613512723e-01 -3.547476877809e-01 2.032552522418e-01 7.422203077725e-01 
563 435 160 3 2 2.168738754650e-03 8.689733282317e-05 -1.748362149766e-03 1.280275920549e-03 6.324501546258e-01 2.534110273206e-02 -5.098594330877e-01 3.733555746069e-01 1.462199615456e-02 -1.256265239849e-01 -1.725497359240e-01 2.139374620479e-01 
564 435 394 3 2 2.176831274135e-03 1.173949428562e-03 1.503959343420e-03 -1.048114224964e-03 5.403676574026e-01 2.914163858993e-01 3.733366921401e-01 -2.601795716386e-01 1.045272976591e-01 -1.215306086876e-01 -5.730991118528e-02 1.702353392336e-01 
565 435 386 3 2 2.160780558594e-03 -6.172293256129e-04 -6.385684884559e-04 -1.969830162108e-03 7.275960870395e-01 -2.078386166221e-01 -2.150241178631e-01 -6.632976737884e-01 -1.739436181534e-01 8.157148602916e-02 2.806034885074e-02 1.941588854699e-01 
566 420 180 3 2 2.199256906590e-03 1.341376907706e-03 3.640789390887e-04 1.704372453065e-03 3.120804242096e-01 1.903449629407e-01 5.166377307541e-02 2.418549995546e-01 -7.518193993945e-02 1.332414220550e-01 3.070744452710e-02 1.560402121047e-01 
567 420 129 3 2 2.202026907479e-03 5.756636032202e-04 -1.759590539294e-03 1.192214347850e-03 2.868782756519e-01 7.499698631585e-02 -2.292380252264e-01 1.553207161806e-01 -1.167443464162e-01 1.707540192220e-02 8.157189766722e-02 1.434391378250e-01 
568 420 417 3 3 2.427185139685e-03 -4.474332068998e-04 -2.232404319522e-03 -8.410720431994e-04 5.689936212297e-01 -1.048896668366e-01 -5.233320676883e-01 -1.971685718368e-01 6.180190203629e-02 1.810681598212e-02 -8.093713016613e-02 1.034318660754e-01 
569 420 370 3 2 2.189792344114e-03 7.712870528601e-04 9.772141103477e-04 -1.801488100147e-03 4.033468560142e-01 1.420665337020e-01 1.799970851669e-01 -3.318235006593e-01 1.877495270968e-01 -5.191536180571e-02 5.222146922042e-02 2.016734280068e-01 
570 319 250 2 2 1.913764806130e-03 4.720809601647e-04 7.081996832060e-05 1.853272735546e-03 6.559174251081e-01 1.617994681698e-01 2.427260189878e-02 6.351845727483e-01 -6.543465245248e-02 5.429550390148e-02 1.459323666576e-02 8.627084120301e-02 
571 319 475 2 3 2.125918944904e-03 -1.256892235629e-03 -1.196118102124e-03 1.228435897428e-03 1.193326589474e+00 -7.055221594760e-01 -6.714082579852e-01 6.895489705193e-01 7.975809464264e-02 -3.853547799656e-02 4.408398279080e-02 9.894308598456e-02 
572 319 417 2 3 2.158972843201e-03 -1.980373814684e-03 7.707008029592e-04 -3.811870460922e-04 7.498209353654e-01 -6.877926930745e-01 2.676678397237e-01 -1.323879678942e-01 2.535947084409e-02 1.112860556784e-01 9.325348505944e-02 1.473903030246e-01 
573 319 89 2 1 1.713336462706e-03 1.980606734410e-04 -1.701118976176e-03 4.988018614323e-05 1.683451100028e-01 1.946059433358e-02 -1.671446720510e-01 4.901013668954e-03 -1.878480203497e-02 2.178079412677e-04 8.201749202053e-02 8.414145960898e-02 
574 319 157 2 2 1.841853099022e-03 1.272373618055e-03 5.953482893701e-04 -1.191238275408e-03 1.628971114453e+00 1.125312258456e+00 5.265377390510e-01 -1.053554565292e+00 2.062661087197e-02 6.108827228095e-02 5.256173783376e-02 8.318635928107e-02 
575 443 489 3 3 2.485590387329e-03 1.657413951975e-03 7.429662842435e-04 1.696802777538e-03 5.009053943948e-02 3.340082072741e-02 1.497253214078e-02 3.419459895023e-02 -1.464163696463e-02 1.262024627463e-02 8.775820092679e-03 2.122882868496e-02 
576 443 250 3 2 2.128760015575e-03 -1.067839938257e-03 -1.432187922624e-03 1.157659200483e-03 1.152576881251e+00 -5.781617545928e-01 -7.754310853012e-01 6.267926967256e-01 -5.645850052396e-02 1.298350221308e-01 1.085462014607e-01 1.784011578008e-01 
577 443 276 3 2 2.146856678970e-03 1.339155762688e-03 -1.610653649923e-03 -4.705850223805e-04 9.044046089053e-01 5.641450850825e-01 -6.785187845137e-01 -1.982429788126e-01 2.310013626541e-02 -1.768069414032e-02 1.262516915647e-01 1.295596884209e-01 
578 443 157 3 2 2.110838045479e-03 -2.675472803672e-04 -9.076596015746e-04 -1.886851810471e-03 1.417365567282e+00 -1.796501174615e-01 -6.094666849692e-01 -1.266965408575e+00 -4.029802141136e-01 -2.335447851714e-01 1.694862443992e-01 4.956428216855e-01 
579 157 162 2 2 1.847431561185e-03 -8.443950426491e-04 1.641776516772e-03 -6.760365513895e-05 1.543545403005e+00 -7.054995236548e-01 1.371718795147e+00 -5.648345157052e-02 2.689305211267e-01 1.544989681975e-01 3.930139420401e-01 5.006530884809e-01 
580 157 415 2 3 2.126930717016e-03 7.035517036543e-04 1.277167170637e-03 -1.548448673194e-03 1.178760579385e+00 3.899135064402e-01 7.078153989636e-01 -8.581615943390e-01 3.447825245898e-01 -2.280462293201e-01 -3.143844910383e-02 4.145701967721e-01 
581 22 299 1 2 1.701291730859e-03 -1.432978272033e-03 -2.983697452590e-04 8.671460779386e-04 2.577822436737e-01 -2.171269908623e-01 -4.520942586278e-02 1.313912584828e-01 4.434299677114e-02 -2.723181924672e-02 6.390780207415e-02 8.241407955004e-02 
582 22 375 1 2 1.706516878231e-03 -6.507420483129e-06 -7.788001096962e-04 -1.518429418281e-03 2.174352912699e-01 -8.291408577406e-04 -9.923056188488e-02 -1.934701889261e-01 9.292978918369e-02 6.964458303762e-03 -3.970322253664e-03 9.327493155177e-02 
583 200 416 2 3 2.220727168825e-03 -4.170497854628e-04 -8.780792395984e-04 1.996666092212e-03 1.367408228842e-01 -2.567975555414e-02 -5.406755024471e-02 1.229443077506e-01 4.754998929192e-02 -4.782853819432e-02 -1.110177295382e-02 6.835071257994e-02 
584 200 111 2 2 1.972545834362e-03 1.676116649975e-03 1.037907130371e-03 -6.571782909784e-05 1.178242686470e-01 1.001179364302e-01 6.199635335677e-02 -3.925462727221e-03 -1.252760015441e-04 -6.143874075789e-04 -1.289839100843e-02 1.291362290643e-02 
585 200 475 2 3 2.198526307523e-03 3.771592030134e-04 1.228395962177e-03 -1.783903646658e-03 3.188446036285e-01 5.469808397476e-02 1.781499827039e-01 -2.587133250049e-01 1.155585130549e-01 2.098987847042e-02 3.888541780621e-02 1.237191200083e-01 
586 314 321 2 2 1.905457289231e-03 -1.661543833524e-03 6.826412642746e-04 6.356417817211e-04 7.529470438612e-01 -6.565639255041e-01 2.697477003858e-01 2.511757168248e-01 -1.106405300667e-02 -1.245044408477e-01 1.047893038480e-01 1.631090655380e-01 
587 314 76 2 1 1.697427642842e-03 9.570767584354e-04 -1.401384254193e-03 -3.724047857216e-05 2.890580969124e-01 1.629823736871e-01 -2.386443199911e-01 -6.341750064912e-03 6.280656245657e-03 1.449845167277e-03 1.068536194881e-01 1.070478616862e-01 
588 351 266 2 2 1.776650622531e-03 -1.551522491197e-03 4.724542849078e-04 7.252946591006e-04 2.734006075172e+00 -2.387566729725e+00 7.270382081870e-01 1.116122651873e+00 -1.049779864569e-01 -9.025936463540e-02 -1.657702588646e-01 2.159789556160e-01 
589 351 462 2 3 2.214039989740e-03 6.126977799456e-04 -2.126813503102e-03 -5.691071636943e-05 1.861790490544e-01 5.152187429163e-02 -1.788441569975e-01 -4.785633097761e-03 -7.204811802173e-02 -2.149891037608e-02 2.777070855171e-02 8.015202250284e-02 
590 417 394 3 2 2.215676569641e-03 -1.019058389775e-03 -6.721033119704e-04 1.849059165501e-03 1.736149626489e-01 -7.985090725879e-02 -5.266436130741e-02 1.448877251999e-01 -5.152488742108e-02 -4.812639050881e-02 -4.588970263687e-02 8.412388659152e-02 
591 417 321 3 2 2.168838557346e-03 -1.530032602988e-03 -1.535549371595e-03 -7.034947774111e-05 6.312853848922e-01 -4.453476803994e-01 -4.469534501704e-01 -2.047667263308e-02 1.166765868309e-03 -6.236137690792e-03 1.107429338028e-01 1.109245155191e-01 
592 52 358 1 2 1.650121404554e-03 -2.458017413377e-05 -1.329715039852e-03 9.768082604062e-04 7.569332813748e-01 -1.127526242160e-02 -6.099584949513e-01 4.480753232961e-01 -9.981632700150e-02 1.501307302632e-01 2.018590497332e-01 2.706466538951e-01 
593 52 89 1 1 1.439606245028e-03 1.464660177442e-04 1.428100750438e-03 1.074341331590e-04 3.329208822800e-01 3.387148119136e-02 3.302601412454e-01 2.484503420420e-02 -7.608716900021e-02 -1.980366706652e-04 1.063628534701e-01 1.307759653120e-01 
594 52 76 1 1 1.451468563545e-03 -9.433804814093e-04 2.803456395102e-04 -1.066864837111e-03 2.398212758083e-01 -1.558715884770e-01 4.632056843892e-02 -1.762744938313e-01 -4.455459657955e-02 6.856334863317e-02 5.741437008612e-02 9.991223520944e-02 
595 52 204 1 2 1.651122242559e-03 7.747853511375e-04 -1.649871979427e-04 -1.448686144081e-03 7.455845035902e-01 3.498638299012e-01 -7.450199319352e-02 -6.541719999595e-01 3.869626295750e-03 8.938375126065e-02 -8.110138255608e-03 8.983431048113e-02 
596 89 475 1 3 1.939305910631e-03 -1.454952909070e-03 5.050008740522e-04 1.178555711285e-03 3.749968267965e-01 -2.813391745204e-01 9.765025943610e-02 2.278932114382e-01 5.771741646854e-02 6.066522130262e-02 4.525889842195e-02 9.518370199707e-02 
597 129 337 2 2 1.858262819135e-03 -1.614473223073e-03 5.071747850318e-04 7.677178221121e-04 1.382127283055e+00 -1.200802957683e+00 3.772233402357e-01 5.710084368595e-01 -3.947855358395e-02 1.346023997310e-01 -1.719433976274e-01 2.219028936136e-01 
598 129 250 2 2 1.859770841839e-03 1.429357964729e-03 -1.172694614867e-03 2.011733905892e-04 1.360128199650e+00 1.045349261042e+00 -8.576406186052e-01 1.471265144092e-01 1.531848772937e-01 1.336522821876e-01 -3.092989220271e-01 3.701274946996e-01 
599 475 250 3 2 2.232689288813e-03 1.728973195793e-03 1.266938070444e-03 6.248368381176e-04 6.218325771980e-02 4.815411905424e-02 3.528584874939e-02 1.740250662381e-02 -1.763468496228e-02 2.545204978210e-02 -2.810770946126e-03 3.109162885957e-02 
600 475 111 3 2 2.162345704952e-03 1.298957446961e-03 -1.904888318061e-04 1.718185817560e-03 7.085343223568e-01 4.256284887034e-01 -6.241734383690e-02 5.629967590937e-01 -2.125009758062e-01 1.070342309689e-02 1.618384954378e-01 2.673255068080e-01 
601 475 394 3 2 2.184047553149e-03 -1.742539968831e-03 1.294715593112e-03 2.394362219808e-04 4.624315689808e-01 -3.689505252009e-01 2.741320179789e-01 5.069617996263e-02 -1.993698003475e-02 -5.276112980964e-02 1.402029844470e-01 1.511227872941e-01 
602 475 125 3 2 2.223559550723e-03 1.524655571666e-03 -1.554511613149e-03 4.507062324664e-04 1.173827690385e-01 8.048729469557e-02 -8.206340936302e-02 2.379299694161e-02 -3.342267865832e-02 -4.010329142294e-02 -2.525582779464e-02 5.799315708980e-02 
603 475 327 3 2 2.159910278265e-03 -1.635829277398e-03 -1.155929315238e-03 -8.081475134748e-04 7.382678656832e-01 -5.591344239618e-01 -3.951022767145e-01 -2.762287609508e-01 -2.116428642333e-02 -6.287906121030e-02 1.327788649490e-01 1.484315678541e-01 
604 181 295 2 2 1.954967114870e-03 1.476585193310e-03 -9.290608340586e-05 1.277873642731e-03 2.475238229914e-01 1.869545575681e-01 -1.176309758301e-02 1.617951355513e-01 -6.687361587237e-02 -4.777087664289e-02 7.379946094830e-02 1.104558626390e-01 
605 181 370 2 2 1.958287370253e-03 -1.171444203293e-03 1.337389113016e-04 1.563560618162e-03 2.206600478005e-01 -1.319984685704e-01 1.506971602273e-02 1.761821916351e-01 8.070010965110e-02 -3.791239735082e-02 6.370462216728e-02 1.095816428790e-01 
606 181 251 2 2 1.959389787768e-03 -6.322026963163e-04 1.854546060796e-03 -1.367477838153e-05 2.119704119176e-01 -6.839285719983e-02 2.006282235834e-01 -1.479362822299e-03 -2.095852846408e-02 -6.742560833527e-03 5.452728709912e-02 5.880431174976e-02 
607 488 485 3 3 2.450208027228e-03 5.614877709162e-04 8.592542588184e-04 2.224844484117e-03 3.217483502526e-01 7.373160236671e-02 1.128327216098e-01 2.921548025223e-01 -8.868454264265e-02 3.446861845536e-02 9.069388499057e-03 9.557869830513e-02 
608 488 180 3 2 2.195079503933e-03 2.002975191549e-03 -5.338271894405e-04 -7.221446824834e-04 3.514008442365e-01 3.206476904522e-01 -8.545810058801e-02 -1.156050387382e-01 1.591601027735e-02 5.579516336952e-02 2.900247782992e-03 5.809329630674e-02 
609 488 337 3 2 2.232459209423e-03 -3.772113360097e-04 -2.150321882791e-03 -4.665849655871e-04 6.342710256603e-02 -1.071707021440e-02 -6.109347307852e-02 -1.325629258674e-02 -3.091520019593e-02 6.171913593759e-03 -3.450683174960e-03 3.171355128233e-02 
610 488 320 3 2 2.198024923236e-03 -1.404214653326e-03 -8.522208435434e-04 -1.460552773570e-03 3.235145613411e-01 -2.066782240715e-01 -1.254334513909e-01 -2.149703057786e-01 -8.238417702836e-02 2.811540532117e-02 6.280124609812e-02 1.073388333852e-01 
611 180 354 2 2 1.917098158523e-03 7.415748597470e-04 1.142025172577e-03 1.349485302626e-03 6.182564233653e-01 2.391549010709e-01 3.682985117124e-01 4.352035668473e-01 8.665081415325e-02 -1.709114469980e-01 9.702003359788e-02 2.147835497139e-01 
612 180 299 2 2 1.991132678382e-03 1.924802654160e-03 5.094346206394e-04 1.484765143837e-05 2.162774118538e-02 2.090726252905e-02 5.533493697172e-03 1.612756226676e-04 -1.077546131260e-03 3.777662068717e-03 1.007511592032e-02 1.081387059190e-02 
613 331 395 2 2 1.974246087329e-03 -1.951166993759e-03 2.896895161547e-04 -8.170042857140e-05 1.070501229989e-01 -1.057986985583e-01 1.570791935964e-02 -4.430066233264e-03 2.962491244668e-03 1.700128686500e-02 -1.046776120587e-02 2.018400688921e-02 
614 275 193 2 2 1.999998864210e-03 1.892867897954e-03 -4.403769571725e-04 -4.723502019984e-04 3.065490749975e-08 2.901286163677e-08 -6.749861276785e-09 -7.239929986396e-09 3.739094726115e-10 1.192334020406e-08 -9.617870430634e-09 1.532348790373e-08 
615 275 403 2 3 2.205781952188e-03 -2.149559035319e-03 -3.871841893877e-04 3.081531725659e-04 2.538636155021e-01 -2.473929156507e-01 -4.456105830666e-02 3.546537246731e-02 -2.605058285733e-02 1.201121001152e-01 -3.080208307125e-02 1.267056343768e-01 
616 275 365 2 2 1.947961811260e-03 5.334608498812e-04 -1.811835298788e-03 4.766839517309e-04 3.074720269841e-01 8.420303102530e-02 -2.859854175064e-01 7.524119827312e-02 9.979456853944e-02 3.370791348006e-02 1.644001669321e-02 1.066088809154e-01 
617 275 337 2 2 1.957867082498e-03 7.202489068492e-04 1.323326863454e-03 -1.250316374911e-03 2.240034264581e-01 8.240509505431e-02 1.514044310708e-01 -1.430511573745e-01 -4.020596373157e-02 2.630817011079e-02 4.683620022364e-03 4.827603578046e-02 
618 415 295 3 2 2.187282390211e-03 -8.954948003088e-05 1.881158778114e-03 1.112396870132e-03 4.288301930538e-01 -1.755672746298e-02 3.688127722299e-01 2.180922622090e-01 -1.044873190188e-01 -2.947648477661e-03 -3.426645984059e-03 1.045850389395e-01 
619 415 162 3 2 2.173011981600e-03 -1.547946746303e-03 3.646093461346e-04 1.480845018055e-03 5.832245746805e-01 -4.154604716334e-01 9.785916167259e-02 3.974507334225e-01 -2.654234045279e-02 8.049641072263e-02 -4.756464881235e-02 9.719343492531e-02 
620 394 337 2 2 1.954103072479e-03 4.276819768223e-04 1.652091877231e-03 9.519450476598e-04 2.546817205751e-01 5.574055086965e-02 2.153200656439e-01 1.240686870848e-01 -5.801345681957e-02 2.212300278969e-02 -1.233046313773e-02 6.330109592874e-02 
621 238 454 2 3 2.161361803362e-03 9.188899993811e-04 1.459659977897e-03 1.302504803444e-03 7.204974686788e-01 3.063151747747e-01 4.865827264878e-01 4.341945029119e-01 -1.667097873169e-01 -3.981184105978e-02 1.622256646240e-01 2.359964028084e-01 
622 238 125 2 2 1.930585963484e-03 -1.355618289850e-03 -1.242654044581e-03 5.875986216041e-04 4.736889985427e-01 -3.326148031070e-01 -3.048978709296e-01 1.441733276204e-01 3.252888138556e-02 4.503034246139e-02 1.702758992850e-01 1.791081844687e-01 
623 375 326 2 2 1.907004734899e-03 -7.177860871218e-04 1.759232669453e-03 -1.629435693415e-04 7.345368861858e-01 -2.764756414776e-01 6.776182897967e-01 -6.276233082055e-02 9.357803105751e-02 2.195832421670e-02 -1.751477986893e-01 1.997893072332e-01 
624 375 295 2 2 1.941108997726e-03 -1.273333963953e-03 3.574859203493e-04 -1.420819683862e-03 3.701653424754e-01 -2.428220689330e-01 6.817180193964e-02 -2.709472809041e-01 -1.394492417759e-02 1.701111132202e-01 5.529827207211e-02 1.794161381970e-01 
625 111 233 2 2 1.829020619896e-03 -4.964585509009e-04 -5.916378487460e-04 1.657953555192e-03 1.831209197800e+00 -4.970526055567e-01 -5.923457934837e-01 1.659937436881e+00 1.231234817485e-01 9.875216340270e-02 7.210770310554e-02 1.735249330262e-01 
626 111 303 2 2 1.897395383246e-03 1.289659064853e-03 7.755879414051e-04 1.155574351547e-03 8.512805433732e-01 5.786151263928e-01 3.479732954044e-01 5.184570230218e-01 -3.325200722202e-02 -2.463400859579e-02 5.364396721770e-02 6.775105595225e-02 
627 111 250 2 2 1.872009270943e-03 4.300157488321e-04 1.457426902250e-03 -1.093348979443e-03 1.186014830984e+00 2.724372488898e-01 9.233554277613e-01 -6.926932068065e-01 -1.241792085517e-01 1.144259933533e-02 -3.358695519199e-02 1.291491094632e-01 
628 111 125 2 2 1.875633836906e-03 2.256981247044e-04 -1.364022781343e-03 -1.267479585094e-03 1.135993150432e+00 1.366959364267e-01 -8.261316820742e-01 -7.676594965646e-01 -1.432678046341e-01 7.125607099424e-02 -1.021950811046e-01 1.898602804701e-01 
629 298 262 2 2 1.954002686560e-03 1.889094351365e-03 4.966773639365e-04 -5.254166802061e-05 2.555177377627e-01 2.470299137259e-01 6.494867039022e-02 -6.870680497649e-03 -1.220665439248e-02 3.344789959499e-02 -1.226970422587e-01 1.277588688812e-01 
630 337 357 2 2 1.879740313227e-03 -1.489978001209e-03 8.373504451664e-04 7.824534702233e-04 1.080195728014e+00 -8.562182022777e-01 4.811847505502e-01 4.496381175408e-01 1.478522889455e-02 5.447184160381e-02 -3.013898708054e-02 6.398549103833e-02 
631 337 320 2 2 1.930744448440e-03 -1.027003317316e-03 1.298101039248e-03 -9.939678079827e-04 4.720676586222e-01 -2.511026520338e-01 3.173861350465e-01 -2.430254590345e-01 -1.494519455118e-01 1.901713078827e-02 1.792551022236e-01 2.341579102953e-01 
632 295 325 2 2 1.921169859777e-03 5.755247838326e-04 1.265170968530e-03 -1.326275715565e-03 5.732720933899e-01 1.717350998125e-01 3.775237290625e-01 -3.957572267776e-01 -6.795678856805e-02 -4.817596102805e-02 -7.544558201269e-02 1.123880962500e-01 
633 320 357 2 2 1.892698926278e-03 -4.629746838925e-04 -4.607505940812e-04 1.776421278206e-03 9.103920573172e-01 -2.226917705203e-01 -2.216219787690e-01 8.544622706096e-01 -1.844926061901e-01 1.516366608504e-01 -8.752836198218e-03 2.389724059262e-01 
634 320 470 2 3 2.145608773593e-03 -9.273186690363e-04 1.875955009270e-03 4.738247551258e-04 9.208673975803e-01 -3.979931197117e-01 8.051355068200e-01 2.033594262533e-01 -1.967504755915e-01 -1.553277592881e-01 2.299109486821e-01 3.401418921198e-01 
635 250 454 2 3 2.142970116319e-03 2.070190665104e-03 -1.191356611147e-04 5.407755761892e-04 9.560017408478e-01 9.235340542806e-01 -5.314768440092e-02 2.412457310104e-01 -8.447789406941e-02 -2.423326606671e-01 2.700101343447e-01 3.725145710724e-01 
636 160 131 2 2 1.928095348955e-03 -1.764141341424e-03 6.208542682850e-04 4.689317431065e-04 4.994106992103e-01 -4.569437197719e-01 1.608122048528e-01 1.214615915306e-01 8.018551813305e-02 2.332349712736e-01 -7.136091625082e-03 2.467370927666e-01 
637 160 422 2 3 2.176648377232e-03 -7.577101497324e-04 -1.999870094805e-03 -4.052074666216e-04 5.423950179112e-01 -1.888124028366e-01 -4.983439618626e-01 -1.009729055988e-01 1.207571210793e-01 -6.451820531110e-02 9.261708178472e-02 1.652961129194e-01 
638 321 327 2 2 1.913325245917e-03 6.176849046449e-04 -1.587198848726e-03 8.718249077869e-04 6.609388485940e-01 2.133730010312e-01 -5.482817841900e-01 3.011630939162e-01 -2.852323303881e-01 -9.746302282565e-02 2.465002665955e-02 3.024304001440e-01 
639 321 266 2 2 1.976757923968e-03 -1.396231276362e-03 3.204905615016e-04 -1.362129183619e-03 9.177717620559e-02 -6.482440885691e-02 1.487977783143e-02 -6.324111242152e-02 -2.095731795465e-02 -3.891847109277e-02 1.232501318506e-02 4.588858810274e-02 
640 455 168 3 2 2.130343307272e-03 -1.657077664230e-03 -9.006320484223e-04 9.906150286084e-04 1.130073242859e+00 -8.790222323758e-01 -4.777540672008e-01 5.254869175230e-01 2.349067296698e-01 -3.193832686534e-01 1.025745465165e-01 4.095221380255e-01 
641 455 398 3 2 2.219955938104e-03 7.727458688231e-04 -2.017224239269e-03 5.117368052489e-04 1.421801803417e-01 4.949158904543e-02 -1.291959453816e-01 3.277489882071e-02 3.818299035045e-02 2.530251321534e-02 4.208236479557e-02 6.220195619032e-02 
642 455 454 3 3 2.382397379870e-03 -1.200069969634e-04 2.177311111531e-03 -9.595477684260e-04 1.167892472978e+00 -5.882950915011e-02 1.067355630919e+00 -4.703869411866e-01 1.348083445222e-01 -2.680658853881e-02 -7.768683354238e-02 1.578832703225e-01 
643 276 454 2 3 2.195815242138e-03 -3.368050358422e-04 5.933006618379e-05 2.169019799053e-03 3.443632366629e-01 -5.282014171377e-02 9.304559523224e-03 3.401609862496e-01 -2.371618126600e-02 -3.960579940073e-02 -2.599291444275e-03 4.623670528946e-02 
644 276 215 2 2 1.961193000602e-03 7.643944330612e-04 1.797358112835e-03 1.774343555751e-04 1.980101538404e-01 7.717642233008e-02 1.814687062006e-01 1.791450613643e-02 7.891283796756e-02 -3.186714148401e-02 -1.715490075435e-02 8.681613514980e-02 
645 276 243 2 2 1.885560287885e-03 4.480634453313e-04 -1.831434125429e-03 2.063473828272e-05 1.002738033650e+00 2.382794445813e-01 -9.739538244896e-01 1.097352178206e-02 1.042933086051e-01 2.614144680469e-02 5.555284963350e-02 1.210230910332e-01 
646 276 191 2 2 1.949071605748e-03 3.924117770509e-04 1.107951916728e-03 -1.554778335257e-03 2.976886803115e-01 5.993445479605e-02 1.692214606003e-01 -2.374668582902e-01 -5.210503000439e-02 6.427335323623e-02 3.265105792665e-02 8.894992789045e-02 
647 276 227 2 2 1.952347835807e-03 8.310457002621e-04 -7.591375582758e-04 -1.595222643918e-03 2.694302143553e-01 1.146869512974e-01 -1.047633988679e-01 -2.201458013847e-01 -9.973155096066e-02 3.579303854113e-02 -6.898931438273e-02 1.264399041601e-01 
648 327 333 2 2 1.934708354377e-03 8.536519374589e-04 -1.546961932994e-03 -7.882154299677e-04 4.321243870380e-01 1.906663706618e-01 -3.455197655779e-01 -1.760508806188e-01 1.420957603083e-01 2.293673708727e-02 1.088764044290e-01 1.804754012246e-01 
649 454 143 3 2 2.146336632109e-03 -4.413155838548e-04 1.233005110166e-03 1.700499894761e-03 9.112531843350e-01 -1.873658703245e-01 5.234872368721e-01 7.219678035967e-01 -8.234159769397e-02 -4.146879839850e-02 8.698977361217e-03 9.260384526866e-02 
650 454 303 3 2 2.167908817301e-03 -1.210547349083e-03 -5.627032997304e-04 1.708147754800e-03 6.421638700350e-01 -3.585804736547e-01 -1.666803168808e-01 5.059764340919e-01 2.544639551115e-01 -1.434826150911e-01 1.330695923072e-01 3.210088498487e-01 
651 454 371 3 2 2.171032598330e-03 1.858756456524e-03 -1.069843266247e-03 3.374053408107e-04 6.058608281802e-01 5.187152542072e-01 -2.985566074917e-01 9.415827259949e-02 1.123944476906e-01 1.637536846881e-01 -9.994841341861e-02 2.223453765328e-01 
652 125 439 2 3 2.237149391958e-03 1.373767486402e-03 -1.511377904922e-03 9.128730052738e-04 3.977284211054e-02 2.442332976496e-02 -2.686981700816e-02 1.622938281916e-02 -1.356348785727e-02 -1.419243784849e-02 -3.085925805649e-03 1.987250444749e-02 
653 125 255 2 2 1.938856345816e-03 -1.794119830814e-03 -6.718248924864e-04 -2.982436524538e-04 3.916060993439e-01 -3.623725245125e-01 -1.356937692452e-01 -6.023862141388e-02 2.409233103385e-02 1.760082687221e-02 -1.845779518464e-01 1.869739282067e-01 
654 462 498 3 3 2.470253980615e-03 -1.417197210570e-03 -6.956219263423e-04 1.899951823254e-03 1.485664177201e-01 -8.523330573681e-02 -4.183620732737e-02 1.142672123744e-01 -2.057144767794e-02 3.359920170269e-02 -3.042949178949e-03 3.951392608093e-02 
655 462 401 3 3 2.456749211929e-03 1.802231105221e-03 -1.569467571016e-03 5.695184608249e-04 2.604764101480e-01 1.910812411236e-01 -1.664025276804e-01 6.038309627550e-02 1.904081130243e-03 -1.501286457808e-02 -4.739758269553e-02 4.975482361711e-02 
656 299 489 2 3 2.201835592096e-03 1.464095896315e-03 -1.630644507021e-03 2.133112109899e-04 2.885960433280e-01 1.919000148087e-01 -2.137296510649e-01 2.795884111883e-02 1.323663662134e-02 1.348372413974e-02 1.222371453803e-02 2.250418989498e-02 
657 395 266 2 2 1.959155337598e-03 -7.301705351552e-04 -1.475002563009e-03 1.062783169581e-03 2.138086803641e-01 -7.968576843617e-02 -1.609715909089e-01 1.159848137820e-01 7.913954955075e-02 1.189474595761e-02 7.088007241281e-02 1.069043401819e-01 
658 370 209 2 2 1.948728922134e-03 -9.889377255618e-04 5.842375891261e-04 -1.574234107867e-03 3.006983370882e-01 -1.525978940337e-01 9.015069747220e-02 -2.429119684358e-01 3.133009968038e-02 3.884541421205e-02 -5.265142167390e-03 5.018229840622e-02 
659 357 290 2 2 1.893801154061e-03 -1.629512777251e-03 9.649616278002e-04 -4.469538144139e-06 8.964004218524e-01 -7.713037547841e-01 4.567491198201e-01 -2.115584241408e-03 -5.202376938331e-02 -8.741994658528e-02 9.318702943375e-02 1.379584796107e-01 
660 464 483 3 3 2.448328582678e-03 1.188255693254e-03 7.101297368254e-04 2.019424921379e-03 3.401362524689e-01 1.650794919185e-01 9.865541298640e-02 2.805504252001e-01 1.941396883112e-02 5.654743376645e-02 -3.130830592059e-02 6.748869883887e-02 
661 464 429 3 3 2.355117713855e-03 -2.153939164756e-03 7.910570700140e-04 5.304283482468e-04 1.596983014823e+00 -1.460565746180e+00 5.364083065303e-01 3.596784388941e-01 7.697716665146e-02 1.554110837405e-01 8.081222933465e-02 1.913340156510e-01 
662 464 92 3 1 1.934472711353e-03 1.631363302059e-03 -6.696252999135e-04 7.952612183295e-04 4.206697603110e-01 3.547556940090e-01 -1.456164838923e-01 1.729372268401e-01 -9.349989676403e-03 1.188625537955e-01 1.192647159423e-01 1.686410432562e-01 
663 464 96 3 1 1.956598191984e-03 1.890865054623e-03 5.024615915114e-04 -2.093272883121e-05 2.267617130492e-01 2.191435117786e-01 5.823323955799e-02 -2.426017497107e-03 -2.213216038745e-03 6.314092435052e-03 -4.835986474732e-02 4.882051420142e-02 
664 464 97 3 1 1.912566879323e-03 -1.468739978526e-03 -1.020307343480e-03 -6.780028526523e-04 6.483685755096e-01 -4.979093060568e-01 -3.458886724569e-01 -2.298459460519e-01 -8.896761994003e-02 5.168973792030e-02 1.149418188551e-01 1.542682343381e-01 
665 464 391 3 2 2.207875569172e-03 1.577023024757e-04 -2.202157503176e-03 -1.862374685635e-05 2.360489963861e-01 1.686031167106e-02 -2.354376649513e-01 -1.991107114808e-03 1.014154459756e-01 7.768670716921e-03 -5.983689334965e-02 1.180080452040e-01 
666 464 286 3 2 2.116277885830e-03 1.215424724292e-03 -1.180735946530e-03 -1.267768691129e-03 1.335075882487e+00 7.667633098875e-01 -7.448795341821e-01 -7.997850449750e-01 7.691378590503e-02 3.156130466845e-02 4.434353864983e-02 9.422417860936e-02 
667 426 142 3 2 2.212754650079e-03 -3.910568847362e-04 6.668093163061e-04 2.073336198023e-03 1.962497679628e-01 -3.468293373014e-02 5.913948642966e-02 1.838847102892e-01 9.119541689892e-02 3.575625988911e-02 5.700951170227e-03 9.812041086783e-02 
668 426 220 3 2 2.085286069022e-03 1.094089685693e-03 1.419759595997e-03 1.065677455375e-03 1.825141720112e+00 9.575994203228e-01 1.242641242215e+00 9.327316826606e-01 3.939479367706e-01 -1.285965326466e-01 -2.331270234725e-01 4.754789734233e-01 
669 426 463 3 3 2.395601243450e-03 -2.266510057475e-03 1.053438350472e-04 7.685962226038e-04 9.768330283976e-01 -9.241946627764e-01 4.295511938539e-02 3.134036508764e-01 -9.848382758776e-02 -1.323005995815e-01 -2.722854042638e-01 3.183423539541e-01 
670 426 368 3 2 2.222664358171e-03 2.208298706796e-03 2.510854490160e-04 2.469347974686e-05 1.233942801347e-01 1.225967511674e-01 1.393935531458e-02 1.370892616414e-03 -6.685282887604e-03 5.652724104944e-02 2.308033825017e-02 6.142250403305e-02 
671 426 273 3 2 2.172124997994e-03 1.203579220748e-03 9.288032516328e-04 -1.551402135506e-03 5.933325995340e-01 3.287668934571e-01 2.537097304509e-01 -4.237773898060e-01 -9.941830814462e-02 -3.616086554183e-02 -9.877783188082e-02 1.447365477761e-01 
672 426 67 3 1 1.921457390150e-03 -1.236042285289e-03 2.837322969401e-04 -1.443500590513e-03 5.520341937308e-01 -3.551146176202e-01 8.151621294320e-02 -4.147173331655e-01 1.382385544605e-01 2.901171421293e-02 -1.126685638490e-01 1.806814400560e-01 
673 342 339 2 2 1.934071874924e-03 7.150302770075e-04 8.389652939436e-04 1.589183109618e-03 4.384584382909e-01 1.620989698740e-01 1.901953165919e-01 3.602713805187e-01 5.730027959891e-02 1.739982808447e-01 -1.176390262981e-01 2.177100463630e-01 
674 342 428 2 3 2.220690718929e-03 -3.805216175984e-04 2.175412399321e-03 2.329194293229e-04 1.369963072208e-01 -2.347470360655e-02 1.342030490104e-01 1.436899853961e-02 -5.140841083440e-02 -1.307565216791e-02 3.813732596994e-02 6.533186830538e-02 
675 342 179 2 2 1.949299610195e-03 -8.778469075691e-05 -1.678127389539e-03 9.879024662654e-04 2.956918160474e-01 -1.331617494576e-02 -2.545573460213e-01 1.498562215884e-01 6.959052870001e-02 -6.781409792035e-02 -1.090104699239e-01 1.460303944887e-01 
676 342 451 2 3 2.198102259633e-03 1.999790792989e-03 -4.431054451991e-04 -7.975887991430e-04 3.227927558732e-01 2.936705871665e-01 -6.507032471823e-02 -1.171264373168e-01 -2.543997364086e-03 -6.504812914095e-02 2.975934186795e-02 7.157757648691e-02 
677 342 318 2 2 1.924991876731e-03 -1.784009469546e-03 -4.980919273704e-04 -5.242216801507e-04 5.320896401470e-01 -4.931204999584e-01 -1.376782715804e-01 -1.449008323206e-01 1.203416424148e-03 1.048471820473e-01 -1.037165064336e-01 1.474838753937e-01 
678 339 206 2 2 1.879247555490e-03 1.050167011370e-03 1.410308970635e-03 6.631359064285e-04 1.086841575285e+00 6.073522169096e-01 8.156362469673e-01 3.835171534825e-01 6.176147680512e-02 -6.496136318119e-02 4.034727641828e-02 9.829731144788e-02 
679 339 219 2 2 1.984233697615e-03 1.956946530053e-03 -3.098158674724e-04 -1.075070859397e-04 5.127635448548e-02 5.057120242678e-02 -8.006228432082e-03 -2.778186589096e-03 -2.626265212801e-03 -1.882887931767e-02 6.455620814889e-03 2.007732565440e-02 
680 339 286 2 2 1.895232792622e-03 -9.918765359955e-04 -1.371757373004e-03 8.522734216101e-04 8.783354288254e-01 -4.596798377365e-01 -6.357335653708e-01 3.949815263647e-01 -1.063993096024e-02 -9.243509123657e-02 -1.611595672032e-01 1.860910001152e-01 
681 339 115 2 2 1.951398269005e-03 1.075930720095e-03 1.050446621189e-03 -1.243740401314e-03 2.775236231847e-01 1.530165299823e-01 1.493922367899e-01 -1.768820583458e-01 -3.426161796297e-02 2.114714265276e-02 -1.177832825871e-02 4.194984057641e-02 
682 339 428 2 3 2.196764891775e-03 -1.095551894606e-03 1.336447105378e-03 -1.356263680295e-03 3.353500101736e-01 -1.672429035886e-01 2.040170762301e-01 -2.070422013243e-01 2.114837481972e-02 -6.033983298735e-03 -2.302888595940e-02 3.184324575944e-02 
683 263 228 2 2 1.944408837641e-03 7.364443433704e-04 1.718968338711e-03 5.324690671997e-04 3.394931296728e-01 1.285829348852e-01 3.001312943143e-01 9.296892020759e-02 -9.923775804317e-02 3.123339018525e-02 3.642254157274e-02 1.102282124436e-01 
684 263 35 2 1 1.737693433808e-03 -6.963180750137e-04 1.048418000406e-03 1.198139935372e-03 3.273816241204e-02 -1.311863979383e-02 1.975220605961e-02 2.257296887552e-02 -1.232256887830e-03 1.162464845123e-02 -1.088815508207e-02 1.597506900590e-02 
685 263 232 2 2 1.971100383957e-03 1.020691572839e-03 -1.904325982309e-04 1.675458403633e-03 1.272507882555e-01 6.589406012326e-02 -1.229399498455e-02 1.081646598453e-01 4.320539340503e-02 4.129679192904e-02 -2.162699203779e-02 6.355987592433e-02 
686 263 106 2 2 1.945681215265e-03 -7.331331066222e-04 -1.802194300155e-03 -1.693941838423e-05 3.279045197867e-01 -1.235544946319e-01 -3.037227537166e-01 -2.854790295126e-03 -6.563122312232e-02 2.652120053367e-02 1.889474944746e-02 7.326556546538e-02 
687 263 368 2 2 1.978217826373e-03 4.336620748882e-04 1.276103786418e-03 -1.448047685566e-03 8.326723430329e-02 1.825372368844e-02 5.371381834820e-02 -6.095128873520e-02 1.224485502620e-02 -5.591966339494e-03 -1.260870206079e-03 1.352022025824e-02 
688 474 149 3 2 2.230064945996e-03 1.183984050606e-03 1.874282660250e-03 2.417352699869e-04 7.684705411602e-02 4.079956800038e-02 6.458695352330e-02 8.330090748158e-03 -4.715415088377e-03 3.830344208522e-03 -6.602973071559e-03 8.972509659799e-03 
689 474 59 3 1 1.947212951399e-03 -1.230276925777e-03 1.419275924192e-03 5.135297605838e-04 3.041578812096e-01 -1.921712891118e-01 2.216932450269e-01 8.021419732497e-02 1.904180706414e-02 3.324239694909e-02 -4.625523120145e-02 6.005991828739e-02 
690 474 133 3 2 2.234605885412e-03 1.945753186741e-03 -1.067766834366e-03 2.595804053296e-04 5.214746126055e-02 4.540670441736e-02 -2.491774052593e-02 6.057649458142e-03 4.990540712655e-03 1.425967989233e-02 2.124834018147e-02 2.607174577400e-02 
691 474 418 3 3 2.467518042415e-03 -6.905197665810e-04 -2.365606134271e-03 1.254406597072e-04 1.695276971275e-01 -4.744128465821e-02 -1.625259687508e-01 8.618241407267e-03 4.432443454227e-02 -1.384417703711e-02 -1.708355114554e-02 4.947892940505e-02 
692 474 45 3 1 1.946818387248e-03 -5.286613560795e-04 -1.195527664900e-03 -1.442682434208e-03 3.075744404596e-01 -8.352228531119e-02 -1.888793299849e-01 -2.279268807862e-01 2.610407903613e-02 -4.203620728457e-02 2.526906134831e-02 5.556069767939e-02 
693 97 105 1 2 1.674115806990e-03 -5.095734970660e-05 -5.245562577609e-04 1.588995851527e-03 5.012748746293e-01 -1.525798811466e-02 -1.570661188713e-01 4.757876921863e-01 8.331687768817e-02 8.964874368700e-02 3.226655170817e-02 1.265690709119e-01 
694 97 82 1 1 1.391002442496e-03 2.120529897690e-04 -1.360070595327e-03 -2.003229899098e-04 8.071943917017e-01 1.230536905298e-01 -7.892447369801e-01 -1.162468080890e-01 3.254408184390e-01 2.229604283894e-02 1.931206510898e-01 3.790836658442e-01 
695 97 120 1 2 1.701023027434e-03 5.716611256448e-04 3.753822610251e-04 -1.557488701530e-03 2.599183045146e-01 8.735048740563e-02 5.735884773866e-02 -2.379860919420e-01 1.847476794594e-02 2.609984482431e-02 1.307150759373e-02 3.454537973857e-02 
696 97 457 1 3 1.878741483198e-03 -1.761077741259e-03 -4.424221705222e-04 -4.822212904466e-04 1.058952220411e+00 -9.926310783582e-01 -2.493711583118e-01 -2.718039234321e-01 -1.351492777762e-02 2.812233196372e-01 -2.086564714569e-01 3.504379144177e-01 
697 210 26 2 1 1.688632470443e-03 1.097875908970e-03 1.179577771930e-03 -5.047220905660e-04 3.645498072569e-01 2.370145416558e-01 2.546527186516e-01 -1.089617451131e-01 -3.183789240389e-02 3.595202327052e-02 1.476882540337e-02 5.024258725186e-02 
698 210 139 2 2 1.918166825882e-03 -1.824902477429e-03 -4.749487730971e-04 -3.514521058726e-04 6.063403404720e-01 -5.768591003462e-01 -1.501332401857e-01 -1.110954410529e-01 -2.729234091099e-02 9.425125945090e-02 1.434431708619e-02 9.916617978500e-02 
699 115 206 2 2 1.940706554909e-03 -2.576370872564e-05 3.598623494457e-04 1.906876307743e-03 3.739662376957e-01 -4.964561590645e-03 6.934400699070e-02 3.674472870480e-01 -1.721593164775e-02 -1.440953733950e-01 2.696082232822e-02 1.476033565911e-01 
700 115 219 2 2 1.979274877934e-03 8.810158099580e-04 -1.360262488661e-03 1.136233315375e-03 7.728016081191e-02 3.439898329960e-02 -5.311101810167e-02 4.436386997629e-02 5.097595816106e-03 -4.958057647345e-03 -9.888217666091e-03 1.217968256363e-02 
701 115 37 2 1 1.749995880224e-03 1.555517651930e-03 2.602585228607e-04 7.583639737048e-04 1.984103319609e-07 1.763608572901e-07 2.950748656038e-08 8.598148685393e-08 2.696220570274e-08 5.856127117557e-08 -7.540080861071e-08 9.920516598043e-08 
702 115 428 2 3 2.193124372036e-03 -2.171482614701e-03 2.860004841888e-04 -1.125232789803e-04 3.703313013875e-01 -3.666768710869e-01 4.829408348089e-02 -1.900069730312e-02 1.300640116872e-02 9.228192306138e-02 -1.644547995726e-02 9.463389248199e-02 
703 115 131 2 2 1.933174595869e-03 1.360633940409e-03 1.165181226550e-03 -7.267681938671e-04 4.474399319128e-01 3.149234212760e-01 2.696852161142e-01 -1.682130066654e-01 -9.034766140856e-02 1.046861324073e-02 -1.523625605660e-01 1.774447566072e-01 
704 184 483 2 3 2.171502554925e-03 -1.655050634291e-03 1.395389233008e-03 -1.706447549231e-04 6.004604140385e-01 -4.576519548031e-01 3.858507993448e-01 -4.718641475334e-02 -2.901214399268e-02 -3.671277344611e-02 -1.882297230133e-02 5.043646021891e-02 
705 184 418 2 3 2.171960602995e-03 1.872114317984e-03 -1.095369101084e-03 -1.129928039839e-04 5.952123857465e-01 5.130413636697e-01 -3.001791353996e-01 -3.096497990741e-02 -2.425078183206e-02 -3.988987032607e-02 -1.509923188809e-02 4.906413127435e-02 
706 349 122 2 2 1.976134738006e-03 4.654166659765e-04 5.324128803785e-04 1.845272975630e-03 9.549304419119e-02 2.249039673087e-02 2.572786447004e-02 8.916939235859e-02 4.327425458388e-02 -1.450307003602e-02 -6.730135952992e-03 4.613344643754e-02 
707 349 40 2 1 1.691791293928e-03 1.424173161643e-03 -7.100519519411e-04 5.742079879362e-04 3.367680438140e-01 2.834959675111e-01 -1.413429704478e-01 1.143018654450e-01 -3.890620227842e-02 -3.417976902285e-02 5.423079798446e-02 7.498618963660e-02 
708 349 465 2 3 2.217734394250e-03 -1.992956688092e-03 -9.324828784061e-04 2.773899138502e-04 1.582380480602e-01 -1.421998851665e-01 -6.653378822599e-02 1.979210794270e-02 8.446617477136e-03 -1.519240479092e-02 9.614932973976e-03 1.986457767561e-02 
709 349 405 2 3 2.202496361494e-03 -7.397572946994e-04 2.072389559061e-03 -9.460910542489e-05 2.826776588105e-01 -9.494356667714e-02 2.659792038437e-01 -1.214253103489e-02 -5.080655092836e-02 -2.177229620163e-02 -7.965578601998e-02 9.695557098789e-02 
710 349 398 2 2 1.964691489776e-03 2.443836822906e-05 -7.826844597683e-04 -1.801893574158e-03 1.718468094222e-01 2.137564920245e-03 -6.845951534652e-02 -1.576072697667e-01 -3.298856502118e-02 7.027678541753e-02 -3.097338007695e-02 8.358482077608e-02 
711 384 185 2 2 1.971450980766e-03 1.174630376410e-03 1.566605707596e-03 -2.293665304785e-04 1.249421974016e-01 7.444308876826e-02 9.928482192996e-02 -1.453627739567e-02 2.085652781592e-03 -5.971304392714e-03 -3.010381862034e-02 3.076111700186e-02 
712 384 29 2 1 1.686335442792e-03 -4.956743627299e-04 1.578113445067e-03 3.280123568524e-04 3.852082191896e-01 -1.132264872812e-01 3.604871571974e-01 7.492759308082e-02 5.473116297239e-02 3.575144568536e-02 -8.929847365609e-02 1.106701561678e-01 
713 384 147 2 2 1.976576045492e-03 1.551836455919e-03 -1.220532714582e-03 9.463810187972e-05 9.285657513109e-02 7.290294688580e-02 -5.733879451287e-02 4.445955943614e-03 1.193738709772e-02 1.509899346361e-02 -1.014992977201e-03 1.927462126939e-02 
714 384 14 2 1 1.682783847599e-03 -4.120580129249e-04 -1.601111031963e-03 3.137086786306e-04 4.178875496707e-01 -1.023268161203e-01 -3.976056502163e-01 7.790361858442e-02 4.689636128727e-02 -2.845592596592e-02 -8.363515999911e-02 1.000192402123e-01 
715 228 249 2 2 1.893107937641e-03 -2.538829641350e-04 -2.408062058622e-04 1.860487429492e-03 9.051916494042e-01 -1.213944194579e-01 -1.151417530597e-01 8.895941174366e-01 1.412537712604e-01 -1.367331998221e-01 1.577932265230e-03 1.965987937377e-01 
716 228 392 2 2 1.866987543444e-03 1.725453194255e-03 4.255673206688e-04 5.721417808463e-04 1.256495176410e+00 1.161241607270e+00 2.864096697033e-01 3.850552674442e-01 8.169060615001e-02 -1.863196464834e-01 -1.077735740642e-01 2.302249097414e-01 
717 228 35 2 1 1.716264434307e-03 -1.432762418384e-03 -6.705503383042e-04 6.656708681721e-04 1.485870495207e-01 -1.240426219622e-01 -5.805346444993e-02 5.763102018339e-02 -3.049253964428e-02 3.835556220384e-02 -2.699416558936e-02 5.594308806096e-02 
718 228 178 2 2 1.979749944570e-03 9.465540009594e-04 1.466016342955e-03 -9.350087959382e-04 7.463828628194e-02 3.568590502992e-02 5.527008489107e-02 -3.525064080884e-02 -2.215692671952e-02 -4.592547251168e-03 -2.963124740180e-02 3.728312908669e-02 
719 228 220 2 2 1.848617245894e-03 -1.416991289585e-03 7.258095946880e-04 -9.395327771382e-04 1.525586921311e+00 -1.169383972698e+00 5.989804690381e-01 -7.753573218729e-01 7.694377700551e-02 -1.468104849433e-01 -2.294599249238e-01 2.830645164185e-01 
720 177 368 2 2 1.965317646287e-03 -4.362723008911e-04 4.760392963327e-04 1.856212950777e-03 1.672958601585e-01 -3.713727904433e-02 4.052240801872e-02 1.580084231291e-01 -7.994322382313e-02 7.894995098526e-03 -2.081406773867e-02 8.298479016465e-02 
721 177 452 2 3 2.203850864030e-03 1.090266869425e-03 -1.035086963618e-03 1.611481232304e-03 2.706739587272e-01 1.339050905998e-01 -1.271279697924e-01 1.979199281046e-01 -5.917455744152e-02 -1.161713324502e-01 -3.458394125799e-02 1.348831187532e-01 
722 177 212 2 2 1.924478272136e-03 3.259908297504e-04 1.888688473563e-03 -1.737885170874e-04 5.375640672143e-01 9.105894249493e-02 5.275669111205e-01 -4.854430597282e-02 -2.851206625442e-03 1.288848769911e-02 1.347204715635e-01 1.353656084561e-01 
723 177 273 2 2 1.867104307494e-03 -1.440991786939e-03 1.153757098950e-03 2.801173355234e-04 1.254841039149e+00 -9.684598895038e-01 7.754155732811e-01 1.882608952167e-01 -6.283384109643e-03 -5.748810140490e-02 2.044607489501e-01 2.124819064773e-01 
724 177 278 2 2 1.868294585716e-03 1.361947532216e-03 -8.510623774791e-04 -9.546289374130e-04 1.238020380608e+00 9.024908679253e-01 -5.639541946668e-01 -6.325822969629e-01 -1.678432263412e-03 -2.043653141106e-01 1.797993825765e-01 2.722054678387e-01 
725 177 158 2 2 1.967049164394e-03 2.967777038521e-04 3.285310972660e-04 -1.916578390718e-03 1.549251736048e-01 2.337426950154e-02 2.587517292390e-02 -1.509500856836e-01 2.313793358765e-02 7.218369848710e-02 1.595625445194e-02 7.746258680239e-02 
726 273 132 2 2 1.930650263544e-03 9.128147433368e-04 1.214766754761e-03 1.191016967132e-03 4.730309778617e-01 2.236498545597e-01 2.976314854787e-01 2.918125210198e-01 -7.449799262111e-02 -1.260765516883e-01 1.856870856393e-01 2.364845482551e-01 
727 273 368 2 2 1.988175056188e-03 1.004719486048e-03 -6.777178026169e-04 1.576095615253e-03 3.330588906342e-02 1.683105098720e-02 -1.135312198994e-02 2.640273830595e-02 -1.423378657501e-02 -5.394938522475e-03 6.753852208323e-03 1.665294453171e-02 
728 273 179 2 2 1.847592286763e-03 -1.461020315012e-03 1.054234970007e-03 4.093965378976e-04 1.541106935285e+00 -1.218660933037e+00 8.793546256598e-01 3.414843460628e-01 1.541065386621e-01 1.952410467081e-01 4.719835874300e-02 2.531710422741e-01 
729 273 212 2 2 1.966820331426e-03 1.766982616690e-03 7.349313746139e-04 -4.539058526108e-04 1.565418379643e-01 1.406364892858e-01 5.849416254321e-02 -3.612696863824e-02 6.237993275982e-03 2.958985293052e-02 7.219324623352e-02 7.827091898205e-02 
730 273 62 2 1 1.647356390909e-03 3.247645756849e-04 -4.809921185456e-04 -1.541738509264e-03 7.885819489611e-01 1.554633128935e-01 -2.302487211454e-01 -7.380231534188e-01 1.648816048525e-01 -9.203771374053e-02 6.344598570363e-02 1.992041100761e-01 
731 273 497 2 3 2.185756521696e-03 -1.130866513916e-03 7.142677184654e-04 -1.728726157088e-03 4.445746311063e-01 -2.300139829227e-01 1.452793594785e-01 -3.516163790168e-01 -6.979484110162e-02 -2.050031418260e-01 -3.904521110881e-02 2.200503045066e-01 
732 286 440 2 3 2.189773716759e-03 1.957272305074e-03 3.506401574246e-04 9.171943820152e-04 4.035340768254e-01 3.606884431387e-01 6.461638074352e-02 1.690216598105e-01 7.640197488896e-02 -1.536191842730e-01 -1.043120372802e-01 2.007912265643e-01 
733 286 391 2 2 1.929363058058e-03 -1.057722421817e-03 -1.021421556646e-03 1.249144944273e-03 4.862618310804e-01 -2.665802268056e-01 -2.574312358504e-01 3.148248875970e-01 6.680406132527e-02 -6.581459905014e-02 2.750444047789e-03 9.381848964965e-02 
734 286 179 2 2 1.860203394734e-03 1.890615682311e-04 -1.145335310479e-03 -1.453554064962e-03 1.353839849975e+00 1.375973648336e-01 -8.335650764316e-01 -1.057884004948e+00 -1.554291270237e-03 -1.956731682335e-01 1.539795026665e-01 2.489981763574e-01 
735 178 216 2 2 1.966214927624e-03 1.209582886342e-03 7.840933443600e-04 1.337201559231e-03 1.608457694695e-01 9.894965568491e-02 6.414257950016e-02 1.093894724877e-01 -5.464191280302e-02 -8.198594037054e-03 5.423444589398e-02 7.742306310386e-02 
736 178 392 2 2 1.990156019611e-03 7.788991932955e-04 -1.040449022286e-03 1.507150576784e-03 2.529755019253e-02 9.900852618158e-03 -1.322550147058e-02 1.915790369609e-02 -6.037054258238e-03 -7.995431895269e-03 -2.399615978265e-03 1.030199554222e-02 
737 178 245 2 2 1.987113069137e-03 4.533654351025e-04 6.530129803605e-04 -1.821167806455e-03 3.789192062677e-02 8.645148254844e-03 1.245219328703e-02 -3.472753868012e-02 -1.732200061682e-02 7.457285205604e-03 -1.638230312976e-03 1.893004507562e-02 
738 178 132 2 2 1.961064590175e-03 -1.341241012153e-03 -1.639633787011e-05 -1.430586604949e-03 1.989937742366e-01 -1.360988375938e-01 -1.663774448215e-03 -1.451649422040e-01 3.759460003250e-03 4.647614581485e-04 -3.529994146040e-03 5.177876147621e-03 
739 142 147 2 2 1.901406102476e-03 -2.647498934334e-04 -5.999749282231e-04 1.784736043779e-03 8.018578895610e-01 -1.116498945352e-01 -2.530204510799e-01 7.526559821306e-01 3.674314026844e-02 -3.258436054000e-01 -1.040883619727e-01 3.440327028569e-01 
740 142 61 2 1 1.685340497764e-03 5.747899904362e-04 1.573112146230e-03 1.879021971136e-04 3.942734075087e-01 1.344680249670e-01 3.680183838877e-01 4.395838089256e-02 -2.772095154449e-03 -1.742772119533e-03 2.307023877424e-02 2.330145238620e-02 
741 142 35 2 1 1.711753510621e-03 1.469375441630e-03 -6.434096533016e-04 5.975449026620e-04 1.793644305939e-01 1.539670798286e-01 -6.741905618244e-02 6.261316279197e-02 4.243206030789e-02 5.004293447340e-02 -5.045732980939e-02 8.276905922007e-02 
742 142 16 2 1 1.722509365447e-03 -1.402473698975e-03 -8.357603679844e-04 5.491909003630e-04 1.093014950417e-01 -8.899369439125e-02 -5.303301076310e-02 3.484880121821e-02 -9.561616177027e-03 1.765562111294e-02 2.450792943912e-03 2.022750223963e-02 
743 142 471 2 3 2.201143141550e-03 -2.100773370344e-05 -2.175723413294e-03 3.328925255408e-04 2.948420351726e-01 -2.813975539602e-03 -2.914370751447e-01 4.459078915471e-02 8.943416003455e-02 6.531741949455e-03 4.833413700234e-02 1.018691387700e-01 
744 142 391 2 2 1.891020080735e-03 -1.113168199575e-03 1.440142659167e-03 -5.126427863967e-04 9.318415632060e-01 -5.485380117172e-01 7.096618383005e-01 -2.526159612523e-01 5.306278809271e-02 -4.232102814736e-02 -2.341125817787e-01 2.437528048059e-01 
745 142 220 2 2 1.946270947473e-03 1.485146570429e-03 7.529502796906e-04 -1.007658742648e-03 3.225790291201e-01 2.461513076645e-01 1.247955586624e-01 -1.670114735617e-01 6.458321948333e-02 -1.469933190825e-01 -1.465090626375e-02 1.612224461670e-01 
746 61 145 1 2 1.703547121828e-03 5.147905953310e-04 -5.785969711816e-04 1.517329556882e-03 2.400865853439e-01 7.255115788492e-02 -8.154360353250e-02 2.138423219912e-01 1.065949746692e-02 2.592216668220e-03 -2.628012030389e-03 1.128055498342e-02 
747 61 92 1 1 1.420403123710e-03 -2.142971904280e-04 1.399562716199e-03 1.133399816755e-04 5.037290732618e-01 -7.599794969117e-02 4.963382706180e-01 4.019467641256e-02 2.352642855963e-02 7.370895945719e-03 -4.653594893823e-02 5.266324611525e-02 
748 61 220 1 2 1.711952262987e-03 9.103565799930e-04 -8.201618665398e-04 -1.195560939762e-03 1.779681204863e-01 9.463724720397e-02 -8.526094391672e-02 -1.242860201049e-01 6.319558318276e-03 2.677878335024e-02 -1.355839330560e-02 3.067360565840e-02 
749 105 29 2 1 1.674115806986e-03 4.783071182011e-04 1.012346703238e-04 1.601136339417e-03 5.012748746752e-01 1.432178943249e-01 3.031235740538e-02 4.794228777544e-01 -7.515899906928e-02 -9.772972643309e-02 2.863136618637e-02 1.265690708644e-01 
750 147 16 2 1 1.696048947619e-03 -1.137723805542e-03 -2.357854397613e-04 -1.235545143416e-03 3.005030166781e-01 -2.015799344658e-01 -4.177605607228e-02 -2.189117497816e-01 1.061979979598e-01 2.662069908327e-02 -1.028701899689e-01 1.502296654279e-01 
751 147 471 2 3 2.156442238986e-03 2.437421597299e-04 -1.575748485071e-03 -1.451843518238e-03 7.813053946300e-01 8.831076522843e-02 -5.709129461983e-01 -5.260206614629e-01 -7.499997631230e-02 -1.661951399241e-01 1.677874238212e-01 2.477870871813e-01 
752 368 220 2 2 1.921173766748e-03 -1.114209021103e-03 1.168674146981e-03 1.040983975628e-03 5.732294754346e-01 -3.324516833125e-01 3.487026940627e-01 3.106031888490e-01 5.526663881345e-02 -2.939640330427e-02 9.215646571161e-02 1.114063017312e-01 
753 368 132 2 2 1.933450244223e-03 -9.190474271151e-05 1.892484557378e-03 -3.850786481211e-04 4.446743292336e-01 -2.113717688921e-02 4.352526286370e-01 -8.856425970468e-02 -8.259711426260e-02 -1.792212463847e-02 -6.836597601376e-02 1.087078309616e-01 
754 368 452 2 3 2.161878355979e-03 1.526539170317e-03 -1.511126259951e-03 -2.447317184729e-04 7.142084511918e-01 5.043147656759e-01 -4.992228830498e-01 -8.085073849071e-02 -9.146862146866e-02 -8.715611904351e-02 -3.238866370163e-02 1.304289972992e-01 
755 391 82 2 1 1.664736400813e-03 -1.414389291233e-03 -1.782204356306e-04 -8.597020957057e-04 5.970276637639e-01 -5.072451913619e-01 -6.391554258534e-02 -3.083166400888e-01 -6.973043341208e-02 1.803415324243e-01 7.733543068496e-02 2.082454573339e-01 
756 185 483 2 3 2.237280476511e-03 5.593411641451e-04 2.165266405213e-03 6.467447041762e-05 3.916583104713e-02 9.791826175846e-03 3.790515274637e-02 1.132191250955e-03 -7.437936147921e-03 1.394359433934e-03 1.764504941500e-02 1.919934637505e-02 
757 185 92 2 1 1.722308605617e-03 1.002448772951e-03 7.855113684745e-04 -1.159489232632e-03 1.105009982824e-01 6.431576186562e-02 5.039735044899e-02 -7.439126605162e-02 9.859084448955e-03 3.616658998004e-03 1.097393016952e-02 1.518910503766e-02 
758 179 306 2 2 1.899746386318e-03 -1.860616598832e-03 -1.789380412635e-04 3.392983670301e-04 8.221904129122e-01 -8.052554491917e-01 -7.744251711266e-02 1.468447928092e-01 -1.714900551932e-02 -2.044507058152e-01 -2.018628435376e-01 2.878242295216e-01 
759 179 497 2 3 2.190010941367e-03 3.301538010960e-04 -3.399672515415e-04 -2.138122694985e-03 4.011521910118e-01 6.047546072890e-02 -6.227302578816e-02 -3.916476340569e-01 -1.103079770103e-01 6.715223847218e-02 -2.771036478391e-02 1.320800410372e-01 
760 14 406 1 3 1.944553979690e-03 -6.440391411909e-05 -1.858986557898e-03 -5.668432705145e-04 3.274263018704e-01 -1.084440732746e-02 -3.130183580589e-01 -9.544574115360e-02 -6.191498718889e-02 -3.647217819407e-02 1.266467474928e-01 1.456127881449e-01 
761 14 284 1 2 1.652882710602e-03 -8.335116044192e-04 1.737664798065e-04 -1.416716228043e-03 7.257612720411e-01 -3.659850988847e-01 7.629880850805e-02 -6.220633594815e-01 1.877993322629e-01 -5.306667383446e-02 -1.169988234406e-01 2.275376578871e-01 
762 29 383 1 2 1.659302016741e-03 1.165319888111e-04 1.623047008913e-03 -3.246873653311e-04 6.550061974797e-01 4.600077267779e-02 6.406946046666e-01 -1.281696968903e-01 -9.201177157236e-02 -4.936667103521e-02 -2.797975906495e-01 2.986468249459e-01 
763 440 45 3 1 1.921610969008e-03 1.704582026664e-03 2.195456612092e-04 8.595280875160e-04 5.504158602777e-01 4.882512630039e-01 6.288547262355e-02 2.461985799171e-01 -1.881874851320e-02 -1.365500062049e-01 7.219899243378e-02 1.556044472327e-01 
764 440 92 3 1 1.927277741475e-03 -1.541333727307e-03 1.604704891914e-04 1.145835527443e-03 4.918232271855e-01 -3.933339298328e-01 4.095056574551e-02 2.924064937831e-01 1.979194504090e-03 4.789954889172e-04 2.595254358485e-03 3.298786557002e-03 
765 440 346 3 2 2.100084028952e-03 1.247020888855e-03 1.686079779840e-03 1.114755911926e-04 1.584794485788e+00 9.410441682695e-01 1.272372867396e+00 8.412325401584e-02 -7.299220551336e-02 5.275208668527e-02 1.864604108319e-02 9.196912288062e-02 
766 440 96 3 1 1.878154933854e-03 -1.281831974743e-03 1.332557380616e-03 3.296415802826e-04 1.066645026274e+00 -7.279802511145e-01 7.567883121029e-01 1.872106212984e-01 4.059604085884e-02 5.969393246125e-02 -8.344908117664e-02 1.103410769176e-01 
767 440 220 3 2 2.107306321107e-03 -4.166799568859e-04 -2.059254093547e-03 -1.630653939941e-04 1.471662410472e+00 -2.909933993003e-01 -1.438104566351e+00 -1.138786556023e-01 4.331026858124e-01 -6.781459231988e-02 -2.503151071719e-01 5.048112600447e-01 
768 440 219 3 2 2.238784772028e-03 9.915507609749e-04 7.113013481065e-04 -1.876974889565e-03 3.242748711688e-02 1.436203244232e-02 1.030278372005e-02 -2.718688272787e-02 -8.802522655966e-03 2.851543934225e-03 -3.569488876721e-03 9.917507688862e-03 
769 440 132 3 2 2.162294731631e-03 6.056243215055e-04 -1.335443683150e-03 -1.589128017743e-03 7.091524715798e-01 1.986223146002e-01 -4.379759959212e-01 -5.211750484121e-01 -1.679462162596e-01 -2.676342047621e-01 1.609046546012e-01 3.545762357898e-01 
770 96 92 1 1 1.451654711016e-03 -2.595017525635e-04 -1.172086891425e-03 8.161939471608e-04 2.384428027735e-01 -4.262468528937e-02 -1.925221482523e-01 1.340646442235e-01 -2.083412644501e-02 7.011237498535e-02 9.406012331701e-02 1.191516376271e-01 
771 96 450 1 3 1.888185500551e-03 -7.547094997121e-04 1.379680482774e-03 -1.045054936828e-03 9.376811255464e-01 -3.747920174919e-01 6.851553237775e-01 -5.189788233923e-01 -4.821914061583e-02 6.170005894639e-02 1.162788733430e-01 1.401882990183e-01 
772 346 430 2 3 2.088273994268e-03 7.752232090243e-04 1.761369525913e-03 8.108604346683e-04 1.775705328275e+00 6.591893528557e-01 1.497731265538e+00 6.894924699920e-01 1.275000794244e-01 -1.173463807947e-01 1.330060191591e-01 2.184423138300e-01 
773 346 45 2 1 1.708703325097e-03 4.575611378092e-04 -1.466534118631e-03 7.480524963234e-04 2.012433686024e-01 5.388948646720e-02 -1.727217720413e-01 8.810224808513e-02 8.011174656697e-02 4.553029559977e-02 4.025881894151e-02 1.005568110969e-01 
774 346 206 2 2 1.841037909770e-03 -1.162249646564e-03 7.453464063738e-04 -1.217807488389e-03 1.641582433348e+00 -1.036333142755e+00 6.645966174672e-01 -1.085871925575e+00 -1.889944319965e-01 -1.524510619231e-01 8.706619215090e-02 2.579549251765e-01 
775 145 249 2 2 1.974020715527e-03 1.558674310112e-03 -1.208180695908e-03 8.712970998647e-05 1.084583852843e-01 8.563805715366e-02 -6.638092821375e-02 4.787157288213e-03 -3.148994215955e-03 -3.078504584127e-03 1.364478988842e-02 1.433783966104e-02 
776 26 67 1 1 1.439555427336e-03 -7.317946960734e-04 4.062611969045e-04 1.171216543198e-03 3.333411542115e-01 -1.694532103474e-01 9.407319351235e-02 2.712050310308e-01 3.517245483920e-02 7.034706710114e-02 -2.425057762520e-03 7.868730732653e-02 
777 26 25 1 1 1.432012298078e-03 8.771273414442e-04 -1.071782775307e-04 -1.126862753650e-03 3.976477351059e-01 2.435647383704e-01 -2.976175509794e-02 -3.129124116919e-01 1.695181241643e-02 7.888709998005e-02 5.691833048393e-03 8.088841357645e-02 
778 452 138 3 2 2.162054586720e-03 5.530169297473e-04 6.982483210261e-04 1.970051165212e-03 7.120670521129e-01 1.821346867708e-01 2.299662675724e-01 6.488312248639e-01 1.204903721973e-01 6.077330154193e-02 -5.536306538115e-02 1.458642964572e-01 
779 452 141 3 2 2.189955304696e-03 -1.147927975393e-03 -9.834232797125e-04 -1.584627480765e-03 4.017104090853e-01 -2.105680493144e-01 -1.803924341059e-01 -2.906732170200e-01 -3.296755050976e-02 -1.881346040849e-02 3.555786400763e-02 5.201122351897e-02 
780 452 456 3 3 2.371695980063e-03 1.319557472053e-03 -1.209760919068e-03 -1.555695477428e-03 1.330876493613e+00 7.404692828633e-01 -6.788569798211e-01 -8.729780543268e-01 1.226602074040e-01 5.915807710971e-02 5.803839168582e-02 1.480326297719e-01 
781 249 418 2 3 2.232693026738e-03 7.962952475986e-04 2.075337085936e-03 -2.093036312046e-04 6.216311442372e-02 2.217062175532e-02 5.778197683060e-02 -5.827476245079e-03 2.350132745651e-02 -7.207071050425e-03 1.794949048440e-02 3.043745183148e-02 
782 249 35 2 1 1.732634815021e-03 -1.178879454249e-03 -4.297441324419e-04 -1.194816561320e-03 5.487418112283e-02 -3.733622580686e-02 -1.361040258204e-02 -3.784096904092e-02 9.823136010378e-03 1.930756554305e-02 -1.663653389348e-02 2.731392224245e-02 
783 249 232 2 2 1.894358993273e-03 5.381301936032e-04 -1.668594731079e-03 -7.174980930589e-04 8.893468089669e-01 2.526365763771e-01 -7.833570114290e-01 -3.368446222535e-01 -1.800772704224e-02 7.348547940530e-02 -1.844018635036e-01 1.993199467697e-01 
784 40 450 1 3 1.929765619232e-03 1.177539228510e-03 1.112841601928e-03 1.048322602785e-03 4.668019165768e-01 2.848416218191e-01 2.691915471232e-01 2.535846816285e-01 4.642928322910e-02 -7.401474885228e-02 2.641781186587e-02 9.127848691019e-02 
785 40 120 1 2 1.657387421137e-03 -8.556951792818e-04 -1.414225554813e-03 -1.211812857384e-04 6.758556077980e-01 -3.489385632518e-01 -5.766981574262e-01 -4.941575547270e-02 4.344526754776e-02 -3.952053864129e-02 1.544384477159e-01 1.652289271880e-01 
786 40 428 1 3 1.938960139281e-03 1.153133039281e-03 7.581680594938e-04 -1.361995524590e-03 3.782058891668e-01 2.249255658296e-01 1.478852603876e-01 -2.656654554073e-01 -6.113408359977e-03 9.763389891956e-02 4.917294463842e-02 1.094884946669e-01 
787 306 82 2 1 1.708078831998e-03 -8.005566824488e-04 1.246313594659e-04 1.503698546499e-03 2.058254267323e-01 -9.646798362089e-02 1.501821945553e-02 1.811973716973e-01 -1.867265161659e-02 1.516786810929e-02 -1.119832701150e-02 2.653553597031e-02 
788 306 120 2 2 1.917243015989e-03 -4.409485465730e-04 1.860084215818e-03 1.465328348791e-04 6.166366519293e-01 -1.418208506508e-01 5.982528524465e-01 4.712888034749e-02 1.153211470653e-01 1.693987753974e-02 1.319915316065e-01 1.760900077442e-01 
789 306 492 2 3 2.140886242314e-03 -1.214214724782e-03 -1.669728648301e-03 -5.666416378063e-04 9.840572662390e-01 -5.581131771881e-01 -7.674899191429e-01 -2.604565389864e-01 -5.319080986731e-02 -5.272647058404e-03 1.295156399485e-01 1.401119696978e-01 
790 306 261 2 2 1.949017835340e-03 2.005118074903e-04 -5.807282641050e-04 -1.849654081390e-03 2.981602643137e-01 3.067424650267e-02 -8.883966558970e-02 -2.829596219163e-01 -1.001343792149e-01 -6.566980275152e-02 9.763006700648e-03 1.201446344787e-01 
791 16 284 1 2 1.660367751709e-03 -1.659682267722e-03 2.897360218617e-05 3.789949212410e-05 6.434953270427e-01 -6.432296595468e-01 1.122906512440e-02 1.468840023786e-02 8.719085996633e-03 1.251219326807e-01 2.861695165322e-01 3.124492161786e-01 
792 16 471 1 3 1.936681223886e-03 1.381465965272e-03 -1.339963045310e-03 -2.162983748222e-04 3.995827909150e-01 2.850288520120e-01 -2.764658255392e-01 -4.462743130664e-02 9.827112224949e-02 1.122952484291e-01 -6.802303676205e-02 1.639956396318e-01 
793 16 463 1 3 1.932875308876e-03 -4.729794737631e-04 2.742948867255e-04 -1.853930875782e-03 4.361455556157e-01 -1.067259198935e-01 6.189354027341e-02 -4.183320611412e-01 1.639992739995e-01 -8.460667958672e-02 -5.435772779256e-02 1.923767519058e-01 
794 383 483 2 3 2.185208230349e-03 2.113113914474e-03 5.307116588297e-04 -1.680170515822e-04 4.502781426570e-01 4.354225814352e-01 1.093570199422e-01 -3.462114267666e-02 -5.032904644425e-03 4.952013491390e-02 9.312038264631e-02 1.055887283532e-01 
795 383 429 2 3 2.151844877032e-03 -1.229080943536e-03 6.116389920183e-04 -1.657013624714e-03 8.395963855680e-01 -4.795568345923e-01 2.386463320160e-01 -6.465255302538e-01 1.698706995728e-04 2.394983191868e-01 8.827792575918e-02 2.552498108240e-01 
796 278 456 2 3 2.015346543974e-03 1.047876809262e-03 -1.393785505207e-03 1.010414692288e-03 3.103426990058e+00 1.613622819283e+00 -2.146286735721e+00 1.555935001142e+00 -3.826713089741e-01 -2.959229779683e-01 -1.134263692489e-02 4.838764253547e-01 
797 278 290 2 2 1.898841424295e-03 -8.651953703732e-04 -1.492988367728e-03 -7.924780498750e-04 8.333480523910e-01 -3.797098944720e-01 -6.552305698461e-01 -3.477963093580e-01 3.924430872335e-02 -1.810418214340e-01 2.982282465719e-01 3.510788286534e-01 
798 278 470 2 3 2.115493717305e-03 2.999734217337e-04 -1.212443921766e-04 -2.090605034811e-03 1.346836733124e+00 1.909791648384e-01 -7.719068117899e-02 -1.330991263318e+00 1.739297104434e-01 -2.411775233914e-02 2.635525677735e-02 1.775607211988e-01 
799 120 87 2 1 1.705740495327e-03 -1.130019801005e-03 8.098002996921e-04 9.883467819313e-04 2.232845987548e-01 -1.479216906344e-01 1.060043631980e-01 1.293764293213e-01 -7.824523129021e-02 -2.357215161342e-02 -7.014736781846e-02 1.076968697930e-01 
800 45 418 1 3 1.963235036160e-03 -1.618584105015e-04 -1.170078469371e-03 1.568123093916e-03 1.767906106122e-01 -1.457545668156e-02 -1.053663383416e-01 1.412105194652e-01 8.377080729174e-02 -2.606663197482e-02 -1.080335796552e-02 8.839530530607e-02 
801 67 261 1 2 1.675921840462e-03 -6.815036003166e-04 9.396396193312e-04 -1.208860721455e-03 4.834863856403e-01 -1.966068491757e-01 2.710764621515e-01 -3.487440087288e-01 -1.545499605790e-01 3.871742024033e-03 9.013809022904e-02 1.789568551674e-01 
802 82 463 1 3 1.937666944304e-03 6.521043180697e-04 -1.823387704795e-03 6.760490668309e-05 3.902883595845e-01 1.313480241408e-01 -3.672700297039e-01 1.361710184857e-02 -1.674787060152e-01 -6.278928676767e-02 -7.803614166062e-02 1.951441797918e-01 
803 261 492 2 3 2.198520850091e-03 -1.414726532272e-03 -1.089000384196e-03 1.283012443583e-03 3.188953257757e-01 -2.052060040158e-01 -1.579594445391e-01 1.861008828522e-01 -7.951648790085e-02 -5.865461316133e-03 -9.265816198935e-02 1.222407888873e-01 
804 261 318 2 2 1.940038846991e-03 -3.611998744750e-05 1.939701767537e-03 -1.768432056562e-06 3.803008682367e-01 -7.080509036348e-03 3.802347914110e-01 -3.466612266922e-04 -8.535495106877e-02 -1.700056099210e-03 -1.213402870865e-01 1.483638201616e-01 
805 261 497 2 3 2.128700998853e-03 1.990258592437e-03 4.196990538270e-04 -6.277669806255e-04 1.153418577919e+00 1.078404734445e+00 2.274103719029e-01 -3.401502129458e-01 1.676372784786e-01 -3.075795908004e-01 3.258385309238e-01 4.784121758977e-01 
806 92 483 1 3 1.897009511376e-03 -4.431076088055e-04 1.379755036739e-03 1.224163703049e-03 8.289029208614e-01 -1.936169476179e-01 6.028873198409e-01 5.349013080773e-01 1.059124322619e-01 -1.528982865711e-01 2.106685445606e-01 2.810276943849e-01 
807 212 245 2 2 1.943852099125e-03 9.404385739026e-04 1.149244698378e-03 1.254341618237e-03 3.446058516748e-01 1.667208301771e-01 2.037379532349e-01 2.223695217544e-01 2.571608186806e-02 6.263206246146e-02 -7.666488913564e-02 1.022819502209e-01 
808 212 132 2 2 1.914579805289e-03 -8.541678733530e-04 4.798353801471e-04 1.644922819743e-03 6.466409235606e-01 -2.884914491289e-01 1.620622929993e-01 5.555654605810e-01 -2.985264716147e-03 -2.128625148879e-01 6.054329561275e-02 2.213252192894e-01 
809 212 316 2 2 1.919943476708e-03 1.388336442230e-03 -1.138721701668e-03 6.797188853354e-04 5.867018337323e-01 4.242518315644e-01 -3.479738432845e-01 2.077104463161e-01 -7.434101570247e-02 -1.976992728250e-02 1.187224567947e-01 1.414653964325e-01 
810 212 451 2 3 2.137038831774e-03 -1.140427447956e-03 1.554325539733e-03 -9.221888749000e-04 1.036560997882e+00 -5.531591639279e-01 7.539185570917e-01 -4.473035333704e-01 4.526207828302e-02 -5.077865992853e-02 -1.415595959271e-01 1.570549178908e-01 
811 428 450 3 3 2.436395382307e-03 2.440618922898e-05 3.546735424340e-04 2.410318127375e-03 4.645263248612e-01 4.653315906251e-03 6.762252070777e-02 4.595544013860e-01 -7.856987268426e-02 -1.079505349610e-01 1.668028357505e-02 1.345539845272e-01 
812 428 399 3 2 2.171559260621e-03 -1.456807955174e-03 1.562667176437e-03 -3.891677014030e-04 5.998099114114e-01 -4.023872921094e-01 4.316268395993e-01 -1.074926430679e-01 3.929933753158e-02 5.485879355258e-03 -1.250848508927e-01 1.312278656596e-01 
813 463 284 3 2 2.246657115532e-03 -1.186702793958e-03 -2.453212845393e-04 1.891830367906e-03 5.276953394577e-03 -2.787330248858e-03 -5.762111967429e-04 4.443535514553e-03 2.200569557766e-03 -3.499184920245e-05 1.375830434810e-03 2.595503841921e-03 
814 463 499 3 3 2.393203808161e-03 -6.768517721934e-04 -2.294823595101e-03 -5.550507404852e-05 1.010673744991e+00 -2.858412280114e-01 -9.691268035945e-01 -2.344034422112e-02 2.661542756625e-01 -8.566546924084e-02 2.961917867685e-01 4.073159039649e-01 
815 463 492 3 3 2.389037720114e-03 -1.065762360403e-03 2.902769702824e-05 -2.137945090989e-03 1.070386044138e+00 -4.775048745938e-01 1.300558862294e-02 -9.578863361010e-01 -3.605643678073e-01 3.482743286547e-01 1.844694398519e-01 5.341635007855e-01 
816 232 364 2 2 1.968124866060e-03 1.703968322652e-03 7.617285393849e-04 6.243212923582e-04 1.474009816467e-01 1.276172095505e-01 5.704898931457e-02 4.675799434449e-02 -1.247219297825e-03 -3.351944520033e-02 4.430081201077e-02 5.556681300316e-02 
817 232 163 2 2 1.995172056653e-03 1.244273660810e-03 -1.418314086598e-03 6.487524523426e-04 8.688914184760e-03 5.418774298228e-03 -6.176715108051e-03 2.825297380625e-03 2.172460660177e-03 2.334255050441e-03 9.365224578343e-04 3.323462994311e-03 
818 232 402 2 3 2.209878786780e-03 -1.559564615140e-03 -1.492220149290e-03 4.739213959270e-04 2.194129019323e-01 -1.548449625409e-01 -1.481585122389e-01 4.705437664285e-02 -2.604455473674e-02 5.563368150762e-02 8.946533093969e-02 1.085240562717e-01 
819 232 366 2 2 1.888315710261e-03 5.064415178600e-04 -1.048626083611e-03 -1.486484627360e-03 9.667417828814e-01 2.592777114763e-01 -5.368544275394e-01 -7.610204115080e-01 1.313788883721e-01 -7.117655665888e-02 9.497125957887e-02 1.770481704896e-01 
820 483 34 3 1 1.952376098172e-03 1.101793782362e-03 1.545976815460e-03 4.558273531977e-04 2.606426337524e-01 1.470897095880e-01 2.063882411175e-01 6.085305079541e-02 1.012129165237e-02 4.798214194444e-04 -2.609182825145e-02 2.799025321090e-02 
821 483 244 3 2 2.145010198070e-03 -5.367445581248e-04 2.072931733208e-03 -1.262064127031e-04 9.287990759727e-01 -2.324128109359e-01 8.975887760768e-01 -5.464794508015e-02 3.590521960920e-02 7.728778206051e-04 -1.400072140170e-01 1.445399671790e-01 
822 318 123 2 2 1.895689216971e-03 -1.568269896979e-03 -1.019452799113e-03 -3.080310503010e-04 8.726019107498e-01 -7.218880059159e-01 -4.692628161102e-01 -1.417893189752e-01 -6.028552883137e-02 6.453138123575e-02 9.335839002290e-02 1.285084944210e-01 
823 245 219 2 2 1.972812047107e-03 -1.408680007786e-03 1.377335713026e-03 1.027343296841e-04 1.161146728535e-01 -8.291130343575e-02 8.106645838968e-02 6.046679966083e-03 -1.008972063012e-02 -9.316602822897e-03 -1.344339277595e-02 1.921786564325e-02 
824 245 132 2 2 1.954808126348e-03 -1.794606447256e-03 -6.694093182307e-04 3.905812015059e-04 2.488358074086e-01 -2.284430570267e-01 -8.521194788562e-02 4.971873572928e-02 4.044272695450e-02 -4.498596982625e-02 1.087219532451e-01 1.244179037042e-01 
825 418 392 3 2 2.132860938678e-03 1.183040910791e-03 -1.408963559405e-03 -1.079042017441e-03 1.094595633194e+00 6.071429183962e-01 -7.230876291495e-01 -5.537701304880e-01 -1.381000886399e-02 5.150473304633e-02 -8.239354533746e-02 9.814351829985e-02 
826 132 220 2 2 1.898068005808e-03 -1.022304278391e-03 -7.238104103970e-04 1.426062623749e-03 8.429234469561e-01 -4.540007225995e-01 -3.214409411084e-01 6.333079840700e-01 -8.172202485574e-02 2.251903053505e-02 -4.715449780681e-02 9.700073580223e-02 
827 471 402 3 3 2.372920154963e-03 1.647828208046e-03 -1.198756987934e-03 1.215892241309e-03 1.311874763926e+00 9.110058915799e-01 -6.627357592548e-01 6.722090263722e-01 -1.847131982870e-01 1.985635123610e-01 4.460962888809e-01 5.220616180259e-01 
828 471 106 3 2 2.180385935662e-03 1.453568143725e-03 -1.318298540569e-03 -9.504269766349e-04 5.014718802447e-01 3.343094165924e-01 -3.031984553974e-01 -2.185908444982e-01 -8.102615316626e-02 7.335022064048e-02 -2.256612334298e-01 2.507358862189e-01 
829 471 198 3 2 2.157956519194e-03 -2.658581058861e-04 -2.035517539888e-03 -6.654052532658e-04 7.624136424511e-01 -9.392860564193e-02 -7.191555196112e-01 -2.350900207378e-01 -1.228478439539e-01 3.511681138865e-02 -5.834157501569e-02 1.404582592144e-01 
830 471 332 3 2 2.158192315669e-03 -4.885225205269e-04 -3.584402721747e-04 -2.071390931146e-03 7.594857588711e-01 -1.719151229176e-01 -1.261381018485e-01 -7.289396324129e-01 -1.076534323447e-01 3.180133112744e-01 -2.964078423725e-02 3.370464415084e-01 
831 37 173 1 2 1.749994293385e-03 1.708353032022e-03 -8.833944938420e-05 3.690610878170e-04 3.237088675930e-07 3.160061878690e-07 -1.634077507112e-08 6.826784936470e-08 -2.298658929821e-08 -1.429754438290e-07 7.218002227683e-08 1.618033264230e-07 
832 37 131 1 2 1.749994947371e-03 -1.948837115210e-04 9.049227036888e-04 -1.485132167572e-03 2.696188489787e-07 -3.002541353844e-08 1.394199555546e-07 -2.288118752591e-07 3.077167781338e-08 -1.101653065418e-07 -7.116402710687e-08 1.347130642327e-07 
833 206 432 2 3 2.121040058218e-03 -4.361997122181e-04 2.075698938856e-03 -3.828166669888e-06 1.264396583548e+00 -2.600278216039e-01 1.237367788786e+00 -2.282050657131e-03 2.710217269198e-01 5.665548861378e-02 -1.619212915152e-01 3.207508776272e-01 
834 206 450 2 3 2.175233354308e-03 -2.121312716747e-03 2.808116771771e-04 3.909185406516e-04 5.581654168456e-01 -5.443293679079e-01 7.205634583353e-02 1.003097942404e-01 -4.505891287433e-02 -1.780105819605e-01 -1.166396321939e-01 2.175382189815e-01 
835 392 490 2 3 2.112608728031e-03 1.969475892390e-03 -7.408761602135e-04 -1.881033287155e-04 1.390400184062e+00 1.296198206015e+00 -4.876029980659e-01 -1.237990260092e-01 4.046660583939e-04 -2.519506768774e-02 1.034718793209e-01 1.064959388926e-01 
836 392 138 2 2 1.874547000219e-03 5.132063732677e-05 -1.681309811886e-03 -8.273390868732e-04 1.150916802993e+00 3.150936403984e-02 -1.032274844702e+00 -5.079619005254e-01 2.165172778343e-01 -7.014382156238e-02 1.559763126989e-01 2.759139311947e-01 
837 451 222 3 2 2.231385047494e-03 3.561446258626e-04 2.087777761867e-03 -7.024416365089e-04 6.934162133658e-02 1.106740668329e-02 6.487893927627e-02 -2.182879284979e-02 5.134664042001e-03 -9.543871715317e-03 -2.576270993271e-02 2.794937361051e-02 
838 451 422 3 3 2.374176466052e-03 2.158235336215e-03 8.769742237914e-04 -4.578758961490e-04 1.292469137451e+00 1.174913745165e+00 4.774127512411e-01 -2.492613641054e-01 -3.501439800492e-02 1.162620727060e-01 5.763467812473e-02 1.344047385328e-01 
839 451 497 3 3 2.386099508176e-03 -1.757421682649e-03 -1.574989195882e-03 -3.526314295767e-04 1.113180930877e+00 -8.198854649320e-01 -7.347757011747e-01 -1.645122433862e-01 3.734898388325e-02 -5.982408763373e-02 8.106020953928e-02 1.074459195543e-01 
840 138 490 2 3 2.229878335299e-03 1.918155255064e-03 9.404336516730e-04 6.392357581577e-04 7.792862158583e-02 6.703468644387e-02 3.286578330651e-02 2.233967688418e-02 -4.994133577895e-03 -1.418953129012e-02 3.586131721849e-02 3.888853611377e-02 
841 138 366 2 2 1.969246796706e-03 -9.860850842535e-04 -1.702284529335e-03 -8.829798489984e-05 1.396876283584e-01 -6.994749820560e-02 -1.207507810051e-01 -6.263377510689e-03 -5.960715203768e-02 3.403887270859e-02 9.443897705842e-03 6.928812764964e-02 
842 492 17 3 1 1.902095437829e-03 -1.164859438126e-03 9.664933712278e-04 1.151937544919e-03 7.682673730444e-01 -4.704934792946e-01 3.903722750239e-01 4.652742517252e-01 -1.902357895372e-01 1.346550479558e-01 -3.053474276294e-01 3.841336865217e-01 
843 492 139 3 2 2.203454102069e-03 -9.475355773660e-05 -1.911426977067e-03 -1.092098280633e-03 2.741720207289e-01 -1.179002293331e-02 -2.378355856317e-01 -1.358879189516e-01 -7.679373460096e-03 -3.862356907104e-02 6.826654810719e-02 7.881037022496e-02 
844 404 497 3 3 2.396677902561e-03 1.754251811374e-03 5.340078232615e-04 1.543211325648e-03 9.617610598095e-01 7.039623803755e-01 2.142915948354e-01 6.192741037415e-01 -1.167789079247e-02 1.217975961090e-02 9.060246004963e-03 1.915222533312e-02 
845 404 261 3 2 2.186758446145e-03 -2.360067810630e-04 1.143087694345e-04 2.170978306274e-03 4.342150821981e-01 -4.686283664263e-02 2.269779353247e-02 4.310816886842e-01 -1.081561700899e-01 -1.701336044424e-01 -2.799579623018e-03 2.016210260244e-01 
846 404 322 3 2 2.237808547552e-03 -1.228277653216e-03 -1.295436334915e-03 1.349431659733e-03 3.675225959688e-02 -2.017240447911e-02 -2.127537341123e-02 2.216215624032e-02 1.530515547690e-02 -8.085893794842e-03 6.168685736670e-03 1.837612979796e-02 
847 404 397 3 2 2.162697907930e-03 -2.070678849431e-03 6.185728056292e-04 -8.318069258560e-05 7.042682147431e-01 -6.743028192925e-01 2.014341272130e-01 -2.708724027223e-02 -2.293530970388e-02 -7.205215456562e-02 3.513023476193e-02 8.337670419961e-02 
848 404 234 3 2 2.150028552143e-03 -3.646779576006e-04 1.852841091202e-03 -1.027916656652e-03 8.630084827768e-01 -1.463795309032e-01 7.437192298451e-01 -4.125995412454e-01 8.622374698940e-02 -1.066716805735e-01 -2.228678478094e-01 2.616934457881e-01 
849 404 480 3 3 2.412752851353e-03 2.045958294017e-03 -9.972525383775e-04 -8.005737664656e-04 7.462841660521e-01 6.328316132222e-01 -3.084583564078e-01 -2.476240056395e-01 1.434085431207e-02 6.030115864310e-02 -3.846577925904e-02 7.294865324395e-02 
850 404 259 3 2 2.187556676004e-03 -1.640398178354e-03 -1.346971957226e-03 -5.293057468289e-04 4.260201318553e-01 -3.194626479413e-01 -2.623187673798e-01 -1.030807139899e-01 -5.710060722791e-02 2.491996464534e-02 1.135473001694e-01 1.295163053807e-01 
851 404 207 3 2 2.194192195506e-03 1.770376632477e-04 -2.121599714429e-03 -5.309912507230e-04 3.599511039326e-01 2.904253440249e-02 -3.480425100755e-01 -8.710763226111e-02 -7.465607248422e-02 1.749473865977e-02 -9.479208758259e-02 1.219226595339e-01 
852 174 373 2 2 1.851285824138e-03 -2.896264076088e-04 -1.197863573817e-03 1.381484203744e-03 1.485425610549e+00 -2.323890118662e-01 -9.611358804195e-01 1.108468497977e+00 2.673583941728e-01 -1.185476270929e-01 -4.673946525454e-02 2.961733081091e-01 
853 174 205 2 2 1.954830738871e-03 4.976461284867e-04 1.695601612990e-03 8.358508948750e-04 2.486490734942e-01 6.329921374556e-02 2.156758443080e-01 1.063179263848e-01 -1.295812411472e-04 3.853939756666e-02 -7.810361807426e-02 8.709464456779e-02 
854 174 477 2 3 2.188504729145e-03 1.497763362597e-03 -1.592813034452e-03 9.594006687791e-05 4.163548988237e-01 2.849439185536e-01 -3.030267657057e-01 1.825224149901e-02 5.680171666851e-02 6.329117104684e-02 1.640135611814e-01 1.847502519629e-01 
855 174 218 2 2 1.829660336625e-03 -6.127232508908e-04 1.535421720159e-03 -7.840327202980e-04 1.820941658647e+00 -6.098035085721e-01 1.528105144908e+00 -7.802966559176e-01 3.864568583804e-01 3.453677264815e-01 3.743389766337e-01 6.393414106026e-01 
856 174 353 2 2 1.875275519370e-03 -5.326959500469e-04 -7.558506568878e-04 -1.631435896024e-03 1.140906121510e+00 -3.240889480155e-01 -4.598549026439e-01 -9.925555905775e-01 1.075509426572e-01 -3.484141064514e-01 1.263041227146e-01 3.858915990994e-01 
857 158 62 2 1 1.595007464712e-03 -1.413004915107e-03 3.442338831380e-04 6.549572169777e-04 1.463238542964e+00 -1.296271835038e+00 3.157955663188e-01 6.008490023255e-01 4.386381140156e-02 6.374295809640e-02 6.112963428522e-02 9.861050068525e-02 
858 158 278 2 2 1.857787468908e-03 1.065169828364e-03 -1.179593474745e-03 9.619494533049e-04 1.389086064930e+00 7.964380157189e-01 -8.819937078236e-01 7.192591203870e-01 4.502302320911e-01 7.626945567561e-02 -4.050157785394e-01 6.103786305431e-01 
859 158 373 2 2 1.820556937929e-03 -1.121384291445e-03 1.159337837190e-03 -8.443107333220e-04 1.968848788126e+00 -1.212725654022e+00 1.253770672163e+00 -9.130833150395e-01 4.138569539316e-02 -3.147263307328e-01 -4.871232781206e-01 5.814245670134e-01 
860 158 470 2 3 2.197648441169e-03 1.365143250098e-03 -1.300837866922e-03 -1.128655581506e-03 3.270359702199e-01 2.031493931976e-01 -1.935799948427e-01 -1.679572429454e-01 8.597176811987e-03 1.032691605434e-02 -1.503794074954e-03 1.352102218583e-02 
861 208 353 2 2 1.828749244708e-03 8.542262749473e-04 1.588762848267e-03 3.007555206125e-04 1.835570618225e+00 8.574126038033e-01 1.594689054305e+00 3.018773615369e-01 -1.642464637210e-01 1.018517463057e-01 -7.153526424212e-02 2.060775900008e-01 
862 208 308 2 2 1.824055204570e-03 2.065236543507e-05 -1.601981437833e-03 8.720128106626e-04 1.911555846618e+00 2.164306748775e-02 -1.678829114377e+00 9.138436064716e-01 -5.277493819518e-05 -1.247919159075e-01 -2.292549380941e-01 2.610188723093e-01 
863 208 124 2 2 1.902148863409e-03 -1.614259279792e-03 7.073098846733e-04 -7.155766927580e-04 7.928137358874e-01 -6.728216465712e-01 2.948060495606e-01 -2.982516468677e-01 1.490874491763e-01 1.541689102880e-01 -1.839364046319e-01 2.825379998340e-01 
864 208 287 2 2 1.977360681141e-03 1.661060559034e-03 -1.071581572543e-03 5.045806111093e-05 8.823022845129e-02 7.411685384095e-02 -4.781418375080e-02 2.251448762730e-03 1.403481616696e-02 2.071498515336e-02 -2.209524498492e-02 3.338093056953e-02 
865 208 112 2 2 1.924928892692e-03 -3.716191804466e-04 -5.638207935254e-04 -1.802597165046e-03 5.327599728441e-01 -1.028525392469e-01 -1.560479204130e-01 -4.989023856127e-01 -1.763213675450e-01 -1.587476029563e-01 8.600346466821e-02 2.523620851718e-01 
866 308 480 2 3 2.164376095019e-03 -3.789017786687e-04 1.597626890491e-03 1.410158020079e-03 6.840591385684e-01 -1.197533205595e-01 5.049359383416e-01 4.456857025360e-01 -2.675518697988e-01 -4.666798872277e-02 -1.901761738638e-02 2.722564489141e-01 
867 308 376 2 2 1.989974740959e-03 1.537880384637e-03 4.851150346688e-04 1.166013205474e-03 2.599954547849e-02 2.009281332968e-02 6.338156031113e-03 1.523427043584e-02 7.791431725327e-03 -6.237968105761e-03 -7.681008982302e-03 1.259430638841e-02 
868 308 287 2 2 1.909768379997e-03 1.640408193598e-03 5.303998652901e-04 -8.215547495517e-04 7.020377820311e-01 6.030200007089e-01 1.949769139117e-01 -3.020065052042e-01 7.610376521789e-02 -3.263594615997e-01 -5.874200644842e-02 3.402247853663e-01 
869 259 322 2 2 1.924098097921e-03 4.121205251388e-04 5.153562231156e-05 1.878737406562e-03 5.416282441709e-01 1.160107775476e-01 1.450713383846e-02 5.288593361607e-01 -2.408621967080e-02 -4.471399782472e-04 5.295827429429e-03 2.466559750650e-02 
870 259 207 2 2 1.975632567431e-03 1.817435841602e-03 -7.746277572031e-04 -1.685503894117e-06 9.852286542113e-02 9.063374930419e-02 -3.862992923509e-02 -8.405443201558e-05 -1.535991100927e-02 -3.609998159339e-02 2.871247746244e-02 4.861627195998e-02 
871 259 22 2 1 1.713490264866e-03 -4.991583584460e-05 -1.709108795852e-03 -1.118231687226e-04 1.672869404109e-01 -4.873250597166e-03 -1.668591804400e-01 -1.091722325258e-02 -7.237401309105e-02 1.368965835031e-03 1.138313117773e-02 7.327651406672e-02 
872 259 425 2 3 2.173889426466e-03 7.487317195016e-04 8.921249775182e-04 -1.835567780062e-03 5.732823401598e-01 1.974500943249e-01 2.352647234951e-01 -4.840626113107e-01 2.129584158607e-02 9.708888738528e-02 5.587387981505e-02 1.140248015484e-01 
873 431 446 3 3 2.390567279938e-03 -3.968363107821e-04 4.621262371466e-04 2.311660053576e-03 1.048330339266e+00 -1.740237757818e-01 2.026552270824e-01 1.013727322619e+00 -8.404297241264e-02 -2.496348460656e-01 3.547732236078e-02 2.657807705310e-01 
874 431 121 3 2 2.234167833528e-03 -2.042635353062e-03 -4.361007829342e-05 9.040159754469e-04 5.438906562695e-02 -4.972635743940e-02 -1.061653191270e-03 2.200756070270e-02 3.247651300469e-03 -2.475476369761e-02 6.143929233821e-03 2.571173722493e-02 
875 431 466 3 3 2.346145248493e-03 3.092372108470e-04 -2.226202659640e-03 6.728979065684e-04 1.747606822438e+00 2.303459514175e-01 -1.658263467965e+00 5.012311036916e-01 -6.947160900714e-02 -4.922894357686e-02 -1.309417040780e-01 1.561906630070e-01 
876 431 44 3 1 1.804582079839e-03 -3.109401713678e-04 1.264117660193e-03 -1.249735665609e-03 2.166479446518e+00 -3.732972292538e-01 1.517628352506e+00 -1.500362141113e+00 2.065243425479e-01 -5.239723601005e-01 -5.813864868673e-01 8.094501747026e-01 
877 431 242 3 2 2.187153627297e-03 1.826320235288e-03 -7.758217441259e-04 -9.199434813714e-04 4.301514832012e-01 3.591857234923e-01 -1.525822739521e-01 -1.809269582321e-01 -8.353763020212e-02 3.472052479289e-02 -1.951243811608e-01 2.150757416006e-01 
878 431 231 3 2 2.133090226732e-03 -1.516675291574e-03 -1.186148544644e-03 -9.180531604151e-04 1.091383365271e+00 -7.759982034504e-01 -6.068860914282e-01 -4.697166276209e-01 7.069974230481e-02 -7.408211611484e-02 -2.108391843063e-02 1.045521166998e-01 
879 493 130 3 2 2.148602398203e-03 6.118151389588e-04 -4.513409121927e-04 2.009593461943e-03 8.815412275134e-01 2.510191131966e-01 -1.851788037164e-01 8.245078236560e-01 2.326343942422e-01 -3.968854857709e-02 -7.973867000922e-02 2.491027855473e-01 
880 493 64 3 1 1.988253116136e-03 1.980113447972e-03 6.710566102883e-05 -1.667273740022e-04 3.192949308624e-02 3.179877759723e-02 1.077654410537e-03 -2.677486328219e-03 8.208740802903e-04 1.468313792412e-03 1.033996957001e-02 1.047591286511e-02 
881 493 48 3 1 1.945962260320e-03 -1.507185220380e-03 -1.157678800605e-03 -4.182602356044e-04 3.150313412194e-01 -2.439978365070e-01 -1.874163300556e-01 -6.771204441524e-02 -2.301733092075e-03 5.399121154034e-02 -1.411450047266e-01 1.511365649276e-01 
882 493 234 3 2 2.198292004205e-03 -1.276421134061e-04 -2.179020435939e-03 -2.608930171534e-04 3.210241004885e-01 -1.864001441222e-02 -3.182098074574e-01 -3.809909966247e-02 1.044635454017e-01 8.090039733137e-03 -1.186781845846e-01 1.583116943156e-01 
883 493 382 3 2 2.244117722969e-03 8.672678316405e-04 -6.298470178808e-04 -1.971599248531e-03 1.231740298719e-02 4.760217020170e-03 -3.457073334483e-03 -1.082161698776e-02 5.009943821481e-03 3.050353658289e-03 1.229310145514e-03 5.992945683793e-03 
884 102 382 2 2 1.969072343808e-03 -3.641547784805e-04 4.299037332895e-04 1.886748518633e-03 1.408778979220e-01 -2.605356774824e-02 3.075759732500e-02 1.349880140505e-01 -5.318368075159e-02 6.371485960727e-03 -1.171656787386e-02 5.483044495877e-02 
885 102 317 2 2 1.896345509798e-03 -1.124011308527e-03 1.502062685799e-03 -2.766451856897e-04 8.643796519039e-01 -5.123393909921e-01 6.846602661701e-01 -1.260985764840e-01 3.335882304047e-02 5.422724078887e-02 1.588931344274e-01 1.711736921562e-01 
886 102 231 2 2 1.926147260948e-03 1.900695168562e-03 1.589979648343e-04 -2.685531497477e-04 5.198430776337e-01 5.129738759345e-01 4.291156395608e-02 -7.247913942176e-02 -1.775580012283e-02 -4.680456194127e-02 -1.533781809464e-01 1.613406391674e-01 
887 102 469 2 3 2.182978236715e-03 1.187189187205e-03 -1.831258079459e-03 4.969569569956e-05 4.737234439343e-01 2.576293894760e-01 -3.973974039427e-01 1.078435676525e-02 3.135210638743e-02 2.632748923776e-02 2.211770160637e-01 2.249341319127e-01 
888 102 301 2 2 1.930602938935e-03 -1.120915458732e-03 -1.555030961936e-03 -2.294666634194e-04 4.735152546412e-01 -2.749247699610e-01 -3.813994411105e-01 -5.628084541332e-02 4.894301200127e-02 -1.965422896161e-02 -1.058892119163e-01 1.182972203396e-01 
889 497 62 3 1 1.892742012907e-03 1.455631089600e-03 -1.195259837011e-03 1.869876478239e-04 8.809524316155e-01 6.775047730617e-01 -5.563183215922e-01 8.703099625265e-02 1.179626183737e-01 1.244620262837e-01 -1.227118137253e-01 2.108652758232e-01 
890 497 26 3 1 1.973068193131e-03 -5.769602960473e-04 -1.765599870063e-03 6.654111588828e-04 1.108424278758e-01 -3.241230091511e-02 -9.918733520523e-02 3.738126672102e-02 -4.652862224287e-02 2.212813787971e-02 1.837100197189e-02 5.469973388687e-02 
891 497 373 3 2 2.217991577331e-03 1.747251713262e-03 -3.801558829593e-04 -1.312280302476e-03 1.563498598465e-01 1.231666356524e-01 -2.679781096917e-02 -9.250478832673e-02 -1.075790723611e-02 6.845426557667e-02 -3.415433695795e-02 7.725437059986e-02 
892 497 25 3 1 1.952008150485e-03 3.001670453969e-04 -1.872778147593e-03 -4.614515947676e-04 2.636690848889e-01 4.054530722833e-02 -2.529670279569e-01 -6.233094860934e-02 -6.333182408108e-02 1.708385657092e-02 -1.105303359388e-01 1.285291144430e-01 
893 124 65 2 1 1.619165738195e-03 2.186289021966e-04 -6.361090806936e-05 1.603076025409e-03 1.134831001170e+00 1.532312907270e-01 -4.458322504414e-02 1.123554141465e+00 -3.941887913848e-02 -1.655409270770e-01 -1.192770887689e-03 1.701736444707e-01 
894 124 425 2 3 2.216133949367e-03 -1.681614886312e-03 -1.692588733463e-04 1.433447763074e-03 1.701562469540e-01 -1.291155157650e-01 -1.299580950894e-02 1.100610780495e-01 1.530021422171e-02 7.878131838095e-02 2.725143264890e-02 8.475395720843e-02 
895 124 469 2 3 2.139074666802e-03 1.391627525672e-03 1.426440802873e-03 -7.773544209985e-04 1.008665601192e+00 6.562121634189e-01 6.726281192162e-01 -3.665560050634e-01 -6.897027342306e-02 1.415950429098e-01 1.363548118569e-01 2.083235212577e-01 
896 124 49 2 1 1.569168915511e-03 -7.184415958354e-04 5.383144583105e-05 -1.393999617726e-03 1.843990119112e+00 -8.442680649507e-01 6.325938095557e-02 -1.638142009902e+00 -2.667051324380e-01 -2.841689320959e-01 1.264812660271e-01 4.097329865817e-01 
897 466 218 3 2 2.210386639395e-03 -1.542587755555e-03 7.960826084706e-04 1.368387588558e-03 2.152601465752e-01 -1.502260556808e-01 7.752709681244e-02 1.332614428783e-01 -2.489816390906e-03 -8.989851390286e-02 4.949320187209e-02 1.026524184769e-01 
898 466 55 3 1 1.930887923316e-03 1.212900399302e-03 -7.241791293355e-04 1.316345464692e-03 4.556579031973e-01 2.862246151419e-01 -1.708944054327e-01 3.106359551385e-01 4.628077949288e-02 2.072729890009e-02 -3.124081004687e-02 5.956105844045e-02 
899 466 353 3 2 2.155481451128e-03 -1.462560454711e-03 -1.495189768576e-03 5.209844128326e-04 7.933716285678e-01 -5.383270494980e-01 -5.503369751073e-01 1.917595959136e-01 -2.239349800297e-01 1.638993256524e-01 -1.582731640316e-01 3.194687131517e-01 
900 466 221 3 2 2.197347747215e-03 2.163115421240e-03 3.414695112082e-04 -1.807411671437e-04 3.298576297767e-01 3.247188009671e-01 5.126012655526e-02 -2.713218837240e-02 -1.510333621693e-02 1.282489301788e-02 -1.565274252719e-01 1.577764985924e-01 
901 466 494 3 3 2.376979997767e-03 3.761239907194e-04 -2.314455331062e-03 -3.896936924197e-04 1.249513519465e+00 1.977181178809e-01 -1.216646008412e+00 -2.048513397614e-01 2.360132649113e-01 -5.955245532789e-03 2.631641284134e-01 3.535436106721e-01 
902 137 140 2 2 1.884152358860e-03 1.061222969713e-03 6.082572129927e-04 -1.433129122861e-03 1.021299556626e+00 5.752329652923e-01 3.297041340755e-01 -7.768236633753e-01 -4.653522639887e-03 -1.752578292533e-01 -7.782987734798e-02 1.918187993799e-01 
903 292 234 2 2 1.948869438248e-03 -3.237209055536e-04 3.152746391063e-04 1.895758097591e-03 2.994630219282e-01 -4.974291183177e-02 4.844505963877e-02 2.913019402981e-01 3.111987148370e-02 1.107613008406e-02 3.472030558198e-03 3.321418454513e-02 
904 292 382 2 2 1.990202371064e-03 6.711890394930e-04 1.864448057164e-03 1.850518662126e-04 2.511908400748e-02 8.471326390247e-03 2.353189206103e-02 2.335608398784e-03 7.165721093615e-03 -3.541161044583e-03 9.687864315985e-03 1.255954200360e-02 
905 292 42 2 1 1.741759068831e-03 1.611946636295e-03 -5.636468237570e-04 3.430086786961e-04 1.793962481897e-02 1.660259355087e-02 -5.805402555127e-03 3.532892186742e-03 -2.201836807390e-03 -7.754560310942e-03 -2.395245090681e-03 8.409428636171e-03 
906 292 425 2 3 2.237336941488e-03 -8.507094068059e-04 -1.992413431804e-03 5.588012273519e-04 3.890531923162e-02 -1.479308745651e-02 -3.464631507587e-02 9.717061267795e-03 9.629310941821e-03 -7.504524022546e-04 1.198374955089e-02 1.539146066235e-02 
907 292 301 2 2 1.936809564231e-03 -8.557164075833e-05 -1.204866380612e-04 -1.931163315840e-03 4.114332436763e-01 -1.817784173215e-02 -2.559477670529e-02 -4.102338204943e-01 8.800582783462e-02 6.422388616175e-03 -4.300317333719e-03 8.834458408733e-02 
908 151 177 2 2 1.912510122734e-03 1.110358016751e-03 1.007323738101e-03 1.187475865378e-03 6.702843388780e-01 3.891511894912e-01 3.530403932523e-01 4.161789607788e-01 -1.689981825741e-02 2.178957490522e-01 -1.690364559183e-01 2.762923899451e-01 
909 151 62 2 1 1.681734246617e-03 -5.869194503299e-06 1.680088718505e-03 -7.414530836233e-05 4.277138394538e-01 -1.492706544186e-03 4.272953338854e-01 -1.885730434576e-02 1.222975336613e-01 1.095427079218e-03 1.514089961168e-02 1.232360886315e-01 
910 151 25 2 1 1.695868729426e-03 -1.161333238707e-03 1.002570407922e-03 -7.225845509538e-04 3.020099759797e-01 -2.068168469885e-01 1.785434565546e-01 -1.286819782040e-01 -1.161200585932e-02 -3.433858892627e-02 -2.898130705206e-02 4.641005847842e-02 
911 151 78 2 1 1.749999110625e-03 2.046841415595e-04 -8.023010459606e-04 -1.541724463396e-03 1.973248814383e-08 2.307959685255e-09 -9.046516527400e-09 -1.738404294626e-08 -7.697716577963e-11 -4.455669533134e-11 1.296721856992e-11 8.988287883549e-11 
912 151 481 2 3 2.143536655681e-03 -1.779630815357e-03 -8.884289633497e-04 -7.989727982620e-04 9.484212340292e-01 -7.874088131610e-01 -3.930909655938e-01 -3.535105244294e-01 9.045663420696e-02 -7.996411969752e-02 -1.125657519246e-01 1.650688087356e-01 
913 112 272 2 2 1.937256375779e-03 8.104367213418e-04 -1.549814233210e-03 8.332049140131e-04 4.070771792214e-01 1.702976945055e-01 -3.256636624148e-01 1.750819924253e-01 -4.594888082309e-03 8.923985932029e-02 1.704611527950e-01 1.924626459866e-01 
914 112 54 2 1 1.694258132783e-03 -8.089350071430e-04 -9.018921515591e-04 1.184367055298e-03 3.155885403341e-01 -1.506798835371e-01 -1.679949602378e-01 2.206114068270e-01 4.715641948811e-02 -7.734609262752e-02 -2.669050548415e-02 9.443796390585e-02 
915 112 73 2 1 1.749999561820e-03 1.347846360215e-03 1.113296221475e-03 7.987602188949e-05 6.801176348495e-09 5.238253189600e-09 4.326700472138e-09 3.104291696632e-10 -2.123840688697e-09 2.508774057259e-09 8.713786917517e-10 3.400580445421e-09 
916 112 140 2 2 1.938432599522e-03 -1.914831773782e-03 -3.015522096887e-04 2.546730132384e-06 3.956840841086e-01 -3.908665469298e-01 -6.155458277531e-02 5.198532980476e-04 -1.392022460353e-02 8.832912579447e-02 -7.478333864285e-03 8.973144707411e-02 
917 54 256 1 2 1.707732479540e-03 -7.253134054520e-04 -4.243271812285e-04 1.486679901262e-03 2.083814697534e-01 -8.850442049370e-02 -5.177738477197e-02 1.814081225189e-01 1.134927682844e-02 6.620633798374e-02 2.443359283995e-02 7.147786883235e-02 
918 54 140 1 2 1.726300954423e-03 -1.105896766639e-03 6.003399418705e-04 -1.181820325165e-03 8.748734495823e-02 -5.604583121110e-02 3.042467621423e-02 -5.989356734205e-02 1.275528188864e-02 -3.125532695994e-02 -2.781289631040e-02 4.373956882052e-02 
919 469 353 3 2 2.161931243597e-03 1.076858029067e-03 -5.449878392800e-04 1.793686634369e-03 7.135655818223e-01 3.554270415985e-01 -1.798783221130e-01 5.920230121337e-01 1.027000893353e-01 -3.048646377384e-01 -1.542861114857e-01 3.567827909110e-01 
920 469 24 3 1 1.971385303604e-03 -2.211197435257e-04 1.199128049679e-03 1.549050675337e-03 1.213924613025e-01 -1.361594299200e-02 7.383899286517e-02 9.538626153785e-02 1.002675201829e-02 -9.127500425662e-04 2.137836453644e-03 1.029267765837e-02 
921 469 231 3 2 2.138104823180e-03 7.135059813573e-04 1.990256044293e-03 -3.182488454472e-04 1.021922941374e+00 3.410254367566e-01 9.512575290139e-01 -1.521093786901e-01 3.360431135325e-02 -4.447505879850e-02 -2.027968942171e-01 2.103184749392e-01 
922 469 73 3 1 1.999998574786e-03 1.198858933888e-03 -1.584275259597e-03 -2.297900294004e-04 4.193631020532e-08 2.513787798541e-08 -3.321935304087e-08 -4.818276411049e-09 -2.284274642604e-09 -2.423779594802e-09 4.793119119545e-09 5.836660780033e-09 
923 24 218 1 2 1.724915373556e-03 1.217950471749e-03 5.471564880884e-04 1.092039134757e-03 9.527093275660e-02 6.727012772551e-02 3.022067620427e-02 6.031576306292e-02 -1.196121772066e-02 6.944065680605e-03 9.861075334117e-03 1.698621748014e-02 
924 24 382 1 2 1.726371174499e-03 -1.330224222160e-03 1.062033763069e-03 2.880021475960e-04 8.709879902929e-02 -6.711241122491e-02 5.358167852796e-02 1.453027109350e-02 7.092830774963e-03 8.066820550319e-03 3.013239729194e-03 1.115622946425e-02 
925 24 42 1 1 1.488854131219e-03 -3.894666253576e-04 -1.366061117852e-03 4.459589600794e-04 2.639513095181e-02 -6.904653963148e-03 -2.421819662369e-02 7.906177578852e-03 8.026131976934e-03 -1.668792412867e-03 1.897569472192e-03 8.414536976578e-03 
926 382 166 2 2 1.967799464388e-03 8.197796808461e-04 -9.614146770183e-04 1.508601281231e-03 1.496638747390e-01 6.234954612404e-02 -7.312180351581e-02 1.147388833422e-01 4.822229121693e-02 3.984995422523e-02 -8.082477801810e-04 6.256246068081e-02 
927 382 213 2 2 1.965908901028e-03 -4.305592293053e-04 1.904321288442e-03 2.301673034781e-04 1.630361308564e-01 -3.570700087565e-02 1.579285665845e-01 1.908816150590e-02 -4.528432315334e-02 -1.479782665388e-02 3.772140056409e-02 6.076635300601e-02 
928 382 144 2 2 1.953094025939e-03 -1.944667162951e-03 -1.542614322844e-04 -9.512786137671e-05 2.631265009135e-01 -2.619912094517e-01 -2.078254828689e-02 -1.281590183115e-02 -2.905316858365e-03 2.858428024912e-02 1.303952681276e-02 3.155203959982e-02 
929 382 121 2 2 1.973455222409e-03 1.738889885554e-03 8.716326978954e-04 -3.332325325186e-04 1.120188168605e-01 9.870423479523e-02 4.947630047365e-02 -1.891520699750e-02 2.276215676940e-02 -4.877531799309e-02 -8.802495366942e-03 5.454018106687e-02 
930 217 235 2 2 1.858568633143e-03 -4.176584799074e-04 -8.313358304091e-04 1.608949811319e-03 1.377656562465e+00 -3.095876770181e-01 -6.162243577943e-01 1.192627609609e+00 -1.102276323261e-01 -1.334121886403e-01 -9.754675813310e-02 1.986562685351e-01 
931 217 494 2 3 2.111137659695e-03 -7.456555874817e-04 1.973570833862e-03 -7.692936218364e-05 1.412790683028e+00 -4.989988511191e-01 1.320729831886e+00 -5.148176180991e-02 5.768707394429e-01 2.182548424535e-01 7.727885882598e-03 6.168263503613e-01 
932 217 287 2 2 1.875498923217e-03 -1.777505748826e-03 1.324919755380e-04 5.834512835671e-04 1.137842145636e+00 -1.078390891132e+00 8.038125314791e-02 3.539727227513e-01 -1.152631458132e-01 -3.786525048472e-01 -2.651677871982e-01 4.764213131015e-01 
933 217 164 2 2 1.921929737128e-03 6.117932549015e-04 -1.794910444357e-03 3.127609701543e-04 5.650030837441e-01 1.798531283198e-01 -5.276623367209e-01 9.194452283987e-02 1.808093181929e-01 8.219904170990e-02 1.180518054922e-01 2.310517707861e-01 
934 234 134 2 2 1.996925282667e-03 -1.103466948389e-03 6.138701643267e-04 1.547008306286e-03 4.416011771679e-03 -2.440212999475e-03 1.357515924846e-03 3.421062846337e-03 4.679005813308e-04 3.979867851280e-04 1.758236285323e-04 6.389353515783e-04 
935 234 166 2 2 1.918177569170e-03 1.814689625893e-03 5.877587410395e-04 -2.021049501472e-04 6.062209151355e-01 5.735145814326e-01 1.857552958594e-01 -6.387325647056e-02 -3.168891029144e-02 7.006017147316e-02 -8.078505058714e-02 1.115295434433e-01 
936 234 274 2 2 1.924078184420e-03 -1.502620122667e-03 -3.626542490887e-04 -1.145727507891e-03 5.418414644690e-01 -4.231542638959e-01 -1.021274036644e-01 -3.226493994810e-01 -2.796486914676e-03 1.985308305664e-01 -5.917287602241e-02 2.071804534245e-01 
937 317 411 2 3 2.090366019537e-03 -1.517666556768e-03 7.822163825409e-04 1.206008229237e-03 1.741362205382e+00 -1.264279632193e+00 6.516189185323e-01 1.004655227910e+00 2.881912878019e-02 -2.065395820131e-01 1.702280861201e-01 2.691964755080e-01 
938 373 62 2 1 1.731254294103e-03 -2.916206236616e-04 -8.151039540518e-04 1.499267950300e-03 6.154625391223e-02 -1.036714075514e-02 -2.897702266605e-02 5.329911744676e-02 -3.372398928161e-03 -2.538430752684e-02 -1.445659564023e-02 2.940627995264e-02 
939 373 128 2 2 1.956765595517e-03 1.699672777534e-03 7.870764175524e-04 5.661755540829e-04 2.328448182199e-01 2.022521245390e-01 9.365795565398e-02 6.737191428192e-02 -4.979472243326e-02 6.225916754137e-02 6.293456402575e-02 1.015700628840e-01 
940 373 477 2 3 2.236821627873e-03 1.787389770206e-03 -3.949494606352e-04 -1.285544136866e-03 4.130415581703e-02 3.300514652325e-02 -7.292961521228e-03 -2.373828770122e-02 3.713194112844e-03 1.957836059258e-02 -8.521977221572e-04 1.994558234222e-02 
941 373 480 2 3 2.123124011983e-03 -1.455545230619e-03 -1.151104478680e-03 -1.031504789638e-03 1.233872425002e+00 -8.459030717318e-01 -6.689746178381e-01 -5.994681935715e-01 -3.534949818169e-01 4.561507229736e-01 -1.022700556109e-02 5.771800203419e-01 
942 64 166 1 2 1.709925786168e-03 -2.930659354854e-04 -1.658367355928e-03 -2.962705932984e-04 1.923740408100e-01 -3.297118429884e-02 -1.865734945855e-01 -3.333172215252e-02 -2.015034878388e-02 1.360032742899e-02 -5.619510875461e-02 6.122822641748e-02 
943 65 480 1 3 1.855058280137e-03 1.037380964362e-03 -6.480535239465e-04 1.394671498090e-03 1.383878969695e+00 7.738892710345e-01 -4.834498477104e-01 1.040429067111e+00 1.281156496010e-02 1.911919672716e-01 7.931054352203e-02 2.073853101347e-01 
944 65 42 1 1 1.488455470783e-03 5.624122545923e-04 1.323118642770e-03 -3.854208109910e-04 2.782385148826e-02 1.051323022698e-02 2.473319312562e-02 -7.204710934250e-03 -6.865995362868e-03 3.051932872876e-03 4.580690610707e-04 7.527683166033e-03 
945 65 425 1 3 1.910722820222e-03 -1.900243788509e-03 -1.056479652769e-04 -1.696282623352e-04 6.689885621325e-01 -6.653196090619e-01 -3.698981329728e-02 -5.939080546676e-02 -1.121604693683e-02 9.133843528387e-02 6.875920028641e-02 1.148753110682e-01 
946 480 25 3 1 1.913082688876e-03 8.460562753887e-06 -3.415177859544e-04 1.882333497346e-03 6.426395147782e-01 2.842057990762e-03 -1.147220794637e-01 6.323102981482e-01 -6.083589839800e-03 1.393666853484e-01 2.531308742765e-02 1.417774151459e-01 
947 480 376 3 2 2.229650910212e-03 1.916782163306e-03 -1.112511855822e-03 -2.441448146047e-04 7.925352777201e-02 6.813252591097e-02 -3.954452639121e-02 -8.678191620062e-03 -5.040158583649e-03 -2.108433680396e-03 -2.996266220039e-02 3.045668756230e-02 
948 480 207 3 2 2.197656849739e-03 -1.868920630770e-03 -1.124347176052e-03 2.695825157426e-04 3.269571730088e-01 -2.780493260751e-01 -1.672751477128e-01 4.010723387060e-02 6.536854358241e-02 -1.106875104627e-01 -8.467055364399e-03 1.288272583309e-01 
949 222 115 2 2 1.945472871398e-03 -5.649744217483e-04 2.447395984648e-04 1.845473143955e-03 3.297928968743e-01 -9.577339984923e-02 4.148779576636e-02 3.128411314270e-01 -1.347599247886e-01 7.588230466198e-02 -5.131871773223e-02 1.629477593572e-01 
950 222 131 2 2 1.967854559615e-03 7.956595186609e-04 1.409920825014e-03 1.118704950088e-03 1.492799322603e-01 6.035811867682e-02 1.069555085879e-01 8.486409646102e-02 2.097596416371e-02 -6.627454360741e-03 -6.566109879540e-03 2.295709090567e-02 
951 222 422 2 3 2.184808581435e-03 1.802090710352e-03 -1.210803538075e-03 2.445657403599e-04 4.544506740793e-01 3.748435194876e-01 -2.518529489181e-01 5.087084814098e-02 -5.174250815553e-02 -4.640978594750e-02 1.514993890858e-01 1.666829933595e-01 
952 222 328 2 2 1.986060329483e-03 2.947777211467e-04 1.838170818933e-03 -6.918596446411e-04 4.262860131425e-02 6.327079678569e-03 3.945431557369e-02 -1.485000657785e-02 -8.204823857528e-03 -4.380960291436e-03 -1.513537135190e-02 1.776489272605e-02 
953 222 211 2 2 1.968816049555e-03 -1.412072671206e-03 9.539289016112e-04 -9.860563162869e-04 1.426326808008e-01 -1.022988971596e-01 6.910825242458e-02 -7.143575238753e-02 -2.617430642781e-02 2.484005680663e-02 6.151339422407e-02 7.131634040036e-02 
954 222 33 2 1 1.693888655905e-03 1.110414307992e-03 4.605077233712e-04 -1.193386559303e-03 3.187314868671e-01 2.089417165592e-01 8.665168803876e-02 -2.245542356801e-01 -7.592606660882e-02 1.365962069862e-01 -1.793700644592e-02 1.573055229607e-01 
955 222 335 2 2 1.959504907118e-03 -1.675605553285e-03 -8.909649597498e-04 -4.880440055138e-04 2.110697257536e-01 -1.804892671197e-01 -9.597104300549e-02 -5.257007217758e-02 -3.099525003320e-02 5.491428350619e-03 9.639119078985e-02 1.014008036055e-01 
956 222 205 2 2 1.942378532746e-03 4.209579408455e-04 -1.149457653901e-03 -1.508103404412e-03 3.582604174333e-01 7.764324258463e-02 -2.120107754313e-01 -2.781608971108e-01 -2.652312803127e-02 8.612048512282e-02 -7.304338140601e-02 1.159980596630e-01 
957 121 446 2 3 2.223934702058e-03 1.645799042280e-03 5.057363154400e-04 1.407644078129e-03 1.148934164838e-01 8.502564155253e-02 2.612746366478e-02 7.272202604682e-02 -2.589771250707e-02 -2.737137601417e-02 4.011321481070e-02 5.503593135814e-02 
958 121 218 2 2 1.967418045640e-03 8.092848083540e-04 -1.386509972876e-03 1.137269519680e-03 1.523309168009e-01 6.266034668269e-02 -1.073530538107e-01 8.805515887505e-02 3.792377905523e-02 2.272530104213e-02 7.190188912215e-04 4.421729654164e-02 
959 121 127 2 2 1.957649050292e-03 -6.036237193311e-04 6.336103917267e-04 -1.751161352093e-03 2.257444515817e-01 -6.960629917900e-02 7.306418398920e-02 -2.019335176550e-01 -1.511807040865e-02 -1.230794606434e-02 7.578875462424e-04 1.950938191580e-02 
960 33 446 1 3 1.926791525123e-03 -9.633115125985e-04 1.221010182138e-04 -1.664225901833e-03 4.967639057243e-01 -2.483602316017e-01 3.147999039331e-02 -4.290694391286e-01 -6.910023487441e-02 -7.729239348911e-03 3.943052666997e-02 7.993340999909e-02 
961 301 49 2 1 1.694631067363e-03 1.980355244291e-04 -1.648836474565e-03 -3.374828376085e-04 3.124267339542e-01 3.651036104311e-02 -3.039839198596e-01 -6.221924214082e-02 -5.711876674022e-02 -5.248279421872e-04 -3.095324649282e-02 6.496870344049e-02 
962 42 353 1 2 1.740955185202e-03 1.687444397950e-03 -3.780547711070e-04 -2.013230010480e-04 2.062759224681e-02 1.999357322689e-02 -4.479356925233e-03 -2.385362248736e-03 -8.241063782464e-04 -7.182454728185e-03 6.580110477435e-03 9.775717934778e-03 
963 73 20 1 1 1.499998906529e-03 1.004773445338e-03 -1.086796151209e-03 -2.435183131705e-04 2.527366193864e-08 1.692954859624e-08 -1.831155903002e-08 -4.103069339685e-09 -5.531171383986e-10 5.815487117536e-10 -4.877589284242e-09 4.943178602750e-09 
964 166 218 2 2 1.919154974741e-03 1.728395013062e-03 4.465374020372e-04 -7.045642940698e-04 5.953910534270e-01 5.362104369418e-01 1.385319985580e-01 -2.185812416268e-01 6.306553631348e-02 -8.896153437143e-02 9.832673416506e-02 1.468317510615e-01 
965 128 422 2 3 2.193766734523e-03 4.687325280686e-04 2.045042885080e-03 6.408602818207e-04 3.640751694740e-01 7.779034658013e-02 3.393931192638e-01 1.063564835957e-01 2.300916451330e-02 -3.906566984379e-02 1.078329056035e-01 1.169764238761e-01 
966 128 154 2 2 1.952964777533e-03 1.213426844745e-03 1.898815854370e-04 1.518424083795e-03 2.642148148193e-01 1.641634056944e-01 2.568890566332e-02 2.054262026292e-01 -1.440738220119e-02 4.536965331740e-02 5.839898563849e-03 4.795917554825e-02 
967 128 11 2 1 1.731810860762e-03 2.540301264177e-04 8.818211410607e-04 -1.468682752504e-03 5.882570747996e-02 8.628830229862e-03 2.995347452138e-02 -4.988783933464e-02 5.173015027563e-03 -1.575660858271e-02 -8.565776970410e-03 1.866556545114e-02 
968 128 477 2 3 2.198578008931e-03 8.771699267173e-05 -1.182025878188e-03 -1.851719690949e-03 3.183643495275e-01 1.270182963761e-02 -1.711628599509e-01 -2.681376473890e-01 -1.246018072918e-01 -5.850288297586e-02 3.144224587852e-02 1.411977780376e-01 
969 11 43 1 1 1.485265303298e-03 7.684446724047e-04 9.544983869661e-04 -8.393084271672e-04 4.012035614360e-02 2.075741880260e-02 2.578314806017e-02 -2.267160818845e-02 1.382099443836e-02 -5.819566224254e-03 6.035806152386e-03 1.616533928542e-02 
970 11 205 1 2 1.728434161929e-03 -1.166430367856e-03 1.224567628194e-03 3.568738895529e-04 7.594487513011e-02 -5.125124843399e-02 5.380571482560e-02 1.568051799500e-02 -8.833640541293e-03 -1.783814325877e-02 3.233687453191e-02 3.797243756497e-02 
971 11 55 1 1 1.471844103339e-03 4.786884076237e-04 -4.558740024428e-04 -1.315051849487e-03 1.059758789917e-01 3.446657471805e-02 -3.282388943825e-02 -9.468650609996e-02 4.841744085098e-03 -8.910394117346e-03 4.851294498625e-03 1.124155983058e-02 
972 422 223 3 2 2.137932584537e-03 1.117957199673e-03 -1.059023165143e-05 1.822310424357e-03 1.024283399851e+00 5.356132413394e-01 -5.073779481912e-03 8.730688378780e-01 2.005058219119e-01 1.555515457058e-01 -1.221030167602e-01 2.816167869535e-01 
973 422 442 3 3 2.403870887848e-03 1.149225443883e-03 1.234698948085e-03 -1.712715572468e-03 8.630973009161e-01 4.126233999396e-01 4.433122156946e-01 -6.149415907929e-01 9.335069486427e-02 -6.222417554849e-02 1.778045931455e-02 1.135884896799e-01 
974 422 205 3 2 2.232294822721e-03 -1.381132769507e-03 6.134588417435e-05 -1.752669144772e-03 6.432081351031e-02 -3.979563200893e-02 1.767605755047e-03 -5.050099299552e-02 -1.578791002082e-02 -2.552814495543e-02 1.154761771773e-02 3.216040675498e-02 
975 130 428 2 3 2.173276514507e-03 7.565817886724e-04 1.146994248716e-03 1.683781161246e-03 5.802211963761e-01 2.019921476396e-01 3.062244361379e-01 4.495357646819e-01 1.318741172984e-01 5.872355592699e-02 -9.925822919142e-02 1.751897111596e-01 
976 130 398 2 2 1.942958251601e-03 -1.796286044023e-03 3.161936813950e-04 6.696751237419e-04 3.528674407362e-01 -3.262297883458e-01 5.742503990441e-02 1.216220404349e-01 -3.547615140552e-02 3.940313965807e-02 -1.137631319547e-01 1.255118118968e-01 
977 130 318 2 2 1.899310995707e-03 -6.469060632749e-04 -1.526510077976e-03 9.266400517728e-04 8.275522467383e-01 -2.818646168541e-01 -6.651184811507e-01 4.037480215171e-01 8.404362611999e-02 -8.531660583908e-02 -8.187464720048e-02 1.450714037207e-01 
978 130 388 2 2 1.957724652696e-03 3.016490078774e-04 1.900097157694e-03 -3.623872005774e-04 2.251402341974e-01 3.468992852769e-02 2.185130163693e-01 -4.167487960873e-02 -1.456000799424e-03 5.280148246002e-03 2.647332315543e-02 2.703399235628e-02 
979 130 335 2 2 1.914974467903e-03 1.817433271837e-03 -2.747107936874e-04 -5.372127092422e-04 6.421646406169e-01 6.094553235127e-01 -9.212110190433e-02 -1.801480970883e-01 6.662492162400e-02 -6.788048906048e-02 2.601089846812e-01 2.769536511555e-01 
980 218 205 2 2 1.970431598263e-03 1.110369379378e-03 1.601798928304e-04 1.619883615173e-03 1.316934396477e-01 7.421133673385e-02 1.070559417938e-02 1.082646285713e-01 -4.734609916403e-02 -2.907528787139e-02 3.532904135786e-02 6.584198230704e-02 
981 218 446 2 3 2.086493345560e-03 8.365142339260e-04 1.892246288316e-03 2.703745584491e-04 1.805112397512e+00 7.237033454089e-01 1.637061168422e+00 2.339123048089e-01 -3.714620962613e-01 2.445174372033e-01 -5.620125014844e-01 7.166804852095e-01 
982 477 470 3 3 2.399240103806e-03 6.991377713375e-04 -2.065226243476e-03 1.001199288682e-03 9.262088627390e-01 2.698969557325e-01 -7.972652871360e-01 3.865055661057e-01 -2.924848840987e-01 -9.677107774905e-02 4.627510895777e-03 3.081127436054e-01 
983 477 55 3 1 1.967296623682e-03 6.450015413697e-04 1.607973016806e-03 -9.320149110425e-04 1.483190339120e-01 4.862815517298e-02 1.212287977004e-01 -7.026675567543e-02 -6.382397975755e-02 1.789939797918e-02 -1.328821697341e-02 6.760521836694e-02 
984 477 390 3 2 2.179012099442e-03 1.638977523481e-03 2.734798358758e-04 -1.409629450036e-03 5.163897339836e-01 3.884104946329e-01 6.481018610863e-02 -3.340588044032e-01 -8.406274862987e-02 2.329820467047e-01 -5.253938451658e-02 2.531947209546e-01 
985 353 494 2 3 2.209364425152e-03 1.838684445431e-03 -8.192655624853e-04 -9.106781052523e-04 2.236457827894e-01 1.861232205152e-01 -8.293122037657e-02 -9.218457371708e-02 5.539481510851e-03 8.836059663652e-02 -6.830672119934e-02 1.118216841868e-01 
986 494 287 3 2 2.211422328574e-03 -1.031850161344e-03 -1.841078858324e-03 6.603806457507e-04 2.068736182449e-01 -9.652727731183e-02 -1.722288139965e-01 6.177713403727e-02 3.182471993500e-02 -1.766618553744e-02 4.747288077647e-04 3.640236637673e-02 
987 494 459 3 3 2.407861891043e-03 2.130845918176e-03 6.620304240059e-04 -9.049918657226e-04 8.099091425908e-01 7.167319674779e-01 2.226807505323e-01 -3.044033334077e-01 -9.031952623693e-02 3.373808004307e-01 3.414324671847e-02 3.509261782988e-01 
988 140 49 2 1 1.656349661354e-03 -4.624992139846e-05 1.626514333718e-03 -3.095258755699e-04 6.872472146187e-01 -1.918986697014e-02 6.748680375082e-01 -1.284274696346e-01 -2.782653418887e-01 3.002558659859e-02 1.993590909718e-01 3.436236073092e-01 
989 287 376 2 2 1.990725757944e-03 -1.025278089612e-04 -4.528483062136e-05 1.987567955026e-03 2.313343332777e-02 -1.191434944458e-03 -5.262370297657e-04 2.309673775432e-02 1.774805499088e-03 -5.199632084690e-04 7.970568914907e-05 1.851121091295e-03 
990 287 347 2 2 1.973834291659e-03 -2.474685172191e-04 -1.901763061105e-03 4.669886543933e-04 1.096279023816e-01 -1.374454510333e-02 -1.056250243988e-01 2.593682095477e-02 -1.839016044573e-02 -1.004449609973e-02 -5.065056112255e-02 5.481395119079e-02 
991 287 272 2 2 1.902589828619e-03 -1.222243018138e-03 -1.042053454193e-03 -1.019850312144e-03 7.874605681200e-01 -5.058726620770e-01 -4.312942246967e-01 -4.221045934958e-01 -1.519229321036e-01 3.736505328475e-02 1.438940190194e-01 2.125610811402e-01 
992 425 274 3 2 2.184395178936e-03 -9.756316214147e-04 1.945033821821e-03 1.912293623483e-04 4.587802802761e-01 -2.049082295343e-01 4.085081172704e-01 4.016318169037e-02 -9.625093960886e-02 -3.927882322971e-02 -9.154881023655e-02 1.385216733426e-01 
993 425 326 3 2 2.224441819821e-03 -1.522941062951e-03 -1.620801213613e-03 4.237162371705e-05 1.115567849631e-01 -7.637619791052e-02 -8.128392967789e-02 2.124956505232e-03 2.765110536219e-02 -2.654103009335e-02 -2.139946280350e-02 4.389700347911e-02 
994 152 49 2 1 1.584407266400e-03 1.540078667253e-03 2.263878716526e-04 -2.953855379998e-04 1.615886578576e+00 1.570677250187e+00 2.308857899819e-01 -3.012543154033e-01 7.530003064241e-02 -3.639583951580e-01 1.136555456525e-01 3.886558774524e-01 
995 25 62 1 1 1.488153779001e-03 1.155464044204e-03 6.775183105823e-04 6.484392425914e-04 2.892162823277e-02 2.245594641787e-02 1.316727678017e-02 1.260213760863e-02 7.074479765668e-03 -1.259251459611e-02 5.510959094123e-04 1.445418259568e-02 
996 25 481 1 3 1.990981084734e-03 -6.182975766498e-04 -1.890999371272e-03 -7.638824730823e-05 2.148024970923e-02 -6.670674293635e-03 -2.040156936014e-02 -8.241357186225e-04 -6.800110284567e-03 1.918469992594e-03 7.549147706685e-03 1.033980938374e-02 
997 205 446 2 3 2.212741587543e-03 -2.738551454515e-04 1.732066395486e-03 -1.349509056724e-03 1.963530374260e-01 -2.430120621715e-02 1.536991484644e-01 -1.197519872241e-01 4.978775768359e-02 -3.153685620152e-02 -5.058029224379e-02 7.766440676205e-02 
998 335 451 2 3 2.142567171915e-03 1.319460927422e-03 -1.196812802117e-03 1.190485642023e-03 9.614055180171e-01 5.920640589756e-01 -5.370298056795e-01 5.341907037331e-01 -1.728626399096e-03 -1.815815422470e-01 -1.806307038224e-01 2.561294512496e-01 
999 376 235 2 2 1.976825649576e-03 1.462375077880e-03 -9.185429753258e-04 -9.620694272745e-04 9.137633288143e-02 6.759648831071e-02 -4.245851863430e-02 -4.447047531003e-02 2.396348544172e-02 -1.404536335808e-04 3.655933303515e-02 4.371330682657e-02 
1000 144 274 2 2 1.957150266273e-03 -5.528629047627e-04 -1.757566234862e-03 6.601065848643e-04 2.297441908527e-01 -6.489897219239e-02 -2.063156005223e-01 7.748799661918e-02 -2.483037733885e-02 -4.067616263628e-03 -3.162655856011e-02 4.041450664321e-02 
1001 134 398 2 2 1.996987712054e-03 4.663815673079e-05 1.430003040814e-03 1.393153296553e-03 4.282201708512e-03 1.000076230960e-04 3.066399170905e-03 2.987381139456e-03 -4.038285863719e-04 5.822993173844e-04 -5.841826418879e-04 9.183786698746e-04 
1002 134 123 2 2 1.997706948979e-03 -3.722517594997e-04 -1.432153517670e-03 1.342087174282e-03 2.844087094895e-03 -5.299658319688e-04 -2.038922345240e-03 1.910697069234e-03 -7.950430838673e-05 -7.337389432956e-04 -8.050314823692e-04 1.092139853483e-03 
1003 322 492 2 3 2.170372070428e-03 -4.224556601197e-04 3.207447201532e-04 2.104559090124e-03 6.134783831751e-01 -1.194115142121e-01 9.066185241349e-02 5.948756554219e-01 -6.318900339587e-02 -6.489835655433e-02 -2.793338995475e-03 9.062256659552e-02 
1004 322 261 2 2 1.909691502678e-03 9.922708721527e-04 1.409745104349e-03 8.215466465404e-04 7.029351806895e-01 3.652433410483e-01 5.189107393850e-01 3.024017437481e-01 -4.017967470670e-03 1.014736529570e-01 -1.692722792744e-01 1.973984570299e-01 
1005 322 139 2 2 1.955211576340e-03 -5.172092178563e-04 -1.590682256914e-03 1.012460809491e-03 2.455110204372e-01 -6.494466603617e-02 -1.997379868308e-01 1.271321679448e-01 -1.132181372448e-01 4.302317185167e-02 9.757149902980e-03 1.215094312866e-01 
1006 322 496 2 3 2.236689356634e-03 -2.144999177700e-03 5.238659414534e-04 -3.568224784548e-04 4.192747092528e-02 -4.020870863941e-02 9.820037800015e-03 -6.688753646781e-03 -5.336038345817e-03 -1.962063312683e-02 3.271140394557e-03 2.059473012707e-02 
1007 322 253 2 2 1.921073226184e-03 5.015649966643e-04 -1.776041818875e-03 -5.335075932810e-04 5.743265308041e-01 1.499485186617e-01 -5.309677541151e-01 -1.594981185675e-01 -1.780857604706e-02 3.603406983609e-02 -1.366994101626e-01 1.424862390148e-01 
1008 470 235 3 2 2.157267930056e-03 -5.629155309763e-04 -7.219836057162e-04 -1.953374183333e-03 7.709851803381e-01 -2.011801715115e-01 -2.580294513717e-01 -6.981156702985e-01 -1.700207271161e-01 -1.997185438266e-01 1.228135522190e-01 2.896164929799e-01 
1009 207 253 2 2 1.879684697427e-03 -9.037503197992e-04 -9.498784393605e-04 1.346915317175e-03 1.080945121196e+00 -5.197172165649e-01 -5.462439877080e-01 7.745668955852e-01 2.662814511310e-02 2.046491580377e-01 1.621906103870e-01 2.624807232834e-01 
1010 6 86 1 1 1.499998711159e-03 -8.844222883669e-04 8.174411622399e-04 8.941942158131e-04 3.235440150763e-08 -1.907665227126e-08 1.763189486446e-08 1.928742902843e-08 -4.891016762726e-09 -5.608655079719e-09 2.896700573103e-10 7.447346206443e-09 
1011 447 350 3 2 2.167406205197e-03 2.056429459639e-03 4.713998885580e-04 4.965175534881e-04 6.480704921736e-01 6.148876241256e-01 1.409520546060e-01 1.484624222678e-01 -2.921497011679e-02 6.773300034156e-02 5.669325521896e-02 9.303439687297e-02 
1012 447 264 3 2 2.070097006043e-03 -1.841367178748e-03 8.753566398322e-04 3.583563597281e-04 2.083332966761e+00 -1.853140667418e+00 8.809535688964e-01 3.606476488254e-01 2.643209364532e-02 6.219007929063e-02 -1.609378177121e-02 6.946417312795e-02 
1013 447 59 3 1 1.925286541917e-03 7.543501546394e-04 -1.609794683900e-03 7.390840198312e-04 5.121607047119e-01 2.006706525954e-01 -4.282342195811e-01 1.966095872987e-01 1.988737121725e-02 4.795738222132e-02 8.415754595407e-02 9.888331802921e-02 
1014 447 34 3 1 1.919640448558e-03 -1.131263856078e-03 -1.357941592811e-03 7.491703212131e-04 5.713000403085e-01 -3.366729884559e-01 -4.041340592152e-01 2.229589582927e-01 5.153379346683e-02 4.841662877453e-02 1.655768632964e-01 1.800433266468e-01 
1015 447 296 3 2 2.180988978896e-03 -4.695836181782e-04 1.723216595800e-03 -1.251690343322e-03 4.949698858613e-01 -1.065708044108e-01 3.910796111263e-01 -2.840679308162e-01 1.357973372238e-01 1.442571392939e-01 1.476548034127e-01 2.470890123117e-01 
1016 447 430 3 3 2.339147483207e-03 1.773627795552e-03 -9.966946284480e-04 -1.154320236616e-03 1.868181870410e+00 1.416524317638e+00 -7.960194252686e-01 -9.219085817267e-01 6.106924783520e-02 1.344887328270e-01 -2.229024600816e-02 1.493771313008e-01 
1017 447 155 3 2 2.192704395859e-03 -9.210342454544e-04 -1.703177391502e-03 -1.028997210588e-03 3.744407046981e-01 -1.572818992703e-01 -2.908458358109e-01 -1.757183692396e-01 -4.392110700596e-02 1.205347231099e-03 3.731781106875e-02 5.764664366239e-02 
1018 487 380 3 2 2.202770825536e-03 1.734332962603e-03 3.767885711239e-04 1.304729419202e-03 2.802313091170e-01 2.206377490208e-01 4.793415335010e-02 1.659845994635e-01 1.120417076193e-02 -1.364539642388e-01 2.451276950198e-02 1.390902357019e-01 
1019 487 332 3 2 2.108507177334e-03 -9.505719128174e-04 6.799889756913e-04 1.754944599801e-03 1.453124105445e+00 -6.551075449599e-01 4.686293613963e-01 1.209458677260e+00 -2.822367020444e-02 5.039321247831e-01 -2.105462003871e-01 5.468764617770e-01 
1020 487 95 3 1 1.896789846633e-03 -2.289956128763e-04 -1.079186904159e-03 1.542960906006e-03 8.315562301842e-01 -1.003921066481e-01 -4.731175650690e-01 6.764369582630e-01 -1.164178461537e-02 -1.318776376370e-01 -9.396643589626e-02 1.623481861088e-01 
1021 487 210 3 2 2.180830550973e-03 -1.652108272037e-03 1.245236672959e-03 -6.898882357614e-04 4.966753750797e-01 -3.762610053862e-01 2.835976372988e-01 -1.571192672934e-01 -2.271379888220e-02 -4.887499615024e-02 -3.382472895173e-02 6.363013591849e-02 
1022 487 445 3 3 2.347591539937e-03 1.385275549940e-03 -1.176713918900e-03 -1.485779944066e-03 1.723022610611e+00 1.016727592457e+00 -8.636530904092e-01 -1.090493126452e+00 7.768870750988e-02 3.536745694958e-01 -2.076710774703e-01 4.174308479261e-01 
1023 106 402 2 3 2.178294311940e-03 1.942600643209e-04 1.195415526349e-04 2.166319217944e-03 5.242416397623e-01 4.675181590556e-02 2.876960162342e-02 5.213596403565e-01 -1.343982230232e-01 7.461519587836e-02 7.934468286392e-03 1.539261692980e-01 
1024 106 198 2 2 1.884692840658e-03 -1.719426249611e-03 -7.172189993187e-04 2.850217233691e-04 1.014160637038e+00 -9.252300337901e-01 -3.859383670132e-01 1.533713113914e-01 1.396224037623e-01 -2.956690493151e-01 9.827660142851e-02 3.414277269696e-01 
1025 106 293 2 2 1.937780410451e-03 1.463620985283e-03 -1.055871200537e-03 -7.056504364378e-04 4.019879849762e-01 3.036247283074e-01 -2.190379952284e-01 -1.463855220701e-01 -1.026312459922e-01 -1.683504926877e-01 3.903234522785e-02 2.009939924875e-01 
1026 106 380 2 2 1.857841860075e-03 7.428142111685e-04 6.566578638273e-04 -1.571179135111e-03 1.388289235871e+00 5.550746787325e-01 4.906935641790e-01 -1.174077906077e+00 1.812834240298e-01 -3.213222739712e-02 7.227694233250e-02 1.977880589378e-01 
1027 46 293 1 2 1.674528649953e-03 1.326645124455e-03 -1.042813455657e-04 1.016456744894e-03 4.971897267223e-01 3.938985020673e-01 -3.096251217052e-02 3.017994653200e-01 7.411937010208e-02 1.204656292751e-02 -9.550221357985e-02 1.214885735423e-01 
1028 46 380 1 2 1.725189875608e-03 6.058383503405e-04 1.608247718798e-03 1.509280462207e-04 9.371145302398e-02 3.290883682473e-02 8.735921343035e-02 8.198336144554e-03 -7.775209945457e-03 7.199888468392e-03 -4.550965849876e-02 4.672709385706e-02 
1029 46 95 1 1 1.420356184074e-03 -1.357490225139e-03 1.522722435158e-04 3.891595330252e-04 5.041746945853e-01 -4.818595696882e-01 5.405109839997e-02 1.381374551735e-01 -2.407132963912e-02 6.051700642363e-02 -1.076464829615e-01 1.258153499023e-01 
1030 46 436 1 3 1.952074664111e-03 -1.983935948234e-04 -1.664383515884e-03 -1.000531352757e-03 2.631211441843e-01 -2.674157429964e-02 -2.243431069069e-01 -1.348621336928e-01 3.952094803322e-02 3.413180426899e-02 -6.461478210948e-02 8.307800830037e-02 
1031 460 296 3 2 2.242825914538e-03 -1.803339351705e-03 2.440744283592e-04 1.310977856005e-03 1.659019479439e-02 -1.333931043477e-02 1.805419798550e-03 9.697309925517e-03 3.648922004350e-03 5.113356540624e-03 4.067349453180e-03 7.483607317307e-03 
1032 460 293 3 2 2.166584992857e-03 -5.880171678646e-04 2.085250891203e-03 7.420397972407e-06 6.577599132489e-01 -1.785178622572e-01 6.330674539988e-01 2.252780455276e-03 -5.960072479899e-04 -1.075664503676e-03 2.550493757848e-01 2.550523404460e-01 
1033 460 432 3 3 2.476824013163e-03 -1.933800505781e-03 -1.416160976572e-03 -6.241481270167e-04 1.021726259558e-01 -7.977210924158e-02 -5.841871888495e-02 -2.574702634654e-02 6.533745660023e-03 -2.690064889258e-02 4.079270199760e-02 4.929887706081e-02 
1034 460 476 3 3 2.465907569523e-03 1.794973012366e-03 -3.801934083141e-04 -1.647490515476e-03 1.822906222739e-01 1.326922190568e-01 -2.810555182303e-02 -1.217896708572e-01 -2.108495619672e-02 -8.322164150531e-02 -3.767310201380e-03 8.593375133677e-02 
1035 460 247 3 2 2.189718814720e-03 -2.360083503736e-04 -1.180017377920e-03 -1.829406333731e-03 4.040859703799e-01 -4.355247013333e-02 -2.177578527512e-01 -3.375946850417e-01 1.154612363059e-01 -1.451618554433e-01 7.873794545568e-02 2.015016759722e-01 
1036 445 141 3 2 2.175118538338e-03 1.151649577929e-03 1.480593173106e-03 1.101221031959e-03 5.594517001040e-01 2.962102078302e-01 3.808161961093e-01 2.832397258636e-01 -3.502304242602e-02 -4.346770864983e-02 9.506925650720e-02 1.102461733072e-01 
1037 445 361 3 2 2.197703654214e-03 1.273016889016e-03 -3.295463265580e-04 1.760888574180e-03 3.265187270807e-01 1.891355339728e-01 -4.896158171987e-02 2.616199389166e-01 -2.649674324520e-02 -8.544837443875e-03 1.755641005712e-02 3.291381448022e-02 
1038 445 436 3 3 2.418485534625e-03 -4.551745325003e-04 -1.719128744659e-03 1.639049964291e-03 6.739528842478e-01 -1.268422674532e-01 -4.790650013277e-01 4.567496621522e-01 7.564517877568e-02 1.747612758610e-01 2.043067013741e-01 2.792936176122e-01 
1039 445 290 3 2 2.167343032408e-03 1.706062845740e-03 1.155052671230e-03 -6.727397068678e-04 6.488141843926e-01 5.107256937317e-01 3.457757012198e-01 -2.013908540057e-01 1.141279571716e-01 -1.923280675887e-01 -4.078781216633e-02 2.273299844101e-01 
1040 445 481 3 3 2.495456872546e-03 -1.680678148211e-03 1.603350714987e-03 -9.120813832197e-04 8.867707356897e-03 -5.972358065344e-03 5.697571890499e-03 -3.241118242133e-03 7.057750625141e-04 -1.537111737601e-03 -4.002614236605e-03 4.345313758500e-03 
1041 436 338 3 2 2.217978650032e-03 -9.639796776502e-04 2.574123827106e-04 1.980886503135e-03 1.564445528372e-01 -6.799405828905e-02 1.815651611765e-02 1.397213193191e-01 6.227479357838e-02 -3.165573598458e-02 3.441904104944e-02 7.787750588404e-02 
1042 436 432 3 3 2.391694634668e-03 1.792553813619e-04 -1.941309697457e-03 1.385419572661e-03 1.032172421800e+00 7.736040312971e-02 -8.378019095096e-01 5.978990188779e-01 -9.218629675052e-02 4.348764514804e-02 7.286448023028e-02 1.252945372645e-01 
1043 436 361 3 2 2.220907367037e-03 1.728191421516e-03 1.389582418101e-03 1.218386098894e-04 1.354801277351e-01 1.054233949658e-01 8.476751723056e-02 7.432417342513e-03 -1.453478005278e-02 1.237992381217e-02 6.497084753211e-02 6.771804319248e-02 
1044 436 297 3 2 2.186558502143e-03 -2.088147689549e-03 6.334312121709e-04 -1.394353232654e-04 4.362758196366e-01 -4.166402791817e-01 1.263861547735e-01 -2.782100725147e-02 6.644371666119e-03 6.526674037023e-02 1.969914111558e-01 2.076283004375e-01 
1045 436 225 3 2 2.167800422892e-03 2.795145173115e-04 -3.960993517328e-04 -2.112897444662e-03 6.434362013693e-01 8.296416835575e-02 -1.175683238883e-01 -6.271401607454e-01 2.182706205933e-01 1.420663382960e-01 2.242145083986e-03 2.604418082904e-01 
1046 141 380 2 2 1.871674389026e-03 -8.025921652653e-04 7.290931691752e-05 1.689288331310e-03 1.190672581486e+00 -5.105719728282e-01 4.638153147662e-02 1.074647016654e+00 1.545496127955e-01 1.395009090369e-01 6.740672398970e-02 2.188372748788e-01 
1047 141 361 2 2 1.930413504590e-03 1.213673110870e-04 -1.810139499664e-03 6.596675422215e-04 4.754554104301e-01 2.989242696886e-02 -4.458322616900e-01 1.624742581258e-01 2.163956759559e-01 2.229804312668e-02 2.137320153704e-02 2.185888950602e-01 
1048 141 151 2 2 1.898753631426e-03 -1.052696910783e-03 1.011186505230e-03 -1.214329616916e-03 8.344331217148e-01 -4.626219826239e-01 4.443796700267e-01 -5.336536748442e-01 4.029717319765e-02 2.260970020033e-01 1.533401846083e-01 2.761465710421e-01 
1049 406 77 3 1 1.946464114263e-03 -7.741010823923e-04 -1.710238338288e-03 5.143684366308e-04 3.106529483637e-01 -1.235454493174e-01 -2.729516451399e-01 8.209248257582e-02 4.290421393365e-02 -5.089307137881e-02 -1.046469408954e-01 1.240236208406e-01 
1050 163 28 2 1 1.685972070108e-03 8.577101240924e-04 8.602181273846e-04 -1.169127853373e-03 3.885108501515e-01 1.976484043851e-01 1.982263418898e-01 -2.694106648046e-01 -7.835563211891e-02 -8.466224297908e-02 -1.197768188031e-01 1.662942776935e-01 
1051 486 70 3 1 1.826236640144e-03 -1.678185825220e-03 -4.380783594400e-04 5.717691429481e-04 1.816541414668e+00 -1.669276580049e+00 -4.357526649612e-01 5.687337034878e-01 2.427731205648e-01 -1.311974187011e-01 6.120366307046e-01 6.713720191271e-01 
1052 486 350 3 2 2.183446956380e-03 1.103747995030e-03 -1.871199944452e-03 2.186132262191e-04 4.687625897058e-01 2.369628293560e-01 -4.017265128678e-01 4.693390959966e-02 -1.549876657720e-01 -7.368910234598e-02 1.517761832963e-01 2.291010042798e-01 
1053 486 313 3 2 2.002681145576e-03 9.809680934383e-04 1.063518793953e-03 -1.384688104018e-03 3.358048305929e+00 1.644864062169e+00 1.783283121354e+00 -2.321812212698e+00 2.250792672339e-01 2.830062917486e-02 1.811915836053e-01 2.903308321891e-01 
1054 486 296 3 2 2.178562236099e-03 -1.422265082788e-03 -6.193832372102e-04 -1.529594670591e-03 5.213061041328e-01 -3.403324711440e-01 -1.482116310496e-01 -3.660152670488e-01 -5.122905220372e-03 -2.390062783885e-01 1.015449482307e-01 2.597337517116e-01 
1055 155 483 2 3 2.216250870510e-03 -1.312023392985e-03 -1.200741016768e-03 1.322340178603e-03 1.692758323716e-01 -1.002115125565e-01 -9.171183541572e-02 1.009995020825e-01 -1.515529160158e-02 5.672425270883e-02 3.647097814794e-02 6.911914319471e-02 
1056 155 96 2 1 1.694270025498e-03 -6.094140316161e-04 -1.408409162083e-03 -7.180174716069e-04 3.154875480597e-01 -1.134780971712e-01 -2.622578139985e-01 -1.337009851867e-01 9.746203313341e-02 5.673854408818e-03 -9.384985987536e-02 1.354209611728e-01 
1057 155 450 2 3 2.229368220623e-03 -1.364123531328e-03 -2.872867930820e-05 -1.763072408435e-03 8.091072259870e-02 -4.950829549496e-02 -1.042653331393e-03 -6.398739393551e-02 -2.031182762724e-02 2.973695530312e-03 1.566720207345e-02 2.582391193208e-02 
1058 81 119 1 2 1.560671344873e-03 -9.980136237935e-04 1.146229265836e-03 -3.547144253783e-04 1.975483855032e+00 -1.263276734966e+00 1.450886771429e+00 -4.489943528366e-01 -5.211955000509e-03 -2.671092876390e-02 -7.164988022393e-02 7.664426610295e-02 
1059 81 264 1 2 1.510967405447e-03 1.412886197913e-03 -1.523516673732e-04 -5.133849058166e-04 2.802429182861e+00 2.620515504714e+00 -2.825704625824e-01 -9.521878744134e-01 -1.935680867334e-01 -1.478420412689e-01 -4.888451018549e-01 5.461642673919e-01 
1060 81 187 1 2 1.642542217313e-03 -8.326515083065e-04 -5.722091463203e-04 -1.295072621222e-03 8.447063841071e-01 -4.282057638393e-01 -2.942686731862e-01 -6.660139992127e-01 -1.282101315558e-01 -3.310943365466e-01 2.287204301845e-01 4.223438560114e-01 
1061 366 313 2 2 1.897387568978e-03 3.912657803478e-04 -1.777281250531e-03 5.369003935107e-04 8.513778083579e-01 1.755650811696e-01 -7.974848368632e-01 2.409128676751e-01 7.741881909595e-02 -7.547237445336e-02 -3.062522820159e-01 3.247771745301e-01 
1062 366 263 2 2 1.975629768421e-03 -1.527133090699e-03 1.239058681842e-03 -1.889737762730e-04 9.853983551292e-02 -7.616986034991e-02 6.180137627562e-02 -9.425574127218e-03 1.901641543949e-02 1.978924744071e-02 -2.392161769808e-02 3.640717187218e-02 
1063 366 452 2 3 2.176380427604e-03 4.330681545062e-04 1.004036208308e-03 -1.881753180312e-03 5.453697349000e-01 1.085206711203e-01 2.515970800923e-01 -4.715403704600e-01 -4.324918472568e-02 -1.549733889418e-01 -9.264166007257e-02 1.856602284835e-01 
1064 399 482 2 3 2.190974054836e-03 3.544133218546e-04 1.171566689544e-03 1.817192889654e-03 3.915304134369e-01 6.333420248724e-02 2.093607586605e-01 3.247351477351e-01 2.871896819746e-02 -1.469366409414e-02 3.872028395647e-03 3.249116037840e-02 
1065 399 405 2 3 2.201159735181e-03 -1.860255540450e-03 4.616062750706e-04 1.082346132632e-03 2.946918306061e-01 -2.490514894710e-01 6.179996664742e-02 1.449047781844e-01 6.678104606051e-03 -1.045812241125e-01 5.608033197473e-02 1.188563551199e-01 
1066 399 455 2 3 2.219464906054e-03 -1.868805746345e-03 -3.762435044898e-04 -1.136675141351e-03 1.456800190904e-01 -1.226636456657e-01 -2.469566460240e-02 -7.460845893073e-02 2.483290436070e-03 6.681446594005e-02 -2.619859903950e-02 7.181020945434e-02 
1067 338 296 2 2 1.925345766276e-03 1.273696213088e-03 -5.384866752360e-04 1.339659052549e-03 5.283284324333e-01 3.495112075160e-01 -1.477645345563e-01 3.676118750333e-01 -2.359199903867e-02 -7.273131609562e-03 1.950687028543e-02 3.146424717648e-02 
1068 338 427 2 3 2.204494946867e-03 -5.826394639803e-04 -1.904371430056e-03 9.453563783892e-04 2.650272058200e-01 -7.004566254899e-02 -2.289459722593e-01 1.136519545326e-01 -1.085560743286e-01 -4.448359123567e-03 -7.586597249473e-02 1.325136029059e-01 
1069 338 95 2 1 1.678935016892e-03 -1.951169526654e-04 1.559243376690e-03 -5.911956173526e-04 4.542893156732e-01 -5.279510285437e-02 4.219029321788e-01 -1.599667942678e-01 -1.002415880482e-01 -4.697018226768e-02 -9.079754789634e-02 1.431739106844e-01 
1070 430 350 3 2 2.227227806334e-03 2.828016640870e-04 1.468094517006e-03 1.650837790104e-03 9.382281165194e-02 1.191312679782e-02 6.184403542581e-02 6.954216475223e-02 -3.172498597872e-02 2.834296200235e-02 -1.977073003554e-02 4.691140582582e-02 
1071 430 149 3 2 2.144898654151e-03 1.394983335470e-03 -1.580933193940e-04 1.621609765850e-03 9.302796403146e-01 6.050283975211e-01 -6.856780669680e-02 7.033201996685e-01 1.670098653325e-01 2.634405069722e-01 -1.179863360320e-01 3.334875879586e-01 
1072 430 474 3 3 2.465588458195e-03 2.109992848643e-04 -2.032375979644e-03 1.379874495864e-03 1.848560161359e-01 1.581954485466e-02 -1.523761703372e-01 1.034552628705e-01 -7.127013956596e-02 -1.423195883413e-02 -1.006377236287e-02 7.337070914323e-02 
1073 430 183 3 2 2.171290245014e-03 4.552059202671e-04 2.953209742829e-04 -2.102397303175e-03 6.028981192133e-01 1.263961802499e-01 8.200122501733e-02 -5.837687443370e-01 -6.710850591604e-04 -9.087390880472e-02 -1.291023970979e-02 9.178884434379e-02 
1074 297 307 2 2 1.925700061506e-03 -6.621380998943e-04 7.773869048166e-04 1.632655341391e-03 5.245719800359e-01 -1.803702980863e-01 2.117647478261e-01 4.447448812355e-01 -1.620221444641e-01 4.428596629337e-02 -8.679625242835e-02 1.890661565244e-01 
1075 297 196 2 2 1.984053783864e-03 -1.184375318261e-03 1.461241678397e-03 -6.312664097457e-04 5.215656528464e-02 -3.113471474957e-02 3.841294405212e-02 -1.659465483228e-02 4.838372380726e-04 1.561426986347e-03 2.706586761181e-03 3.161924193025e-03 
1076 297 239 2 2 1.996562951947e-03 -1.932559613968e-03 -4.395631351342e-04 2.413735896503e-04 5.219185952842e-03 -5.051875765005e-03 -1.149055549710e-03 6.309711633492e-04 4.741549478320e-04 -1.375365892439e-03 1.291659787223e-03 1.945466334473e-03 
1077 297 311 2 2 1.976318175832e-03 3.373046638209e-04 -1.588622155794e-03 -1.126205461720e-03 9.439418051600e-02 1.611056241599e-02 -7.587679371649e-02 -5.379054999936e-02 6.484001801628e-04 9.528363948677e-03 -1.324648315038e-02 1.633032327253e-02 
1078 7 403 1 3 1.999055364650e-03 -8.913693804497e-04 1.640548377579e-03 -7.143416545007e-04 7.281176388470e-04 -3.246642289705e-04 5.975383334650e-04 -2.601852695041e-04 5.336278073363e-05 -7.650582060251e-05 -2.422894529586e-04 2.596245480857e-04 
1079 7 131 1 2 1.656318742709e-03 -1.300436852266e-03 -9.324996717104e-04 -4.274343610191e-04 6.875875931750e-01 -5.398503453887e-01 -3.871085850656e-01 -1.774408246161e-01 1.221278353430e-01 -9.949186175216e-02 -1.545112312519e-01 2.206525760182e-01 
1080 482 203 3 2 2.217022661113e-03 -5.585709134903e-04 1.212764482163e-03 1.769856018238e-03 1.635024847834e-01 -4.119386503589e-02 8.943977423813e-02 1.305245371491e-01 2.255944068942e-02 -3.143682844187e-02 2.866138027292e-02 4.815264547096e-02 
1081 482 427 3 3 2.407015865011e-03 1.086039304085e-03 -2.903224117567e-04 2.128369540665e-03 8.210897792293e-01 3.704735749306e-01 -9.903580962629e-02 7.260369579055e-01 1.868494749635e-01 9.626504539756e-02 -8.221221466966e-02 2.256956656660e-01 
1082 482 239 3 2 2.194326804147e-03 -1.388048857801e-03 1.550504712625e-03 -6.959350744741e-04 3.586496948498e-01 -2.268683490291e-01 2.534207944756e-01 -1.137464581956e-01 1.006668465022e-01 6.629855547851e-02 -5.307144288991e-02 1.317037983266e-01 
1083 482 405 3 3 2.439016546907e-03 -2.214668862305e-03 -7.099604144732e-04 -7.348467570221e-04 4.361094019656e-01 -3.959948177951e-01 -1.269447770528e-01 -1.313945902285e-01 7.556093443390e-02 -5.333963652025e-02 -1.761910453423e-01 1.989921005855e-01 
1084 198 5 2 1 1.670287639761e-03 -1.648783175439e-03 7.992378072852e-05 2.549255365786e-04 5.396814357777e-01 -5.327331953044e-01 2.582392380185e-02 8.236819594549e-02 -1.993975591006e-02 6.218300861277e-02 -1.484599608310e-01 1.621871770388e-01 
1085 198 176 2 2 1.845275457193e-03 -1.159181319962e-04 -1.650197871372e-03 8.175888238691e-04 1.576380893042e+00 -9.902647744193e-02 -1.409730121336e+00 6.984493265153e-01 -1.035516909349e-01 5.164842656679e-02 8.956409734670e-02 1.463292185308e-01 
1086 198 95 2 1 1.695133664077e-03 4.989118853002e-04 -8.209861213669e-05 -1.617969371675e-03 3.081824590260e-01 9.070428775469e-02 -1.492587440571e-02 -2.941536647867e-01 -1.148209005670e-01 -3.287065970503e-02 -3.373789230735e-02 1.241070701202e-01 
1087 198 307 2 2 1.929943177902e-03 -1.092277273827e-03 -4.879362545493e-04 -1.514440239331e-03 4.802838886739e-01 -2.718231202818e-01 -1.214273686621e-01 -3.768822085742e-01 4.880680711531e-02 7.365253933432e-02 -5.893154979031e-02 1.062060663610e-01 
1088 450 427 3 3 2.383289350887e-03 -4.076151846390e-05 2.089237911790e-03 1.146076601541e-03 1.154630638565e+00 -1.974770628474e-02 1.012171729508e+00 5.552389842172e-01 2.848952474361e-01 2.355524506011e-01 -4.192672169698e-01 5.589590845683e-01 
1089 450 122 3 2 2.151784323075e-03 -2.136295724177e-03 1.296232303918e-04 2.227423849093e-04 8.403734393079e-01 -8.343244096788e-01 5.062399552337e-02 8.699142478108e-02 -1.859417746117e-03 -1.623525330982e-01 7.664636295851e-02 1.795451681124e-01 
1090 450 464 3 3 2.443284252003e-03 -1.136155554911e-03 -1.882142074286e-03 1.065987665659e-03 3.911405366256e-01 -1.818848924654e-01 -3.013083968180e-01 1.706518540527e-01 -7.979830251473e-02 -4.906212778845e-02 -1.716766390060e-01 1.955702683124e-01 
1091 450 432 3 3 2.493401508604e-03 1.685113004529e-03 1.794887261679e-03 -3.947467073215e-04 1.552189468076e-02 1.049014628860e-02 1.117351174429e-02 -2.457372707716e-03 -2.635864504102e-03 8.823332163262e-04 -7.240189345159e-03 7.755426187024e-03 
1092 244 264 2 2 1.951964165705e-03 9.284350178161e-04 1.706343314895e-03 1.912198044158e-04 2.726907172922e-01 1.297030014258e-01 2.383773179143e-01 2.671353631525e-02 -1.145922017031e-01 6.583640847880e-02 -3.110610164934e-02 1.357696392143e-01 
1093 244 187 2 2 1.933509154827e-03 -1.317102688403e-03 1.286485835948e-03 -5.904679109897e-04 4.440840055279e-01 -3.025091637644e-01 2.954771544041e-01 -1.356173330720e-01 8.306962401043e-02 1.128234508955e-01 6.051903207488e-02 1.526179764919e-01 
1094 244 427 2 3 2.212819869170e-03 4.438829013179e-04 1.188318516043e-03 -1.813129572794e-03 1.957345474738e-01 3.926357496663e-02 1.051124812430e-01 -1.603800207087e-01 -3.144241659789e-02 8.073484176004e-02 4.521571842607e-02 9.773024827718e-02 
1095 196 139 2 2 1.984053778365e-03 -1.134588759094e-03 1.571457672853e-03 -4.239086288474e-04 5.215659221370e-02 -2.982594720145e-02 4.131031019312e-02 -1.114366441664e-02 -7.077510866413e-04 -1.268594365684e-03 -2.808472962179e-03 3.161924041557e-03 
1096 41 499 1 3 1.930602732240e-03 2.557927705474e-04 1.531169241388e-03 1.147744624250e-03 4.584811935520e-01 6.074588665194e-02 3.636233853805e-01 2.725673782759e-01 1.524415963483e-01 -1.180916648612e-01 1.235683126625e-01 2.290266567480e-01 
1097 41 307 1 2 1.605007616394e-03 1.428954602063e-03 -3.117188899837e-04 6.610367066614e-04 1.323935226536e+00 1.178712995171e+00 -2.571300067432e-01 5.452745351756e-01 9.358046062236e-02 -3.565825332786e-02 -2.191067145833e-01 2.409077956734e-01 
1098 41 239 1 2 1.701534384959e-03 1.585330879890e-04 -1.528668929934e-03 -7.302450450795e-04 2.558582844933e-01 2.383848618450e-02 -2.298646524153e-01 -1.098063290083e-01 1.248279370047e-02 -3.433757155254e-02 7.459100881390e-02 8.305845865756e-02 
1099 380 263 2 2 1.958179764653e-03 -9.681104546317e-06 1.145536436328e-03 1.588118553495e-03 2.215144514437e-01 -1.095152039489e-03 1.295860982135e-01 1.796521527570e-01 2.365518875850e-02 -4.851209500168e-02 3.513678538078e-02 6.440174689826e-02 
1100 380 452 2 3 2.155114472411e-03 1.950520140659e-03 9.105139627950e-04 -1.046608505443e-04 7.979966474405e-01 7.222393765790e-01 3.371454737369e-01 -3.875386153349e-02 -1.074881340000e-01 2.322636101657e-01 1.740373597658e-02 2.565209028207e-01 
1101 432 427 3 3 2.332256770484e-03 -1.725874522992e-03 2.943506501118e-04 1.540823308862e-03 1.989504281775e+00 -1.472237018134e+00 2.510923694818e-01 1.314381250485e+00 5.004961836466e-02 -2.204170202238e-01 9.816781298001e-02 2.464255396830e-01 
1102 432 247 3 2 2.095449676561e-03 1.697792155407e-03 2.361435986519e-04 -1.205258206715e-03 1.658845600166e+00 1.344043275530e+00 1.869411487246e-01 -9.541328029185e-01 8.928133777253e-03 2.088289413737e-01 5.349205086974e-02 2.157559682471e-01 
1103 113 119 2 2 1.938291064846e-03 -1.334970613022e-03 -1.405020862984e-03 -2.724131068875e-05 3.970492682706e-01 -2.734620793938e-01 -2.878115241154e-01 -5.580246781232e-03 -8.037325931985e-02 7.951988955105e-02 -1.626634131965e-01 1.980976012996e-01 
1104 113 176 2 2 1.886387173344e-03 3.640695862039e-04 -1.326111047535e-03 -1.291254968534e-03 9.918897553193e-01 1.914330726384e-01 -6.972884363575e-01 -6.789606041072e-01 7.040645563177e-02 3.453077328661e-01 -3.347778406534e-01 4.860768477971e-01 
1105 203 176 2 2 1.934968494897e-03 1.417302711593e-03 3.924286535903e-04 1.257519722230e-03 4.295444026072e-01 3.146275756791e-01 8.711538819207e-02 2.791572882330e-01 -5.266658847013e-02 5.515757652390e-04 5.918638346722e-02 7.922816270011e-02 
1106 203 307 2 2 1.940634791109e-03 4.409435697624e-04 1.554690270413e-03 -1.074509340971e-03 3.746454534069e-01 8.512549830463e-02 3.001376889327e-01 -2.074372989098e-01 -2.727768301397e-02 -3.323809745313e-02 -5.928553921199e-02 7.323672762058e-02 
1107 131 473 2 3 2.193791269082e-03 -1.995227544797e-03 9.049261261344e-04 1.135600414869e-04 3.638369517815e-01 -3.309054595304e-01 1.500806243330e-01 1.883376049538e-02 -3.178306036184e-02 -6.807000675531e-02 -1.599250903013e-02 7.680787128096e-02 
1108 176 264 2 2 1.904208083324e-03 7.118596224797e-04 -1.377490748658e-03 1.105343177407e-03 7.679194178309e-01 2.870751530042e-01 -5.555075115166e-01 4.457572135793e-01 1.448818537728e-01 2.650615321888e-01 2.370162244867e-01 3.839597089134e-01 
1109 176 427 2 3 2.110180096677e-03 2.273075059815e-04 -1.895515547510e-03 -8.990061998027e-04 1.427429256540e+00 1.537619394573e-01 -1.282219632819e+00 -6.081318620293e-01 -2.644966000422e-01 -4.972983330745e-02 3.797705695632e-02 2.717972858763e-01 
1110 403 247 3 2 2.086050861760e-03 -5.338726777616e-04 -1.066524388886e-03 1.711465421707e-03 1.812444930812e+00 -4.638500653295e-01 -9.266393057134e-01 1.486990027279e+00 4.404406472601e-02 2.220430939755e-01 1.521084181737e-01 2.727269442118e-01 
1111 403 435 3 3 2.415818800699e-03 1.268176536785e-03 -1.445540167809e-03 -1.462300370173e-03 7.072941057593e-01 3.712918325127e-01 -4.232196719530e-01 -4.281266593232e-01 2.306099804110e-01 1.026854194492e-02 1.898451112691e-01 2.988771859671e-01 
1112 427 264 3 2 2.126160123732e-03 4.845521164982e-04 5.180247988523e-04 2.004349377209e-03 1.189849077220e+00 2.711667302218e-01 2.898988284144e-01 1.121680926229e+00 -2.555948782670e-01 -8.809102105826e-02 8.455730050719e-02 2.832643762574e-01 
1113 427 187 3 2 2.146068174394e-03 -1.760985589721e-03 9.816731990523e-05 1.222661661804e-03 9.147953056562e-01 -7.506477986235e-01 4.184536376320e-02 5.211787593560e-01 -1.461561000061e-01 -3.475208857571e-01 -1.826045576582e-01 4.188995059486e-01 
1114 119 187 2 2 1.965870988164e-03 1.653621154870e-04 -1.718438412156e-03 -9.403581958438e-04 1.633081670244e-01 1.373690549281e-02 -1.427535321104e-01 -7.811711665428e-02 7.360859107313e-02 -1.115703892478e-02 3.333278395560e-02 8.157069745669e-02 
1115 95 307 1 2 1.645389137368e-03 -1.591189159127e-03 -4.058376424126e-04 1.035291323439e-04 8.113609251219e-01 -7.846342721449e-01 -2.001233614098e-01 5.105144472388e-02 -1.048379550463e-02 3.683251159406e-02 -1.674583832263e-02 4.179673407860e-02 
1116 332 499 2 3 2.102324619524e-03 -2.042774690701e-03 -3.221253908906e-04 3.782533561376e-04 1.549398908568e+00 -1.505511017104e+00 -2.374042164720e-01 2.787701441153e-01 2.884589978424e-02 -1.162973942647e-01 5.674326490247e-02 1.325781579255e-01 
1117 332 426 2 3 2.100044257185e-03 9.005871389666e-04 1.867354369163e-03 -3.348377924177e-04 1.585425172843e+00 6.798968714928e-01 1.409756300783e+00 -2.527852749303e-01 -1.661315256380e-01 1.083820375929e-01 1.576039421301e-01 2.533482829200e-01 
1118 313 260 2 2 1.949653725893e-03 1.199143381636e-03 -1.185155428892e-03 9.790870290905e-04 2.925993709256e-01 1.799645724040e-01 -1.778652938917e-01 1.469390410146e-01 6.056124527383e-02 -2.706108888222e-02 -1.069294247973e-01 1.258327018231e-01 
1119 313 310 2 2 1.764884379953e-03 1.420207821253e-03 9.284409362242e-04 -4.856171815303e-04 2.952871718863e+00 2.376184841297e+00 1.553397499775e+00 -8.124981204564e-01 -7.258291959960e-03 -2.042829547793e-01 -4.117913216293e-01 4.597350334538e-01 
1120 313 58 2 1 1.749999715262e-03 1.158504287895e-03 -1.026654021036e-03 -8.163016228308e-04 3.071067938090e-09 2.033054830619e-09 -1.801671291725e-09 -1.432524656903e-09 1.112508346609e-10 2.197112611309e-10 -1.184401427379e-10 2.732724901856e-10 
1121 313 293 2 2 1.879955146308e-03 -1.187910992386e-03 1.582744316807e-04 -1.448464024606e-03 1.077302542433e+00 -6.807287582334e-01 9.069867862888e-02 -8.300378758473e-01 1.942036172750e-01 -2.962603090845e-01 -1.916423460288e-01 4.027555145407e-01 
1122 293 361 2 2 1.913619499086e-03 2.031527022379e-04 -1.705197522174e-04 -1.895149487761e-03 6.575759519817e-01 6.980924454182e-02 -5.859560296578e-02 -6.512291127661e-01 -6.643692238675e-02 7.872130824869e-02 -1.420488379278e-02 1.039840745123e-01 
1123 70 264 1 2 1.595532070177e-03 -1.115862818138e-03 -1.029164833737e-03 -4.913171104890e-04 1.455815868989e+00 -1.018149887818e+00 -9.390437990973e-01 -4.482938698164e-01 -4.472861706124e-02 2.107370995233e-01 -3.398461150445e-01 4.023756406774e-01 
1124 350 277 2 2 1.939132976365e-03 1.935708436614e-03 1.143072395893e-04 1.426195730332e-05 3.889515002970e-01 3.882646057465e-01 2.292775837189e-02 2.860664924948e-03 -2.913674064011e-03 4.931840866185e-02 1.803629544852e-04 4.940473115283e-02 
1125 350 149 2 2 1.970352564090e-03 1.112181671383e-03 -1.626187836400e-03 -2.922802425387e-05 1.322218002859e-01 7.463368004046e-02 -1.091264006506e-01 -1.961365725138e-03 2.057956230341e-02 1.411184254671e-02 -2.062907363123e-03 2.503833204213e-02 
1126 183 247 2 2 1.889282649558e-03 -1.131086332666e-03 1.000498443685e-03 -1.135356993267e-03 9.542141372002e-01 -5.712742713624e-01 5.053186506711e-01 -5.734312406871e-01 -3.701494056289e-02 2.171799971806e-01 2.282589036221e-01 3.172371101920e-01 
1127 239 305 2 2 1.970974549179e-03 -1.951449439542e-03 1.214286236956e-04 2.486782012367e-04 1.280829024534e-01 -1.268140719076e-01 7.890984980165e-03 1.616024205110e-02 -1.838642487164e-03 -6.191105200508e-02 1.580257523936e-02 6.392245576296e-02 
1128 307 499 2 3 2.238175583979e-03 -1.173161831515e-03 1.842888131372e-03 4.867079175886e-04 3.510510120303e-02 -1.840068541435e-02 2.890513810479e-02 7.633865200553e-03 -1.198480753082e-02 -9.808631927667e-03 8.251545672777e-03 1.754801635038e-02 
1129 473 428 3 3 2.407436497747e-03 -1.536889010313e-03 -1.784106868495e-03 5.006848734000e-04 8.155244994183e-01 -5.206245905012e-01 -6.043701930248e-01 1.696081209735e-01 5.117895148535e-02 -2.124126878287e-02 8.140784088817e-02 9.847696752398e-02 
1130 473 311 3 2 2.221174335282e-03 -1.757468223645e-03 1.351572689451e-03 -1.348040641935e-04 1.336196498662e-01 -1.057243841531e-01 8.130684145973e-02 -8.109436333726e-03 1.815699744103e-02 2.499330803412e-02 1.387144030070e-02 3.386382817370e-02 
1131 5 499 1 3 1.910804114301e-03 -6.166559299030e-04 1.275028096094e-03 -1.282657858322e-03 6.680749951989e-01 -2.156015911448e-01 4.457884420499e-01 -4.484560380244e-01 -1.236265406408e-02 7.247792043485e-02 7.799031379740e-02 1.071838290615e-01 
1132 423 302 3 2 2.173528598770e-03 -4.533176452841e-04 4.028279719487e-04 2.087213287415e-03 5.773639747447e-01 -1.204167627015e-01 1.070049683976e-01 5.544356584237e-01 -2.584743616385e-01 -1.026616831920e-01 -3.632402678081e-02 2.804778988473e-01 
1133 423 215 3 2 2.137973334910e-03 -1.401102890212e-03 1.507377884957e-03 5.793553173708e-04 1.023724777856e+00 -6.708894454463e-01 7.217770517648e-01 2.774124372325e-01 4.539072956122e-02 1.371430806168e-01 -2.470493670125e-01 2.861851369873e-01 
1134 423 433 3 3 2.323618978211e-03 2.054906902237e-03 3.110039163912e-04 1.039153185547e-03 2.145137533311e+00 1.897065725828e+00 2.871151338982e-01 9.593339192350e-01 1.631868528549e-01 1.308642939993e-01 -3.618649332176e-01 4.179732554616e-01 
1135 423 161 3 2 2.163120400904e-03 -8.077101280984e-06 -1.801161507702e-03 1.197848843725e-03 6.991619829584e-01 -2.610673980889e-03 -5.821699295274e-01 3.871677103656e-01 3.485670080869e-01 -1.579989285930e-02 -2.140733197504e-02 3.495809914789e-01 
1136 423 276 3 2 2.221487710791e-03 -2.165497323274e-03 -2.899802278785e-04 4.019209617957e-04 1.314465718435e-01 -1.281335917808e-01 -1.715827941422e-02 2.378187028604e-02 -1.420110218811e-02 4.937014577667e-02 -4.089381799390e-02 6.566115249891e-02 
1137 423 227 3 2 2.074940521543e-03 -1.334451623012e-03 -1.049117786154e-03 -1.193301682122e-03 1.999767686949e+00 -1.286105894501e+00 -1.011109391702e+00 -1.150069662197e+00 -1.185076599173e-01 3.154760492752e-01 -1.448324408494e-01 3.668046333510e-01 
1138 423 409 3 3 2.461178195070e-03 5.328061333254e-04 3.480795394475e-04 -2.377468478529e-03 2.215087636880e-01 4.795314216366e-02 3.132754410166e-02 -2.139747964779e-01 9.717602808381e-02 -5.117907741356e-02 1.428477155629e-02 1.107543818432e-01 
1139 386 327 2 2 1.926853181541e-03 1.897889445607e-03 -3.081170764745e-04 -1.258677983110e-04 5.124075485346e-01 5.047052300247e-01 -8.193749130989e-02 -3.347198976540e-02 1.789262623013e-02 1.431088955514e-01 -8.052947749964e-02 1.651826225900e-01 
1140 386 378 2 2 1.901300599658e-03 -1.641956605959e-03 8.121918717326e-04 -5.091825192399e-04 8.031453112807e-01 -6.935935062764e-01 3.430851985002e-01 -2.150883205881e-01 6.269698327096e-02 6.992712479111e-02 -9.063838955144e-02 1.305221519640e-01 
1141 386 498 2 3 2.194312827925e-03 6.309963251731e-04 -1.695317380599e-03 -1.242075441933e-03 3.587846512979e-01 1.031720699147e-01 -2.771955974083e-01 -2.030875446055e-01 1.319722581601e-01 -3.575501892717e-02 1.158465179132e-01 1.792080188356e-01 
1142 386 446 2 3 2.172078954512e-03 -1.708571406255e-03 -1.316251476454e-03 -2.572795854609e-04 5.938588851190e-01 -4.671332542295e-01 -3.598707278663e-01 -7.034171914806e-02 -4.149464508012e-02 6.518499193545e-02 -5.792639052142e-02 9.657305764441e-02 
1143 211 328 2 2 1.944678305487e-03 1.706850392352e-03 8.842419173223e-04 2.941966716458e-04 3.370276633060e-01 2.958102621521e-01 1.532459051718e-01 5.098653927358e-02 -1.529167902666e-03 -5.803688805746e-03 2.631547693861e-02 2.699121124987e-02 
1144 211 388 2 2 1.930679555040e-03 -1.779317146039e-03 3.299140900206e-04 6.728378194378e-04 4.727313048177e-01 -4.356698727844e-01 8.078021950670e-02 1.647458789747e-01 -4.667370663256e-03 1.580901901642e-01 -8.985956515906e-02 1.819039142669e-01 
1145 211 335 2 2 1.929015085816e-03 -2.635328820793e-04 -1.844893861361e-03 4.980123107730e-04 4.898593930552e-01 -6.692226443157e-02 -4.684974180983e-01 1.264666150530e-01 1.926619697038e-01 3.672679042902e-04 1.033113706836e-01 2.186138348055e-01 
1146 211 64 2 1 1.707672325727e-03 -7.126678449030e-04 -1.051736494452e-03 -1.141095815930e-03 2.088264770350e-01 -8.715015937491e-02 -1.286139170828e-01 -1.395414188133e-01 1.408968624409e-03 -4.690522552722e-02 4.235210588697e-02 6.321223178630e-02 
1147 211 491 2 3 2.187948423827e-03 -3.757046166091e-04 1.004756968139e-03 -1.906941997377e-03 4.220173719475e-01 -7.246691613167e-02 1.938002242293e-01 -3.678160972286e-01 5.005134353408e-02 1.574847539381e-01 7.311674043167e-02 1.807004218143e-01 
1148 282 371 2 2 1.996778543075e-03 -1.962966954362e-03 -2.094967142496e-04 2.999940214126e-04 4.735873936114e-03 -4.655681056299e-03 -4.968753456197e-04 7.115129877197e-04 1.005036582175e-04 7.355611824184e-04 1.171300045464e-03 1.386757020858e-03 
1149 282 388 2 2 1.978780110210e-03 -8.310354931998e-04 -1.750285322503e-03 4.018109299575e-04 8.006395728338e-02 -3.362475187880e-02 -7.081876787198e-02 1.625778072365e-02 2.873764499753e-03 3.873259236580e-03 2.281547963016e-02 2.331966488327e-02 
1150 282 433 2 3 2.229109771661e-03 7.354858504656e-04 1.402000630083e-03 -1.569198894700e-03 8.243580052934e-02 2.719936255806e-02 5.184807215547e-02 -5.803131309138e-02 8.106784986837e-03 1.485875946575e-02 1.707521963965e-02 2.404299942657e-02 
1151 101 137 2 2 1.971499930949e-03 3.285693282801e-04 1.368332008641e-03 1.380768513681e-03 1.246209901260e-01 2.076928047144e-02 8.649398717242e-02 8.728011429703e-02 3.183715349867e-02 -3.040244582273e-02 2.255260553549e-02 4.946244101681e-02 
1152 101 458 2 3 2.248944703363e-03 1.279577608156e-03 -9.367941040929e-04 1.594631691027e-03 9.359709621666e-04 5.325375422889e-04 -3.898771177650e-04 6.636574727337e-04 -1.336279876523e-04 -4.252337597966e-04 -1.425840835779e-04 4.679854810190e-04 
1153 101 325 2 2 1.974582854146e-03 -1.122595069832e-03 1.622636241988e-03 -7.621931031772e-05 1.049572721912e-01 -5.967058614804e-02 8.624984935928e-02 -4.051372613938e-03 5.069496943045e-03 5.025822493461e-03 3.232893918469e-02 3.310768792590e-02 
1154 101 415 2 3 2.219930334644e-03 -1.608570373634e-03 -1.523693504656e-03 1.376595351150e-04 1.423619689424e-01 -1.031560504396e-01 -9.771297954825e-02 8.827971831741e-03 2.635410381731e-02 -2.268605161856e-02 5.684924854705e-02 6.664107431920e-02 
1155 253 481 2 3 2.176877849969e-03 2.162833936673e-03 -1.582915418143e-04 1.894474171201e-04 5.398518010830e-01 5.363690002968e-01 -3.925529121712e-02 4.698174927189e-02 -2.812952608615e-03 -2.220567238037e-01 -1.534238481810e-01 2.699184663551e-01 
1156 253 489 2 3 2.161776973612e-03 -9.324837333649e-04 -1.913616851568e-03 -3.765956930752e-04 7.154413658629e-01 -3.086060421528e-01 -6.333126269435e-01 -1.246345669885e-01 3.054342471985e-01 -1.213460293723e-01 -1.396793999895e-01 3.571068089348e-01 
1157 253 22 2 1 1.746931037212e-03 -9.636013576476e-04 1.539740071184e-05 -1.457052982004e-03 4.076921262967e-03 -2.248816227049e-03 3.593386860692e-05 -3.400414874465e-03 -1.187266372278e-03 7.469112616121e-04 7.930747848432e-04 1.611348964632e-03 
1158 2 308 1 2 1.712477249788e-03 8.242949149143e-04 1.156469881422e-03 9.569188250069e-04 1.742974194690e-01 8.389745123255e-02 1.177065073713e-01 9.739602780744e-02 4.117014335601e-02 2.937938649610e-02 -7.097019482532e-02 8.714870973449e-02 
1159 2 256 1 2 1.696444911940e-03 -1.102225043562e-03 8.684111929422e-04 9.533558058579e-04 2.972008645974e-01 -1.930992475040e-01 1.521373052269e-01 1.670187860365e-01 1.128253376051e-01 7.028949097938e-02 6.641668468011e-02 1.485979318556e-01 
1160 2 272 1 2 1.655841487028e-03 1.242460090374e-03 6.448162925195e-04 -8.844862366890e-04 6.928486074608e-01 5.198787143487e-01 2.698084773453e-01 -3.700928272477e-01 5.262971967171e-02 1.029711237901e-01 1.489992485041e-01 1.886099567417e-01 
1161 2 54 1 1 1.448333344826e-03 -3.769116381104e-04 1.292738374171e-03 -5.333240954045e-04 2.634319861898e-01 -6.855506144365e-02 2.351313934378e-01 -9.700434381156e-02 5.163283516551e-02 2.380795827981e-02 2.121870152364e-02 6.068774043439e-02 
1162 2 458 1 3 1.892984311659e-03 -1.593023094587e-03 -1.020305009685e-03 -6.815212036315e-05 8.779689704782e-01 -7.388465069090e-01 -4.732189978596e-01 -3.160905591379e-02 1.297094343171e-01 -2.034268783906e-01 1.360689433491e-02 2.416447387717e-01 
1163 2 500 1 3 1.947434422918e-03 7.546145400237e-04 -1.795240719605e-03 -1.298022428219e-05 3.022457072303e-01 1.171176819366e-01 -2.786249408761e-01 -2.014556701888e-03 -1.083605045266e-01 -4.596081947315e-02 5.703463363989e-02 1.307950507563e-01 
1164 323 272 2 2 1.928718244429e-03 -7.172815403124e-04 1.601934615857e-03 7.995415841841e-04 4.929353176974e-01 -1.833204020201e-01 4.094170577163e-01 2.043441471819e-01 5.375813672017e-02 -6.869948013262e-02 1.858712509891e-01 2.053233493258e-01 
1165 323 500 2 3 2.224225826180e-03 -1.205127090663e-03 -8.381223962673e-04 1.671047596591e-03 1.129739263426e-01 -6.121138311206e-02 -4.257030772122e-02 8.487663701687e-02 -3.133638336602e-02 -1.692580108544e-02 -3.108841279146e-02 4.727516340256e-02 
1166 323 283 2 2 1.985093610231e-03 1.959107016267e-03 3.108346857619e-04 -7.666901797949e-05 4.713907562911e-02 4.652198431822e-02 7.381243728138e-03 -1.820622774825e-03 2.610749322291e-03 -1.899418848591e-02 -1.029510111133e-02 2.176199244450e-02 
1167 323 19 2 1 1.719606847814e-03 1.071561029143e-03 -1.334760108015e-03 1.649852294101e-04 1.270610899311e-01 7.917723313543e-02 -9.862491204690e-02 1.219069527318e-02 3.190763638575e-02 2.549339974065e-02 -9.904321813511e-04 4.085329418747e-02 
1168 410 481 3 3 2.382202181125e-03 9.411876252485e-04 1.471801786795e-03 1.619522332733e-03 1.170801432490e+00 4.625735920377e-01 7.233591061139e-01 7.959605956782e-01 -1.485216891197e-01 2.912115687897e-02 5.984863755050e-02 1.627531668927e-01 
1169 410 312 3 2 2.236773768403e-03 7.524492658680e-04 -1.276281293950e-03 1.675733586232e-03 4.152938198239e-02 1.397045755187e-02 -2.369626026653e-02 3.111274872158e-02 -1.201690696889e-02 -1.558508949255e-02 -6.474087197551e-03 2.071750160206e-02 
1170 410 489 3 3 2.414638753573e-03 -2.154130044789e-03 -2.835235229590e-04 1.053479222538e-03 7.222182489612e-01 -6.443001159824e-01 -8.480186197119e-02 3.150955472295e-01 -1.312949471730e-01 -1.255888016686e-01 -3.022686761382e-01 3.526716076353e-01 
1171 410 302 3 2 2.164448204340e-03 -7.602085560864e-04 -1.944335257298e-03 5.713837482394e-04 6.831952071237e-01 -2.399553109616e-01 -6.137178640561e-01 1.803538830094e-01 1.250454970842e-01 -2.183963409957e-02 9.205212142489e-02 1.568022289939e-01 
1172 410 188 3 2 2.066691961354e-03 1.810457593797e-03 4.235549248502e-04 -9.022528414048e-04 2.142759193045e+00 1.877093793012e+00 4.391444036912e-01 -9.354614071776e-01 3.049671829052e-03 -2.458125449551e-02 -5.419999212137e-03 2.535576783096e-02 
1173 410 215 3 2 2.121194525944e-03 -1.707993801015e-03 -8.397853442897e-04 -9.364742218050e-04 1.262125612075e+00 -1.016268284290e+00 -4.996781665752e-01 -5.572087264660e-01 -2.893757795002e-01 2.178643009532e-01 3.324093533619e-01 4.916291016546e-01 
1174 215 489 2 3 2.113854174850e-03 -4.461362437745e-04 5.562618213307e-04 1.989953444343e-03 1.371537186465e+00 -2.894676727688e-01 3.609207212317e-01 1.291146371742e+00 1.560781953987e-01 -6.725826004606e-02 5.379288772151e-02 1.782631520892e-01 
1175 215 443 2 3 2.132069252149e-03 -2.103550195750e-03 -1.867044629128e-04 2.931506668054e-04 1.105711128031e+00 -1.090920877672e+00 -9.682668707297e-02 1.520306876288e-01 -3.175966325794e-02 -3.330501020042e-01 -4.400125970565e-01 5.527586563987e-01 
1176 215 375 2 2 1.875335948126e-03 -4.837612885404e-04 1.706475963915e-03 -6.089332628665e-04 1.140077073765e+00 -2.940940554096e-01 1.037421655215e+00 -3.701901268093e-01 -1.714629495674e-01 -4.820110272886e-02 1.138243083276e-03 1.781128433773e-01 
1177 215 458 2 3 2.218588616940e-03 1.220602209327e-03 7.697025067132e-04 -1.685177660949e-03 1.519958278691e-01 8.362363436326e-02 5.273243035123e-02 -1.154517659230e-01 -1.968250503938e-02 4.176774228592e-02 4.820991266933e-03 4.642399441113e-02 
1178 215 191 2 2 1.901108309877e-03 -3.719826560103e-04 -6.894061961078e-04 -1.732212690832e-03 8.054935152603e-01 -1.576078625552e-01 -2.920992020602e-01 -7.339329812340e-01 4.024022756154e-02 7.130065202016e-02 -3.701842065817e-02 8.985222512954e-02 
1179 378 438 2 3 2.099188713711e-03 2.331911712467e-04 1.159730030040e-03 1.734139957111e-03 1.599012540468e+00 1.776284355544e-01 8.833997865363e-01 1.320944382101e+00 -2.416174551109e-01 1.492417967688e-01 -6.731702118400e-02 2.918624502367e-01 
1180 378 201 2 2 1.851755645477e-03 1.291869739239e-03 1.323465586102e-03 -9.225177395403e-05 1.478391979119e+00 1.031394107112e+00 1.056619382753e+00 -7.365133893678e-02 -1.129911584794e-01 7.709169239476e-02 -4.763231620525e-01 4.955742988074e-01 
1181 378 491 2 3 2.149166430084e-03 -2.001494883504e-03 -7.523662200218e-04 2.165170812507e-04 8.741959883755e-01 -8.141290378548e-01 -3.060328516795e-01 8.807059387987e-02 9.577353697707e-02 -2.293296451764e-01 8.844736765865e-02 2.637946045460e-01 
1182 378 446 2 3 2.144332928000e-03 -6.661480029566e-05 -2.128443348187e-03 2.519029337789e-04 9.378008242491e-01 -2.913326275446e-02 -9.308516882958e-01 1.101670248327e-01 -3.804086298285e-01 -2.044937331542e-02 -2.733837851328e-01 4.689004121245e-01 
1183 378 385 2 2 1.879464179285e-03 -6.946369458972e-04 -8.431140917208e-04 -1.529386721190e-03 1.083918309026e+00 -4.006087011831e-01 -4.862379452005e-01 -8.820228057280e-01 4.319563506856e-02 2.195611734852e-01 -1.406579515254e-01 2.643059422686e-01 
1184 409 458 3 3 2.418043587616e-03 -7.133068142113e-04 1.929000852223e-03 1.271646134951e-03 6.794410343976e-01 -2.004305969391e-01 5.420259341479e-01 3.573172004607e-01 6.776952787109e-02 7.502248755571e-02 -7.578993384558e-02 1.263534590711e-01 
1185 409 500 3 3 2.400697746626e-03 1.634330820399e-03 1.154065142302e-03 1.326818031032e-03 9.061832316437e-01 6.169053086693e-01 4.356210529412e-01 5.008294996125e-01 2.504812734849e-03 2.547001660949e-01 -2.246233237196e-01 3.396087252330e-01 
1186 409 110 3 2 2.107045310405e-03 1.415906759176e-03 -1.247496635020e-03 9.373367244664e-04 1.475702150466e+00 9.916524523973e-01 -8.737037869606e-01 6.564784407699e-01 1.406391580893e-01 -2.144661117994e-01 -4.978762434916e-01 5.600498546842e-01 
1187 409 226 3 2 2.213691315498e-03 8.295270292487e-04 2.011836541595e-03 -4.059899973659e-04 1.888934371942e-01 7.078322560299e-02 1.716692461836e-01 -3.464297191393e-02 3.372725858268e-02 -1.867824714450e-02 -2.364567498373e-02 4.522745663124e-02 
1188 409 265 3 2 2.084519430534e-03 -1.995675187011e-03 -3.582115652484e-04 -4.839279685490e-04 1.837898880854e+00 -1.759565844784e+00 -3.158313735221e-01 -4.266742054702e-01 1.032333571630e-01 1.983106599091e-02 -4.404043168685e-01 4.527762797739e-01 
1189 409 98 3 1 1.972908795283e-03 7.956558577963e-04 -1.708486768494e-03 -5.834156600064e-04 1.118279774496e-01 4.509918833352e-02 -9.684006694934e-02 -3.306903665641e-02 3.281132333481e-02 7.981031934679e-04 4.241053946379e-02 5.362717375826e-02 
1190 226 500 2 3 2.094302886159e-03 8.048037911506e-04 -8.577713992921e-04 1.732808028398e-03 1.677343241068e+00 6.445735277327e-01 -6.869956912598e-01 1.387819237471e+00 -1.682501219845e-01 4.981043417561e-02 1.028009444023e-01 2.033647390050e-01 
1191 226 56 2 1 1.657945677441e-03 -3.053102744400e-04 1.619837661717e-03 -1.780321750444e-04 6.697538798263e-01 -1.233350064718e-01 6.543595326344e-01 -7.191896670219e-02 -8.468144287145e-02 -2.240303419404e-02 -5.861392158905e-02 1.053965583496e-01 
1192 85 110 1 2 1.707196408450e-03 -5.265564678005e-04 -3.689732509108e-04 1.581491891650e-03 2.123583173189e-01 -6.549840716746e-02 -4.589661641231e-02 1.967219209822e-01 -5.506432683769e-02 6.226509312762e-02 -3.806736948593e-03 8.320765084098e-02 
1193 85 372 1 2 1.623476095337e-03 1.482493097137e-03 -5.715822773715e-04 3.334404733478e-04 1.079214667004e+00 9.854954432394e-01 -3.799624638212e-01 2.216563893015e-01 -1.864113050549e-02 2.180949277813e-01 4.567368240351e-01 5.064794326526e-01 
1194 85 98 1 1 1.416931772936e-03 -1.146807369180e-03 -8.299633843846e-04 6.073950717724e-05 5.370384714712e-01 -4.346572561782e-01 -3.145686163867e-01 2.302118755145e-02 -8.561759647033e-02 1.291714246064e-01 1.485139170619e-01 2.146439221624e-01 
1195 433 377 3 2 2.168212176890e-03 9.254392618103e-04 1.703125158086e-03 9.716331162567e-04 6.386075779654e-01 2.725713524894e-01 5.016246305459e-01 2.861769146291e-01 -9.914065605190e-02 6.216610785429e-02 -1.454047468665e-02 1.179191250488e-01 
1196 433 438 3 3 2.331928714690e-03 2.071777240516e-03 -5.653468244068e-04 9.088528837018e-04 1.995343374984e+00 1.772741578789e+00 -4.837459368040e-01 7.776711049978e-01 -8.827861872097e-02 -9.485568785904e-02 1.422312382156e-01 1.924069675632e-01 
1197 433 240 3 2 2.247018584286e-03 1.894298138442e-03 1.052209058306e-03 -5.946286054701e-04 4.444616355630e-03 3.746933179563e-03 2.081275883873e-03 -1.176178979506e-03 3.402613143495e-04 -4.681879157620e-04 2.554952909027e-04 6.326575141274e-04 
1198 433 500 3 3 2.408047161506e-03 1.122300514882e-04 1.191140765359e-03 -2.089803633043e-03 8.074675123589e-01 3.763303391051e-02 3.994138844324e-01 -7.007539419770e-01 1.959448326154e-01 9.847018744790e-02 6.664872763855e-02 2.292003667985e-01 
1199 227 243 2 2 1.976737315663e-03 -3.829822549308e-04 -1.072296567153e-03 1.615857382201e-03 9.189926900388e-02 -1.780499057246e-02 -4.985147490054e-02 7.512182375584e-02 -2.564689613291e-02 3.428667056711e-02 1.667422714876e-02 4.594963450168e-02 
1200 227 191 2 2 1.918347874699e-03 -4.386339232112e-04 1.867089475003e-03 4.044430866116e-05 6.043292158831e-01 -1.381810350302e-01 5.881814937186e-01 1.274100368473e-02 4.005752696366e-02 1.551371602520e-02 -2.817431188977e-01 2.849990629766e-01 
1201 227 285 2 2 1.846653609660e-03 -1.576740248650e-03 2.446100587176e-04 -9.296158677276e-04 1.555366324923e+00 -1.328028533923e+00 2.060257787799e-01 -7.829802017088e-01 -2.582677239921e-02 -5.002552819753e-02 3.064208033802e-02 6.409768117057e-02 
1202 227 411 2 3 2.110839952479e-03 -5.008822204270e-04 -2.016392178374e-03 -3.727262926563e-04 1.417336441223e+00 -3.363204410348e-01 -1.353918903633e+00 -2.502693567853e-01 2.330487944359e-01 -4.254285756337e-02 -8.302851968626e-02 2.510286246606e-01 
1203 227 265 2 2 1.969396504412e-03 -1.284174306738e-04 1.038985760353e-03 -1.668094764955e-03 1.386688387108e-01 -9.042108047752e-03 7.315690289003e-02 -1.174536277472e-01 -5.673770700108e-02 -3.563946406923e-02 -1.783039294108e-02 6.933441935515e-02 
1204 227 197 2 2 1.942099894518e-03 1.287154462849e-03 -9.418387808387e-04 -1.108117818628e-03 3.608622002020e-01 2.391665808617e-01 -1.750033639611e-01 -2.058997249533e-01 3.565741853316e-02 2.521333958183e-02 1.998858247124e-02 4.802819399610e-02 
1205 13 347 1 2 1.626641934094e-03 -9.989188512220e-04 -4.689695582808e-04 1.195070150172e-03 1.038963494789e+00 -6.380262299422e-01 -2.995387251543e-01 7.633113555699e-01 -8.407249639067e-02 1.660257254744e-01 -5.121532301574e-03 1.861691603402e-01 
1206 13 217 1 2 1.662676058177e-03 1.026055414823e-03 1.300301527286e-03 1.446302122113e-04 6.187980800713e-01 3.818670014625e-01 4.839331658391e-01 5.382702012008e-02 -5.848252029369e-02 4.924090652914e-02 -2.780691029825e-02 8.135168293310e-02 
1207 13 283 1 2 1.633586357864e-03 7.026952044383e-04 -9.003598814645e-04 -1.167979418529e-03 9.524776146185e-01 4.097129294116e-01 -5.249631450870e-01 -6.810011880480e-01 -1.099868675319e-02 1.253020738310e-01 -1.032087405401e-01 1.627071754426e-01 
1208 235 118 2 2 1.851413172384e-03 -6.850738093948e-04 -1.077822372287e-03 1.340411707035e-03 1.483518020780e+00 -5.489424818623e-01 -8.636477996040e-01 1.074057888488e+00 -5.647738160507e-02 -4.905248624542e-02 -6.830814851614e-02 1.013007610708e-01 
1209 235 347 2 2 1.942966767053e-03 -1.607315786138e-03 -9.379352551574e-04 -5.585098733583e-04 3.527884323459e-01 -2.918436002569e-01 -1.703028141911e-01 -1.014097749961e-01 -1.924202171370e-02 9.813115863595e-03 3.889624683401e-02 4.449124251305e-02 
1210 235 287 2 2 1.956986424256e-03 -1.359847268919e-03 9.638278059471e-04 -1.025498527752e-03 2.310631462950e-01 -1.605583894413e-01 1.138000154566e-01 -1.210815330174e-01 -3.770738045830e-02 2.220308456430e-02 7.086916911720e-02 8.329023133932e-02 
1211 235 164 2 2 1.915294343673e-03 1.029451734809e-03 -9.635746139476e-04 -1.296188841164e-03 6.385442196197e-01 3.432111919566e-01 -3.212482728522e-01 -4.321392661109e-01 7.210382420205e-02 8.451643747044e-03 5.098301685972e-02 8.871110277021e-02 
1212 312 225 2 2 1.989124009043e-03 1.693756492403e-03 -9.704957306337e-04 3.820226493504e-04 2.937822593027e-02 2.501581634853e-02 -1.433366784036e-02 5.642256416428e-03 3.721749290972e-04 4.608345793368e-03 1.005701160322e-02 1.106882322185e-02 
1213 312 311 2 2 1.990996048242e-03 -3.366010506364e-04 -1.529587322524e-03 1.229279309027e-03 2.212950735743e-02 -3.741250733848e-03 -1.700104524944e-02 1.366318408189e-02 9.189920032334e-03 1.802518408255e-03 4.759248775091e-03 1.050495843476e-02 
1214 312 302 2 2 1.988471359849e-03 -1.512657821954e-03 -6.680539633480e-04 -1.104349837992e-03 3.206198238774e-02 -2.438999596648e-02 -1.077165849075e-02 -1.780646468969e-02 -4.493101647327e-03 -3.585758745996e-03 8.323454560268e-03 1.011560794093e-02 
1215 347 188 2 2 1.866751585371e-03 -1.512408500396e-03 -3.117739328661e-04 1.048894191137e-03 1.259840112818e+00 -1.020699760320e+00 -2.104111279904e-01 7.078815341326e-01 -3.879356441392e-02 -4.306172826349e-02 -6.873642879307e-02 8.991078758525e-02 
1216 347 308 2 2 1.986613971737e-03 -1.392939676379e-03 1.371363195814e-03 3.545660951584e-04 4.011437037354e-02 -2.812670145343e-02 2.769102197818e-02 7.159516577165e-03 -6.615706148098e-03 -1.073906188554e-02 1.554540810509e-02 2.001885938742e-02 
1217 347 240 2 2 1.957572422051e-03 3.194480356835e-04 -1.719279112265e-03 8.798420734426e-04 2.263574123096e-01 3.693831702478e-02 -1.988031535930e-01 1.017376280653e-01 1.089236575278e-01 4.790715466148e-03 -3.018595290800e-02 1.131304816434e-01 
1218 347 272 2 2 1.974835701590e-03 -9.747745009192e-04 8.597096069120e-04 -1.486838966537e-03 1.033950170897e-01 -5.103554999538e-02 4.501118215925e-02 -7.784533175647e-02 -4.439273297517e-02 -6.374116342079e-03 2.541836468136e-02 5.155033814847e-02 
1219 347 500 2 3 2.239506637628e-03 -1.462620051270e-03 -1.580347405213e-03 -6.153329541307e-04 2.934762988658e-02 -1.916691435880e-02 -2.070967326515e-02 -8.063634861102e-03 -2.350103499966e-03 2.933728971660e-03 -1.948542583550e-03 4.233978075005e-03 
1220 161 371 2 2 1.892165424304e-03 -6.354688013106e-04 5.006680797604e-04 1.710497257934e-03 9.171901767251e-01 -3.080310710105e-01 2.426890580802e-01 8.291300866941e-01 -2.660682327706e-01 -1.711072375206e-01 -4.876367300128e-02 3.200748147327e-01 
1221 161 491 2 3 2.081517958422e-03 1.900075189282e-03 -3.652776503750e-04 -7.674656503364e-04 1.888128391187e+00 1.723543097842e+00 -3.313404525522e-01 -6.961619897622e-01 6.255443819658e-02 -3.180248825442e-01 3.062358789336e-01 4.459072742192e-01 
1222 161 213 2 2 1.989964645323e-03 1.970711535111e-05 -1.214402503434e-03 -1.576324039940e-03 2.603882044231e-02 2.578689220784e-04 -1.589053795801e-02 -2.062630546295e-02 -1.226976444433e-02 -2.701083054455e-03 1.927522693691e-03 1.271055911127e-02 
1223 161 243 2 2 1.904085589889e-03 -1.709356776661e-03 -3.202528456049e-04 -7.752931436464e-04 7.693928454851e-01 -6.907078554288e-01 -1.294060778902e-01 -3.132763574510e-01 -1.633221506928e-01 1.278114049841e-01 3.072951965509e-01 3.707293055238e-01 
1224 500 188 3 2 2.093181677603e-03 -4.978844912557e-05 1.268573472347e-03 1.664227145268e-03 1.695494207156e+00 -4.032904930275e-02 1.027554844727e+00 1.348037542266e+00 2.300258186833e-01 -1.243611237387e-01 1.016771370316e-01 2.805633735066e-01 
1225 500 458 3 3 2.472846892969e-03 -2.347637634611e-03 7.749357099201e-04 -5.517189608096e-05 1.295706544019e-01 -1.230100195366e-01 4.060458710131e-02 -2.890861824131e-03 -1.493866315135e-02 -4.533060946344e-02 -1.046550754710e-03 4.774016212330e-02 
1226 500 194 3 2 2.112566129184e-03 1.610845432940e-03 -1.358312282912e-03 -1.519881029677e-04 1.391046882649e+00 1.060682308102e+00 -8.943985424677e-01 -1.000785603406e-01 1.115733897864e-01 1.450930746606e-01 -1.141814376884e-01 2.157267306930e-01 
1227 213 493 2 3 2.201723027297e-03 -4.367086023352e-04 -1.274474270561e-03 1.741431945053e-03 2.896083910336e-01 -5.744340868712e-02 -1.676407242577e-01 2.290630099467e-01 5.904297366391e-02 5.426809858481e-02 5.452287132651e-02 9.697341264890e-02 
1228 213 491 2 3 2.216088672407e-03 1.880368073931e-03 8.491248530588e-04 8.088583896039e-04 1.704976057997e-01 1.446685137735e-01 6.532850254331e-02 6.223055086901e-02 -6.190913996387e-03 4.985690697940e-02 -3.794674342544e-02 6.296025672009e-02 
1229 213 411 2 3 2.196372393534e-03 -1.846963857509e-03 -4.994595339180e-05 -1.187552778563e-03 3.390655963423e-01 -2.851255568558e-01 -7.710420382962e-03 -1.833287889782e-01 5.204517163576e-02 1.304367682556e-01 -8.643012889288e-02 1.649018422699e-01 
1230 19 194 1 2 1.737626733004e-03 -6.658426868667e-04 -8.616745711645e-04 1.354074264213e-03 3.300467919570e-02 -1.264709149407e-02 -1.636674450974e-02 2.571944011257e-02 -2.781922977446e-03 -3.974187357654e-03 -3.896964439308e-03 6.222506926264e-03 
1231 19 395 1 2 1.718941727851e-03 1.705768303688e-03 -1.571968830278e-04 -1.428436132429e-04 1.312547079713e-01 1.302488135228e-01 -1.200321723623e-02 -1.090723230345e-02 -3.734933710859e-03 -4.078735820315e-02 2.850252497828e-04 4.095899850350e-02 
1232 98 110 1 2 1.705846094670e-03 6.202509013793e-04 4.609901334738e-04 1.520752384473e-03 2.224859791854e-01 8.089658824741e-02 6.012490901798e-02 1.983450232791e-01 -2.916608218163e-02 -1.056674724650e-02 1.509874666181e-02 3.450056011074e-02 
1233 98 197 1 2 1.650817772625e-03 -1.375759151284e-03 -6.305493379468e-04 6.594646377850e-04 7.490309197791e-01 -6.242276764696e-01 -2.861012029313e-01 2.992210360180e-01 1.058427440169e-02 -8.748974408509e-02 -6.157295699676e-02 1.075067961480e-01 
1234 98 71 1 1 1.472337738620e-03 1.280203311238e-03 -7.271385222796e-04 1.129016729461e-05 1.032011431331e-01 8.973378980718e-02 -5.096760393149e-02 7.913660978759e-04 2.119053178795e-02 3.732186183222e-02 8.834680794261e-04 4.292715369003e-02 
1235 328 131 2 2 1.926765368191e-03 5.008817975143e-04 -4.282499939191e-04 1.810564594729e-03 5.133305479500e-01 1.334453752496e-01 -1.140947453527e-01 4.823722342403e-01 -7.563012342265e-03 -9.182328863248e-02 -1.962655606785e-02 9.420147129454e-02 
1236 328 438 2 3 2.149847993476e-03 1.521310457896e-04 2.032611300878e-03 -6.835157931634e-04 8.653475702502e-01 6.123513440632e-02 8.181579608490e-01 -2.751258380296e-01 -8.093589486876e-02 -8.174163691007e-03 -4.232200659647e-02 9.169835479770e-02 
1237 328 33 2 1 1.677721041415e-03 8.156365868458e-04 -1.377663095562e-03 -5.015269146620e-04 4.659794851182e-01 2.265393992207e-01 -3.826397381266e-01 -1.392968483426e-01 -4.031766911843e-02 -3.891044428716e-02 4.131566314238e-02 6.961696013661e-02 
1238 47 455 1 3 1.909549186488e-03 -6.498884908297e-04 5.590927688103e-04 1.706293738185e-03 6.822235528507e-01 -2.321852918520e-01 1.997467558363e-01 6.096065943251e-01 9.102738540018e-03 -1.557066435626e-01 5.448664631335e-02 1.652156570212e-01 
1239 47 493 1 3 1.916281573698e-03 1.307328283058e-03 -1.322984239661e-03 -4.612380422514e-04 6.074906155611e-01 4.144430934974e-01 -4.194062715837e-01 -1.462195253837e-01 -5.047538087973e-02 -1.334941081504e-01 2.398386474183e-01 2.790896232060e-01 
1240 47 243 1 2 1.637046980125e-03 1.497299338043e-05 8.456396887293e-04 -1.401639091011e-03 9.103234523689e-01 8.326130643686e-03 4.702404086446e-01 -7.794186433227e-01 -1.492112846987e-01 3.861987165083e-02 2.170627010354e-02 1.556491700253e-01 
1241 372 194 2 2 1.947133059534e-03 -1.797800707740e-04 1.245858520871e-03 1.485544621900e-03 3.148463277779e-01 -2.906996767050e-02 2.014520673389e-01 2.402086835644e-01 1.371999795513e-01 -4.659722794653e-02 5.568286156384e-02 1.552279520998e-01 
1242 372 266 2 2 1.862218022229e-03 1.461660384626e-03 4.753336459985e-04 1.051409914025e-03 1.324679995903e+00 1.039745212003e+00 3.381263443472e-01 7.479154771233e-01 1.701460253619e-01 -6.802918773296e-02 -2.057800103017e-01 2.755413815924e-01 
1243 372 385 2 2 1.947957445062e-03 -7.589064318302e-04 -1.155160907743e-03 1.372662563312e-03 3.075107277312e-01 -1.198033713332e-01 -1.823573570805e-01 2.166928568402e-01 4.645328830693e-02 8.066779521345e-02 9.356850418111e-02 1.319858558855e-01 
1244 372 345 2 2 1.989847388252e-03 1.542232170968e-03 -1.252649093127e-03 1.090082971804e-04 2.649653021896e-02 2.053614843226e-02 -1.668010056738e-02 1.451539277540e-03 4.339299344579e-03 4.344275387057e-03 -1.147026837974e-02 1.301035372862e-02 
1245 372 44 2 1 1.688997414022e-03 -4.498814681436e-05 -1.638498741163e-03 -4.074435009032e-04 3.613028044207e-01 -9.623664000178e-03 -3.505003532315e-01 -8.715849905819e-02 -2.207279346390e-02 4.383860457177e-02 -1.738559681417e-01 1.806514022104e-01 
1246 372 71 2 1 1.691049283531e-03 -1.349097155079e-03 -9.855196292928e-04 -2.614107988759e-04 3.432279097510e-01 -2.738227685605e-01 -2.000283762720e-01 -5.305787534303e-02 1.266625259629e-02 -4.473180735316e-03 -4.850449164506e-02 5.033019978571e-02 
1247 371 399 2 2 1.909199548294e-03 1.300562867836e-04 -7.312243407945e-04 1.758817568966e-03 7.086868257835e-01 4.827634551676e-02 -2.714273934731e-01 6.528656688593e-01 4.431103816889e-02 2.831928358519e-02 8.497083852335e-03 5.326960071538e-02 
1248 371 455 2 3 2.153322064091e-03 -1.738749459561e-03 -1.107467845284e-03 6.221424276153e-04 8.207145873156e-01 -6.627048823517e-01 -4.220989654845e-01 2.371226182310e-01 -1.238959368284e-01 3.204640202705e-01 2.241924012587e-01 4.102555596609e-01 
1249 371 302 2 2 1.900460386283e-03 1.902282573074e-04 1.703321399891e-03 -8.211328142437e-04 8.134226925638e-01 8.142026131014e-02 7.290445459431e-01 -3.514559259091e-01 1.727832439239e-01 -3.808347107894e-03 3.212807454475e-02 1.757861372877e-01 
1250 371 388 2 2 1.914592659278e-03 1.131931461163e-03 -1.540788608254e-03 1.018169085449e-04 6.464949798996e-01 3.822160310111e-01 -5.202736443679e-01 3.438022177940e-02 1.100491114626e-01 7.679808774910e-02 -6.127108828754e-02 1.475225388731e-01 
1251 283 164 2 2 1.918586833843e-03 9.351534652863e-04 4.057509643934e-04 1.625370600895e-03 6.016782651030e-01 2.932687250185e-01 1.272454975786e-01 5.097242126575e-01 -8.185428881423e-02 -2.661227988775e-01 1.135285109889e-01 3.006828752807e-01 
1252 283 104 2 2 1.923084517383e-03 1.879811597732e-03 4.047739755828e-04 2.684113857723e-05 5.525136475096e-01 5.400810796955e-01 1.162939764970e-01 7.711619143396e-03 -2.076313095180e-02 7.916568452142e-02 2.602931869267e-01 2.728568422692e-01 
1253 283 395 2 2 1.982248503770e-03 8.182223165645e-04 -1.802791676804e-03 9.881063414663e-05 6.125968908581e-02 2.528645859512e-02 -5.571372983633e-02 3.053657861101e-03 2.637812460606e-03 1.948452617567e-03 1.370639049566e-02 1.409324883055e-02 
1254 237 148 2 2 1.971170907830e-03 1.147079181521e-03 -1.710942203477e-04 1.593879188320e-03 1.267852697680e-01 7.377987514769e-02 -1.100474179909e-02 1.025179511660e-01 -4.823054805276e-02 -2.594648114165e-02 3.192523309913e-02 6.339263488401e-02 
1255 237 240 2 2 1.959296794512e-03 -1.312649764168e-03 -9.171683092514e-05 1.451682661101e-03 2.126989198209e-01 -1.424996905644e-01 -9.956669618314e-03 1.575929357940e-01 -3.516434151933e-02 -1.444001240795e-02 -3.270884060260e-02 5.014890952351e-02 
1256 237 201 2 2 1.915375503726e-03 -7.649209410178e-05 -1.545537157576e-03 1.128772419208e-03 6.376267132877e-01 -2.546414656538e-02 -5.145078738514e-01 3.757672823472e-01 -1.354944196333e-01 -1.499300612280e-01 -2.144690359132e-01 2.946773292555e-01 
1257 237 164 2 2 1.898162444736e-03 1.004669721095e-03 1.601922922550e-03 -1.658383801480e-04 8.417522846712e-01 4.455272178717e-01 7.103829725759e-01 -7.354209106964e-02 -1.132697106039e-01 3.487474155353e-02 -3.493280661678e-01 3.688853111080e-01 
1258 237 194 2 2 1.989740278893e-03 -1.483872418182e-03 -1.311097406784e-03 -1.954804694403e-04 2.691693282339e-02 -2.007362198090e-02 -1.773634539025e-02 -2.644432904146e-03 8.893826269502e-04 -1.735530164556e-03 4.889075362911e-03 5.263660733124e-03 
1259 279 357 2 2 1.899580889377e-03 1.603853746833e-03 8.400734023581e-04 5.747498522892e-04 8.242271419990e-01 6.959112914481e-01 3.645074044318e-01 2.493836565560e-01 -1.458063517316e-02 9.107344561647e-02 -9.242833689641e-02 1.305755140903e-01 
1260 279 290 2 2 1.893153317257e-03 -2.565903041822e-05 1.805035030158e-03 5.702803141451e-04 9.046152727597e-01 -1.226078764406e-02 8.625092544079e-01 2.725000015726e-01 1.423755902577e-02 -1.251879503967e-01 3.968819406320e-01 4.164012557754e-01 
1261 279 445 2 3 2.228550312629e-03 -1.731721876158e-03 6.499823589279e-04 1.243020021013e-03 8.576947057679e-02 -6.664820069917e-02 2.501565367116e-02 4.783969583924e-02 -2.056216036096e-02 1.269630170715e-02 -3.528528448008e-02 4.276739197787e-02 
1262 279 403 2 3 2.188902794017e-03 2.240238058725e-04 -1.707788095650e-03 1.350765929543e-03 4.123187943919e-01 4.219887050485e-02 -3.216922791638e-01 2.544408007049e-01 8.567927746308e-02 1.228978158292e-01 1.411711865291e-01 2.058497404133e-01 
1263 279 377 2 2 1.911501570693e-03 -1.680132396373e-03 4.484971323504e-04 -7.936269323129e-04 6.819078709108e-01 -5.993693768422e-01 1.599965855742e-01 -2.831179738528e-01 2.815464000135e-02 2.742129629579e-01 9.535992508467e-02 2.916829582268e-01 
1264 279 438 2 3 2.081028151545e-03 -5.337944176681e-04 -1.819974850143e-03 -8.564071648678e-04 1.896368043496e+00 -4.864281507728e-01 -1.658479316204e+00 -7.804138442194e-01 2.085316091851e-01 -1.396066998229e-01 1.667053704445e-01 3.012741993597e-01 
1265 279 118 2 2 1.924991352432e-03 -1.084795786824e-04 1.376973027706e-03 -1.340809147089e-03 5.320952276422e-01 -2.998531190315e-02 3.806151002749e-01 -3.706188848296e-01 1.551213525631e-01 -4.855827889494e-02 -6.241823412850e-02 1.741165598729e-01 
1266 345 266 2 2 1.969907857465e-03 -8.057178634160e-05 1.727982739125e-03 9.424016168449e-04 1.352078870238e-01 -5.530177943958e-03 1.186029560141e-01 6.468329513919e-02 -7.243505005474e-03 2.499417532245e-02 -4.644848320387e-02 5.324132564798e-02 
1267 345 431 2 3 2.211105687372e-03 -1.276280146414e-03 -1.649967308229e-03 7.332838675254e-04 2.094258293103e-01 -1.208834248049e-01 -1.562773655888e-01 6.945329793753e-02 5.366674993082e-04 -3.859157218637e-02 -8.590110489205e-02 9.417323015324e-02 
1268 345 351 2 2 1.946068628432e-03 1.470950704856e-03 1.255528454217e-03 2.171069577443e-04 3.244027656292e-01 2.452022861825e-01 2.092921580070e-01 3.619096289854e-02 6.325095577047e-02 -7.022341692903e-02 -2.243843262616e-02 9.713647589750e-02 
1269 345 44 2 1 1.713146446692e-03 -1.587220317782e-03 -3.858496480359e-04 -5.164517980837e-04 1.696555285239e-01 -1.571848702236e-01 -3.821128432699e-02 -5.114501619532e-02 6.727515189033e-03 -6.192147011161e-02 2.558676082981e-02 6.733654469279e-02 
1270 110 385 2 2 1.849844583997e-03 1.250143133107e-03 -1.357769934204e-03 1.246111450101e-04 1.507071502781e+00 1.018493719203e+00 -1.106177455595e+00 1.015209100258e-01 4.496566530098e-02 8.393420279550e-02 4.634402418548e-01 4.731212521387e-01 
1271 199 297 2 2 1.971913698183e-03 1.157912836211e-03 3.634519666135e-04 1.554214967365e-03 1.219170542720e-01 7.159001036641e-02 2.247106107113e-02 9.609209099831e-02 -2.245637017602e-02 1.302813391164e-02 1.368370453795e-02 2.934731000593e-02 
1272 199 239 2 2 1.957040828994e-03 -7.746467777566e-04 -7.611116852069e-05 1.795588557016e-03 2.306248698324e-01 -9.128721774192e-02 -8.969219278833e-03 2.115987418858e-01 5.709229732592e-02 -9.804373799763e-02 2.047470204099e-02 1.152879802849e-01 
1273 199 311 2 2 1.979876132939e-03 1.495217500032e-03 -1.225170189180e-03 4.280095056454e-04 7.394169545031e-02 5.584133026304e-02 -4.575597407132e-02 1.598471136136e-02 9.518465820166e-03 2.100271697360e-02 2.686792211013e-02 3.540622191591e-02 
1274 199 489 2 3 2.205491890235e-03 -1.074760759989e-03 1.297174904334e-03 -1.423524167075e-03 2.563655217067e-01 -1.249297737908e-01 1.507831076446e-01 -1.654698969287e-01 8.782054789701e-02 9.824107288038e-03 -5.735237606585e-02 1.053482641401e-01 
1275 199 302 2 2 1.966082788816e-03 3.191607287141e-04 -3.636368300045e-04 -1.905619641374e-03 1.617903000716e-01 2.626395509052e-02 -2.992392394571e-02 -1.568147462324e-01 -6.945316049830e-02 -3.441607981152e-02 -5.064896972479e-03 7.767793273600e-02 
1276 71 385 1 2 1.745651456098e-03 5.901907232485e-04 -1.696412784504e-04 1.634073362188e-03 6.876459687366e-03 2.324875737421e-03 -6.682499009196e-04 6.436931932795e-03 -2.322904846519e-03 2.294599824236e-03 1.077195051076e-03 3.438229843601e-03 
1277 71 44 1 1 1.465744717212e-03 1.304109008264e-03 -6.529791118700e-04 -1.460327020273e-04 1.422146440565e-01 1.265318552700e-01 -6.335563818200e-02 -1.416889891912e-02 7.793020663333e-03 9.355261926776e-03 2.776198599484e-02 3.031468230339e-02 
1278 71 127 1 2 1.700117833813e-03 -1.031209892761e-03 -1.327096458630e-03 2.565575869352e-04 2.671572189968e-01 -1.620447487067e-01 -2.085404859455e-01 4.031556523609e-02 -5.268676040461e-02 4.256725110475e-02 8.418147571077e-03 6.825489577368e-02 
1279 266 201 2 2 1.853132036565e-03 -2.340601313202e-04 5.360851240813e-04 1.758387596523e-03 1.457850418708e+00 -1.841340248375e-01 4.217356924300e-01 1.383315405088e+00 -1.115151986358e-01 -2.399539965302e-01 5.831166350359e-02 2.709498294484e-01 
1280 266 194 2 2 1.864539700839e-03 -1.641440455400e-03 7.705248748727e-04 4.341347078750e-04 1.291339396096e+00 -1.136825740664e+00 5.336486673616e-01 3.006721987413e-01 5.071985200985e-02 1.619272327814e-01 -9.562779263979e-02 1.947757860446e-01 
1281 302 489 2 3 2.221199851415e-03 -1.393921488703e-03 1.660811734339e-03 4.820954742989e-04 1.334421939018e-01 -8.374210067629e-02 9.977596628544e-02 2.896266975688e-02 3.271137695717e-02 1.203577988439e-02 5.311795729157e-02 6.353275979122e-02 
1282 302 454 2 3 2.198550698045e-03 -2.048984713832e-03 -6.334781336435e-04 4.837274734331e-04 3.186180100469e-01 -2.969426325798e-01 -9.180481602230e-02 7.010267497007e-02 3.630360794271e-02 -4.682346241191e-03 1.476438237013e-01 1.521136910115e-01 
1283 290 141 2 2 1.886872383810e-03 -5.544132678110e-04 3.255405018757e-04 1.773960738826e-03 9.855423705573e-01 -2.895785485628e-01 1.700347944482e-01 9.265668875223e-01 -2.601320629751e-01 1.246475023611e-01 -1.041728114765e-01 3.066882206467e-01 
1284 290 470 2 3 2.219106468284e-03 1.165168792107e-03 1.371743975551e-03 -1.298126984936e-03 1.482526683403e-01 7.784186336505e-02 9.164260821267e-02 -8.672445063446e-02 -3.278226328741e-02 -1.526175582722e-02 -4.555185464786e-02 5.815986106443e-02 
1285 290 118 2 2 1.960193676655e-03 -8.282054826419e-05 -4.280620024524e-04 -1.911089461234e-03 2.057076514081e-01 -8.691396505689e-03 -4.492190247842e-02 -2.005545316175e-01 -2.362030593902e-02 9.768446925503e-02 -2.085656565108e-02 1.026409797159e-01 
1286 256 207 2 2 1.875201932308e-03 -3.213024509616e-04 7.613384029188e-04 1.683303554971e-03 1.141915954752e+00 -1.956591387480e-01 4.636217861552e-01 1.025058236659e+00 -1.144094363477e-01 -1.219763044985e-01 3.333041890748e-02 1.705246457526e-01 
1287 256 308 2 2 1.947939848538e-03 1.926519958477e-03 2.880586884797e-04 3.563019148924e-06 3.076667065137e-01 3.042835491570e-01 4.549733300735e-02 5.627598653096e-04 -3.775340351515e-03 2.712145279844e-02 -1.513608428532e-01 1.538178505437e-01 
1288 256 137 2 2 1.943796407185e-03 -1.441806330900e-03 4.164099101063e-04 -1.235371103566e-03 3.451186765542e-01 -2.559909519991e-01 7.393307063885e-02 -2.193386296735e-01 1.015710319705e-01 6.779153958578e-03 -1.162588712308e-01 1.545275270099e-01 
1289 256 458 2 3 2.202637070488e-03 -4.907980510245e-04 -1.888716202627e-03 -1.021507926221e-03 2.814225830415e-01 -6.270740519246e-02 -2.413141045782e-01 -1.305141927584e-01 6.925862996791e-02 -1.680662096599e-02 -2.201709050360e-03 7.130264971282e-02 
1290 377 445 2 3 2.047239258964e-03 -5.158947978475e-05 2.014852265775e-04 2.036646953326e-03 2.492739569040e+00 -6.281588096874e-02 2.453304833167e-01 2.479842268797e+00 -5.184555338348e-02 -2.441255320214e-01 2.283802929874e-02 2.506128735173e-01 
1291 377 118 2 2 1.905667453618e-03 1.571652817691e-03 9.284758953554e-04 -5.471822147761e-04 7.504377864824e-01 6.189052866425e-01 3.656269588851e-01 -2.154763200051e-01 -9.249184833078e-02 4.984582504449e-02 -1.810812273959e-01 2.093555807644e-01 
1292 377 188 2 2 1.808144538805e-03 -8.629976594477e-04 7.565890796193e-04 -1.397209604032e-03 2.176624966146e+00 -1.038867308982e+00 9.107738040127e-01 -1.681945907424e+00 8.037444786834e-02 -2.028891439228e-01 -1.595084020127e-01 2.703090581252e-01 
1293 377 240 2 2 1.953344586274e-03 9.688588766314e-04 -6.509160997801e-04 -1.566261721727e-03 2.610209919209e-01 1.294664068934e-01 -8.698043715162e-02 -2.092959895994e-01 1.949038792966e-02 -3.958166588526e-02 2.850595039981e-02 5.252782790195e-02 
1294 240 438 2 3 2.215500497327e-03 1.774791020738e-04 -1.617555882713e-03 1.503481489172e-03 1.749525829429e-01 1.401508479176e-02 -1.277343787901e-01 1.187262066765e-01 -6.459761070624e-02 3.618792630136e-02 4.655908270508e-02 8.746522452544e-02 
1295 240 118 2 2 1.973920629398e-03 6.027939410595e-04 1.579391995135e-03 1.019079506951e-03 1.090857415091e-01 3.331249648965e-02 8.728271256551e-02 5.631788939069e-02 -4.713039265431e-02 2.512539774417e-02 -1.106188169279e-02 5.454287075445e-02 
1296 240 201 2 2 1.935445775982e-03 1.236157670066e-03 -1.453820326651e-03 -3.229102418927e-04 4.248243055577e-01 2.713327494175e-01 -3.191090230166e-01 -7.087779000161e-02 -8.569040207939e-02 -4.511076278867e-02 -1.249384462592e-01 1.580741638648e-01 
1297 481 487 3 3 2.453369233469e-03 2.954025982717e-04 -4.266367960868e-04 2.397861327286e-03 2.915990959713e-01 3.511054489005e-02 -5.070859385935e-02 2.850016156404e-01 9.680780303330e-02 5.449915606407e-02 -2.229458053048e-03 1.111165119280e-01 
1298 491 446 3 3 2.374573931807e-03 1.934880083209e-03 -1.376077128165e-03 3.538585252823e-05 1.286349769838e+00 1.048159636709e+00 -7.454459401683e-01 1.916915815739e-02 8.681641510773e-03 1.216461610175e-02 -1.652789552551e-03 1.503597344802e-02 
1299 491 385 3 2 2.182726032438e-03 1.306857937607e-03 -9.074787169899e-05 -1.745903802441e-03 4.763998985341e-01 2.852336846779e-01 -1.980655209454e-02 -3.810594559153e-01 -1.582709021875e-01 3.483043354180e-02 -1.202806089570e-01 2.018173988313e-01 
1300 191 458 2 3 2.160448345595e-03 1.592584865337e-03 1.459108702821e-03 4.703502988351e-05 7.316637180032e-01 5.393494207736e-01 4.941459955077e-01 1.592901996992e-02 2.032978952619e-01 -2.244817972516e-01 8.024216961575e-02 3.133064271601e-01 
1301 191 415 2 3 2.104080691183e-03 -1.295563116452e-03 8.722093022578e-04 -1.409937126028e-03 1.521844375948e+00 -9.370579040624e-01 6.308535727040e-01 -1.019782603717e+00 -2.894222319203e-01 -1.466199753563e-01 1.752428940223e-01 3.687447862798e-01 
1302 191 265 2 2 1.923823224866e-03 3.102164925374e-04 -8.281037146498e-04 -1.708539073617e-03 5.445731558363e-01 8.781242067878e-02 -2.344098186454e-01 -4.836330610645e-01 1.883586767827e-01 9.690350602174e-02 -1.276774153019e-02 2.122081426864e-01 
1303 388 428 2 3 2.227315153157e-03 4.549327807950e-04 -7.531029089782e-04 2.046168361824e-03 9.328353708839e-02 1.905331576893e-02 -3.154115978669e-02 8.569681843127e-02 3.535751661809e-02 -1.621632769588e-02 -1.382968158240e-02 4.128417805903e-02 
1304 188 308 2 2 1.824641032839e-03 1.194688240162e-04 1.683137128680e-03 -6.943280959788e-04 1.902016683036e+00 1.245350138970e-01 1.754512170323e+00 -7.237717437482e-01 -7.268097569756e-02 1.765652188736e-02 3.029581688239e-02 8.069766733976e-02 
1305 197 411 2 3 2.211908877275e-03 -1.788036683276e-03 -1.074553397535e-03 7.353915259715e-04 2.029722933951e-01 -1.640763369630e-01 -9.860468019907e-02 6.748203151735e-02 2.426116558479e-02 -1.460987191813e-02 3.764085602312e-02 4.710505870021e-02 
1306 197 317 2 2 1.934469979840e-03 -2.703701265085e-04 -1.856769780076e-03 -4.706167032659e-04 4.344930258298e-01 -6.072667737670e-02 -4.170411163894e-01 -1.057032042570e-01 -1.382775582828e-01 6.874707799685e-03 5.231724895344e-02 1.480035110058e-01 
1307 56 112 1 2 1.717445341927e-03 7.875228945996e-04 1.512262184326e-03 2.061292770225e-04 1.408538346653e-01 6.458756903822e-02 1.240260301051e-01 1.690539919764e-02 -1.262854119478e-02 6.725536079796e-03 -1.094015222727e-03 1.434955600625e-02 
1308 56 140 1 2 1.667390064662e-03 -1.127308879182e-03 1.210709974638e-03 2.086760071549e-04 5.693736741675e-01 -3.849489163125e-01 4.134283880062e-01 7.125784627274e-02 7.967078487977e-02 6.380393362862e-02 6.021547237195e-02 1.185085609685e-01 
1309 385 431 2 3 2.094093674480e-03 1.024858456384e-03 -1.747455493613e-03 -5.303703986066e-04 1.680725169906e+00 8.225541312818e-01 -1.402512441156e+00 -4.256766968805e-01 -6.289314212637e-02 2.855309150940e-02 -2.156074800924e-01 2.264009978624e-01 
1310 243 238 2 2 1.950424880091e-03 -1.703758480555e-03 4.311042137154e-04 8.458802573253e-04 2.859025388071e-01 -2.497450068839e-01 6.319330236698e-02 1.239931440399e-01 -3.127104215978e-02 8.829622479559e-02 -1.079859436833e-01 1.429512694035e-01 
1311 243 367 2 2 1.955356838548e-03 -1.639732943836e-03 2.403038591582e-04 -1.037762156869e-03 2.443176038136e-01 -2.048810814653e-01 3.002544696664e-02 -1.296661348436e-01 6.286476606075e-02 -1.721594737260e-02 -1.033170132525e-01 1.221588019065e-01 
1312 243 461 2 3 2.167290476407e-03 -1.267152510561e-03 -1.758161579781e-03 1.844948471268e-05 6.494330386212e-01 -3.797048500366e-01 -5.268367251986e-01 5.528425953226e-03 -9.911230889371e-03 5.673544293703e-03 -1.400599249208e-01 1.405247457618e-01 
1313 243 411 2 3 2.204468633685e-03 -1.178999654961e-04 -9.440956112207e-04 -1.988583674857e-03 2.652571645348e-01 -1.418655274491e-02 -1.136002214119e-01 -2.392803685083e-01 1.310406983176e-01 1.435281777495e-02 -1.458330691489e-02 1.326285822672e-01 
1314 265 285 2 2 1.809426102959e-03 -1.448322817976e-03 -7.943757016359e-04 7.384788972278e-04 2.154852148170e+00 -1.724812928505e+00 -9.460249215620e-01 8.794572132385e-01 2.074632880588e-01 2.845265229737e-01 7.129449094340e-01 7.951646383332e-01 
1315 225 445 2 3 2.174759245378e-03 1.756600151889e-04 2.115228096392e-03 4.738474803713e-04 5.634829842196e-01 4.551374124610e-02 5.480583851262e-01 1.227745061307e-01 5.415774506320e-02 5.614966807373e-02 -2.707257316922e-01 2.817414921083e-01 
1316 225 403 2 3 2.222603858466e-03 2.131405697219e-03 -2.425423581861e-04 5.815933889016e-04 1.238041756477e-01 1.187242271311e-01 -1.351017033490e-02 3.239609694766e-02 1.772760202472e-03 4.517408196275e-02 1.234222621359e-02 4.686332156196e-02 
1317 225 473 2 3 2.165536848452e-03 -2.728893193938e-04 -1.910664281342e-03 9.820607238700e-04 6.701962593449e-01 -8.445453200377e-02 -5.913176010533e-01 3.039308354682e-01 -1.098699395742e-01 -1.000433250569e-02 -4.999411204056e-02 1.211234970171e-01 
1318 225 438 2 3 2.157564522834e-03 1.373587473679e-03 -3.547291126786e-04 -1.625579705509e-03 7.672893031372e-01 4.884854957165e-01 -1.261514317598e-01 -5.781008661543e-01 -1.877067545644e-01 1.063740931192e-01 -1.818216809003e-01 2.821496004630e-01 
1319 201 438 2 3 2.117384329295e-03 -1.058678567992e-03 -1.637355560623e-04 1.826391731065e-03 1.318540197451e+00 -6.592616317992e-01 -1.019616086854e-01 1.137332925526e+00 -7.064538228086e-02 2.411026625730e-01 -1.933521327961e-02 2.519823692443e-01 
1320 201 148 2 2 1.898036975641e-03 1.223571275623e-03 1.374442937228e-03 4.651067691118e-04 8.433083864998e-01 5.436395241271e-01 6.106726426332e-01 2.066495247688e-01 3.920370632809e-02 -3.982898976021e-02 1.456470898881e-02 5.775300652873e-02 
1321 201 321 2 2 1.883770874839e-03 1.630291407682e-03 -8.565756855829e-04 -3.962584129039e-04 1.026348396267e+00 8.882433602048e-01 -4.666942741932e-01 -2.158963130938e-01 6.592448411892e-02 1.048570928703e-01 4.456204157322e-02 1.316313909397e-01 
1322 201 194 2 2 1.946619399485e-03 -1.407380324080e-03 2.344397507915e-04 -1.324252888648e-03 3.194460702108e-01 -2.309553238493e-01 3.847226484610e-02 -2.173138628722e-01 7.128876016382e-02 -9.978473913081e-02 -9.342921492751e-02 1.541690620425e-01 
1323 438 403 3 3 2.336340599422e-03 7.578182235406e-04 1.121867544925e-04 2.207173094411e-03 1.917294382178e+00 6.218958926906e-01 9.206493017176e-02 1.811294370117e+00 2.212699249243e-01 -5.983099188811e-01 -4.556051077028e-02 6.395395991251e-01 
1324 272 308 2 2 1.956380359297e-03 -4.181651754601e-04 5.116535889024e-04 1.841405061696e-03 2.359638515217e-01 -5.043593128755e-02 6.171179899072e-02 2.220963978219e-01 -9.413897045145e-02 6.006947807011e-02 -3.806897493972e-02 1.179819257608e-01 
1325 458 375 3 2 2.222768869537e-03 -1.704363497867e-03 9.367734572013e-04 1.076244398082e-03 1.226872949829e-01 -9.407354497658e-02 5.170587147001e-02 5.940406839003e-02 2.786529794700e-02 -1.080080783860e-02 5.352920478634e-02 6.130667210589e-02 
1326 411 461 3 3 2.451870085694e-03 -1.149252545065e-03 -8.140659685605e-04 2.007033159570e-03 3.057736083608e-01 -1.433237020480e-01 -1.015224624269e-01 2.502978338381e-01 1.611553692006e-02 6.569422916135e-02 3.587397534507e-02 7.656620914205e-02 
1327 411 144 3 2 2.211086366820e-03 3.328559238630e-04 -2.008636767334e-03 8.622576137086e-04 2.095818977109e-01 3.155036240753e-02 -1.903923391809e-01 8.173067760198e-02 1.572970911003e-02 1.787339051338e-02 3.556410749975e-02 4.279821934829e-02 
1328 411 86 3 1 1.833563988758e-03 -7.316120934797e-04 -1.617473310227e-03 -4.587817958963e-04 1.702859991605e+00 -6.794597685162e-01 -1.502173147140e+00 -4.260779388659e-01 -2.270250432627e-01 5.521549711102e-02 1.673664366417e-01 2.874032802593e-01 
1329 411 262 3 2 2.238194495401e-03 -1.766462240170e-03 6.093717528884e-04 -1.231986939899e-03 3.502094913355e-02 -2.763977142578e-02 9.534817999585e-03 -1.927685553871e-02 -1.572628556713e-03 1.463059008472e-02 9.491543222601e-03 1.751047456670e-02 
1330 489 324 3 2 2.147100515447e-03 -1.372304053755e-03 7.743615971211e-04 1.458487684001e-03 9.011993886148e-01 -5.759951922793e-01 3.250216712594e-01 6.121689225389e-01 2.597740447370e-01 1.313559098198e-01 1.746823132274e-01 3.394861409809e-01 
1331 489 454 3 3 2.385974956001e-03 -6.550632251289e-04 -2.294289867982e-03 1.631999134196e-06 1.115007394001e+00 -3.061223831037e-01 -1.072161365461e+00 7.626614424660e-04 -1.540569285893e-01 4.416275947403e-02 2.482495726246e-01 2.954855950449e-01 
1332 127 317 2 2 1.945582914000e-03 -1.895122696269e-03 -4.330841371130e-04 -7.899981971065e-05 3.287950567257e-01 -3.202674992355e-01 -7.318933693571e-02 -1.335062618826e-02 1.311594538185e-02 -5.691666046310e-02 -2.615487047589e-03 5.846687125225e-02 
