ITEM: TIMESTEP
225000
ITEM: NUMBER OF ATOMS
500
ITEM: BOX BOUNDS pp pp ff
0.0000000000000000e+00 1.5370634520482899e-02
0.0000000000000000e+00 1.5370634520482899e-02
0.0000000000000000e+00 1.5370634520482899e-02
ITEM: ATOMS id type x y z vx vy vz omegax omegay omegaz radius mass fx fy fz
1 1 1.192926160363e-02 6.765091123403e-03 2.556012323056e-04 4.827629888900e+00 3.852095978110e+00 5.996059238936e+00 -3.215430354862e+04 -2.891758520038e+03 1.271902031300e+04 5.718750000000e-04 1.958537774335e-06 -6.370636504753e-01 1.041297432876e+00 4.008698190421e+00
2 1 1.234581616193e-02 1.486622707089e-02 1.889230817241e-03 6.367891976165e+00 -4.360993584397e+01 5.853636287446e+00 3.957822341036e+04 3.039836660345e+04 4.291818765044e+04 5.718750000000e-04 1.958537774335e-06 -6.368217127776e-03 4.361216261555e-02 -5.853935180593e-03
3 1 1.058499581512e-02 6.613937706246e-03 7.708365240207e-03 3.198243836354e+01 5.387038420774e+00 6.640127497038e-01 -3.336376188865e+03 2.644261840682e+04 -1.733258175538e+04 5.718750000000e-04 1.958537774335e-06 -3.198407142223e-02 -5.387313488917e-03 -6.640466549296e-04
4 1 5.021306791029e-03 3.963336749342e-03 1.066254944309e-02 -2.189382234973e+00 5.670154221909e+01 -1.381866724334e+01 8.573576102733e+01 -1.032896656108e+04 -9.308038841845e+03 5.718750000000e-04 1.958537774335e-06 2.189494027253e-03 -5.670443746258e-02 1.381937283978e-02
5 1 4.707747038106e-03 1.309565462180e-02 1.415850959327e-02 -1.855253336320e+00 2.954045376550e+00 -4.541390977750e+00 5.654636347838e+03 3.507332432415e+03 -8.097693516231e+03 5.718750000000e-04 1.958537774335e-06 1.855348067608e-03 -2.954196213375e-03 4.541622866199e-03
6 1 7.951032839527e-03 4.820987740482e-03 1.683270040495e-03 1.076664154800e+01 -3.703118359957e+01 1.076343469001e+01 3.028729119781e+04 -2.513148371823e+04 -3.413242778389e+04 5.718750000000e-04 1.958537774335e-06 -1.076719130464e-02 3.703307445278e-02 -1.076398428289e-02
7 1 1.522138626699e-02 7.724564999688e-03 1.490768177933e-02 -1.070418243705e+01 -8.314105347974e+00 -1.493503106994e+00 -1.061051116067e+04 -1.347174242847e+03 -3.485226099594e+03 5.718750000000e-04 1.958537774335e-06 4.135351704001e-01 8.624288498623e-02 -8.191042345354e-01
8 1 2.860445405044e-03 1.400227381574e-02 1.409859740867e-02 5.149374855146e+00 2.675772159107e+00 9.786657664958e+00 5.733101218224e+03 2.292094609671e+04 -4.782979933817e+03 5.718750000000e-04 1.958537774335e-06 -5.149637787924e-03 -2.675908786995e-03 -9.787157382529e-03
9 1 1.136163565958e-02 1.527789140127e-02 1.481623089375e-02 1.112514359473e+01 1.047884279091e+01 -5.368643629365e+00 7.816143505583e+03 -6.258869059147e+03 -3.413216786266e+04 5.718750000000e-04 1.958537774335e-06 -1.470755112887e-01 -1.186937934425e-01 3.528898970473e-01
10 1 1.433729102446e-02 1.198085733765e-02 7.777564408492e-03 -2.226256389066e+00 5.569409229629e+00 -1.556442287241e+01 2.283653218315e+04 -9.327587864657e+03 -8.310204411284e+03 5.718750000000e-04 1.958537774335e-06 2.226370064181e-03 -5.569693609828e-03 1.556521760907e-02
11 1 1.498031320672e-02 5.148757569703e-03 4.001067357880e-03 3.259724999201e+01 -1.552855806375e+01 -2.079232008575e+00 8.039721023628e+02 -2.177035704751e+03 5.513310851628e+03 5.718750000000e-04 1.958537774335e-06 -3.259891444367e-02 1.552935096911e-02 2.079338176463e-03
12 1 7.683584744644e-03 2.184890518462e-03 1.259863398628e-03 7.605574323274e+00 5.732909657556e+01 -2.483438333256e+01 4.218637690478e+02 1.192747377922e+04 -1.205315375245e+04 5.718750000000e-04 1.958537774335e-06 -7.605962672316e-03 -5.733202386267e-02 2.483565140365e-02
13 1 1.250254689153e-02 1.204325423255e-03 2.487495030874e-03 -1.025773883462e+01 1.326719722725e+01 -7.874057080011e-01 -5.678979176044e+03 -8.065832337680e+03 -6.457052027489e+03 5.718750000000e-04 1.958537774335e-06 1.025826260611e-02 -1.326787466502e-02 7.874459138079e-04
14 1 6.633261125284e-03 5.043519778436e-03 5.146333344407e-04 2.597264637806e+01 -1.817537827674e+01 -1.277818940908e+01 1.362887629768e+04 1.450910551908e+04 -4.373739056418e+04 5.718750000000e-04 1.958537774335e-06 7.215274323847e+00 -3.735572592828e-01 -3.208607928987e+00
15 1 2.126019775866e-03 1.431904597491e-02 4.667706037308e-03 7.577020335464e+00 -1.731275808240e+00 1.181418034225e+01 2.735508489014e+04 -8.624374692475e+03 -1.824243770469e+03 5.718750000000e-04 1.958537774335e-06 -7.577407226507e-03 1.731364209098e-03 -1.181478358737e-02
16 1 4.025145779515e-03 7.876909844724e-03 1.334896213236e-03 1.894742441469e+01 4.760747267669e+00 6.533476995400e+00 -2.392419811954e+04 2.926839453928e+04 -2.445493692644e+03 5.718750000000e-04 1.958537774335e-06 -1.894839189115e-02 -4.760990356692e-03 -6.533810601965e-03
17 1 1.402056075788e-03 6.233352530467e-03 2.279843120775e-03 -1.669517181439e+01 8.956533064866e+00 -3.482904657879e+01 -1.785123741191e+02 1.759027226941e+03 1.548358002164e+03 5.718750000000e-04 1.958537774335e-06 3.056028368424e+00 1.818716139281e+01 -5.061225533656e+00
18 1 1.205783154202e-02 1.551319411959e-03 4.541878033210e-04 -2.187696081834e+01 -6.589420483689e+00 4.713220114222e+00 -1.678298195434e+03 -3.093240000257e+04 -1.552347074427e+02 5.718750000000e-04 1.958537774335e-06 1.518795432516e-01 2.442274989961e-01 5.370321527545e-01
19 1 9.010790452839e-03 7.595452080369e-03 1.024817135770e-02 8.821400558165e+00 -1.507663620388e+01 3.004344267282e+01 -2.713235436786e+04 -5.685051369437e+03 -7.809179321526e+03 5.718750000000e-04 1.958537774335e-06 -8.821850988640e-03 1.507740603361e-02 -3.004497672425e-02
20 1 8.863685760520e-03 1.974657440100e-03 5.587706669561e-03 -7.595059549294e+00 -1.200267753473e+01 -2.268246658952e+01 1.426270442156e+04 -4.603540738233e+04 -1.189180453551e+04 5.718750000000e-04 1.958537774335e-06 7.595447361440e-03 1.200329040473e-02 2.268362478137e-02
21 1 1.279692913397e-02 1.046267893040e-02 1.499980973404e-02 -1.374826037230e+01 -3.125128560825e+00 -5.012932648106e+00 -7.748976313724e+03 1.111850493726e+04 1.440138122038e+04 5.718750000000e-04 1.958537774335e-06 7.690366827934e-01 -1.320536762359e-01 -1.799883922116e+00
22 1 5.838257033856e-03 3.368796133519e-03 1.389418343690e-02 1.886546277678e+01 -1.120996300846e+01 -3.514561545862e+00 1.243620670655e+04 9.313426614719e+03 -1.068686323531e+04 5.718750000000e-04 1.958537774335e-06 -1.886642606819e-02 1.121053540157e-02 3.514741003264e-03
23 1 1.133182107492e-04 9.638447197985e-03 1.226659476860e-02 4.180677001468e+01 4.975434357894e+00 7.936907151789e+00 -7.209924191694e+03 -9.961960642842e+03 -4.066452166421e+03 5.718750000000e-04 1.958537774335e-06 -4.180890471462e-02 -4.975688409078e-03 -7.937312419051e-03
24 1 6.388762464830e-03 1.227519992269e-02 7.789743374324e-03 1.210893707587e+01 -9.075125812687e+00 -4.965504331720e+00 -1.210641946720e+04 2.545858981591e+04 -1.011537959601e+04 5.718750000000e-04 1.958537774335e-06 -1.210955537160e-02 9.075589198653e-03 4.965757875866e-03
25 1 1.166276779574e-02 5.994419311469e-03 3.664378196855e-03 1.535256688982e+01 -2.223201138869e+00 1.485082083910e+01 -2.330250779769e+04 6.536834632139e+03 2.502064646181e+03 5.718750000000e-04 1.958537774335e-06 -1.535335080888e-02 2.223314657979e-03 -1.485157913844e-02
26 1 2.815515704246e-04 1.475672577236e-03 7.379998479684e-03 4.988403852512e+00 -2.021269532036e+01 -2.081199742797e+00 -2.476986357918e+03 2.775027550775e+03 9.240445383292e+03 5.718750000000e-04 1.958537774335e-06 -4.988658565933e-03 2.021372740295e-02 2.081306011159e-03
27 1 4.598733000592e-03 1.156113124443e-02 1.440896947117e-02 -1.164605811829e+01 -2.353012558063e+00 2.525293363012e-01 -1.428559765296e+04 1.467074035923e+04 2.046011603143e+04 5.718750000000e-04 1.958537774335e-06 1.164665277890e-02 2.353132705488e-03 -2.525422307285e-04
28 1 2.214312755121e-04 1.401402198434e-02 7.563937160171e-03 -1.412304263872e-01 -1.630497286615e+00 3.120103267334e+00 -1.370887669936e+04 -4.015462235229e+04 3.195924249866e+04 5.718750000000e-04 1.958537774335e-06 1.412376377691e-04 1.630580541611e-03 -3.120262583260e-03
29 1 5.899036840000e-03 1.211508107774e-02 3.741322293454e-03 -2.589213055056e+01 5.096702112941e+00 -9.228705805012e+00 1.142958265718e+03 9.909724370427e+01 6.109379649271e+03 5.718750000000e-04 1.958537774335e-06 2.589345263140e-02 -5.096962356191e-03 9.229177032943e-03
30 1 9.839458756352e-03 5.705381297018e-03 1.381020229495e-02 1.364192421868e+01 -2.969670294811e+00 -2.477184689049e+00 1.907116686593e+03 -1.666964537754e+03 2.314233868663e+04 5.718750000000e-04 1.958537774335e-06 -1.364262079043e-02 2.969821929463e-03 2.477311176840e-03
31 1 3.223015437913e-04 1.071836834465e-02 1.244628854428e-02 9.206681953865e-01 -7.757677026780e+00 -1.046403983295e+00 1.970462084394e+04 1.426523148808e+04 1.646792929866e+04 5.718750000000e-04 1.958537774335e-06 -9.207152057234e-04 7.758073142354e-03 1.046457413841e-03
32 1 1.283976223499e-02 5.462319645407e-03 1.307785006455e-02 3.166673055869e+01 -5.294721709065e+00 1.188318496393e+01 7.465123939426e+03 2.795430904037e+04 2.562680831831e+04 5.718750000000e-04 1.958537774335e-06 -3.166834749700e-02 5.294992063415e-03 -1.188379173251e-02
33 1 1.208157584379e-03 1.168675624308e-02 7.268326403680e-03 -1.328254753663e+01 -1.002408132544e+01 -2.596931647798e+01 -3.246825880740e+04 1.434826790712e+03 -1.400723701727e+04 5.718750000000e-04 1.958537774335e-06 1.328322575820e-02 1.002459316612e-02 2.597064250002e-02
34 1 4.593551136821e-03 1.424735112139e-02 1.246658772331e-02 -3.716248518297e-01 -1.173839378712e+01 -7.152270932691e+00 -2.437901274475e+04 7.351798890839e+02 -1.574608131064e+03 5.718750000000e-04 1.958537774335e-06 3.716438274059e-04 1.173899316249e-02 7.152636135559e-03
35 1 1.114058300783e-02 5.753750483507e-04 1.403352528940e-02 -1.742269342486e+01 1.380729081773e+01 -7.781474316294e+00 2.543767627525e+04 3.221498132509e+04 -3.864798414556e+03 5.718750000000e-04 1.958537774335e-06 1.742358304687e-02 -1.380799583328e-02 7.781871646984e-03
36 1 1.402321777749e-02 1.247696564221e-02 1.447790131477e-02 1.453943328792e+01 1.192614773667e+01 7.432034182530e+00 -6.873865738257e+03 -1.503745106507e+04 7.110423517947e+01 5.718750000000e-04 1.958537774335e-06 -1.454017568748e-02 -1.192675669897e-02 -7.432413670420e-03
37 1 3.915425846146e-03 1.593185360540e-03 1.376711725537e-02 7.265834111470e+00 1.074892114755e+01 -3.326892507077e+00 1.539264387578e+04 -3.738819201530e+03 3.263025225665e+03 5.718750000000e-04 1.958537774335e-06 -7.266205113000e-03 -1.074946999936e-02 3.327062381890e-03
38 1 1.391666938685e-02 7.596671593695e-03 2.216591414460e-03 -2.127879507195e+00 -2.440328982284e+00 5.008809696514e+00 5.040952000223e+03 -4.479063325604e+03 -2.195671908569e+03 5.718750000000e-04 1.958537774335e-06 2.127988159077e-03 2.440453588182e-03 -5.009065451880e-03
39 1 1.454196423450e-02 1.110495952196e-02 1.781728070888e-03 -4.150066971224e+00 -9.954405102643e+00 1.477473241573e+01 4.023319969318e+02 1.917481366988e+04 -8.939565512486e+03 5.718750000000e-04 1.958537774335e-06 4.150278878237e-03 9.954913385584e-03 -1.477548682992e-02
40 1 9.166212511240e-03 5.485091570096e-03 1.379271886660e-02 4.967724852929e+01 -9.750919822713e+00 1.014967710257e+01 3.704143046280e+03 -1.487669487769e+04 -5.426795869020e+03 5.718750000000e-04 1.958537774335e-06 -4.967978510457e-02 9.751417715469e-03 -1.015019535631e-02
41 1 1.825857704084e-03 1.793362079905e-03 3.416513819633e-03 8.711041344714e+00 4.627662739649e+01 2.459715734313e+00 -8.029111435178e+03 6.976032667151e+03 -2.952655338332e+04 5.718750000000e-04 1.958537774335e-06 -8.711486140125e-03 -4.627899033230e-02 -2.459841330121e-03
42 1 9.269311127636e-03 9.129066188871e-04 1.016662808286e-02 2.287985668398e+01 2.268870186064e+01 -1.208329353416e+00 4.347067041004e+03 -1.792799269225e+04 7.758778188401e+03 5.718750000000e-04 1.958537774335e-06 -2.288102495478e-02 -2.268986037086e-02 1.208391052050e-03
43 1 1.500498648009e-02 9.081598628146e-03 1.105409227200e-02 1.970698071590e+01 5.459376252961e+00 1.548315623062e+01 -4.477952692623e+03 -2.365838892721e+04 1.244647235703e+04 5.718750000000e-04 1.958537774335e-06 -1.970798697615e-02 -5.459655014754e-03 -1.548394681771e-02
44 1 1.266416989079e-02 1.440839878607e-02 1.082656835560e-02 1.392919608743e+01 1.059094854795e+01 -4.560623227916e+01 -9.206182642281e+03 -3.198164052703e+03 -1.296406054521e+04 5.718750000000e-04 1.958537774335e-06 -1.392990732760e-02 -1.059148933350e-02 4.560856098385e-02
45 1 1.145325226156e-03 1.150281679413e-02 1.402014623609e-03 2.350781111292e+01 1.592732344721e+01 -1.699674585621e+01 -1.054603946117e+03 -1.004348624570e+03 -1.874500722223e+04 5.718750000000e-04 1.958537774335e-06 -2.350901144777e-02 -1.592813671397e-02 1.699761372886e-02
46 1 1.189092509671e-02 7.590480383695e-04 9.208355078271e-03 -2.515911710835e+01 6.921581771963e+00 9.714162112238e+00 1.589265345859e+04 -9.409459281369e+03 -8.184461182071e+02 5.718750000000e-04 1.958537774335e-06 2.516040176071e-02 -6.921935195587e-03 -9.714658128106e-03
47 1 1.469146475576e-02 1.198984790947e-02 1.174533897759e-02 -1.687336831576e+01 1.249997528159e+01 -7.965243907302e+00 -1.819776828537e+03 -7.248018719982e+03 -3.134011608291e+03 5.718750000000e-04 1.958537774335e-06 1.687422988862e-02 -1.250061354416e-02 7.965650621470e-03
48 1 1.319901881172e-02 1.178544640764e-02 1.389589048820e-02 -1.872998265747e+01 -2.141875922906e+00 -1.323896774989e+01 2.896240422598e+04 3.303649367028e+04 -2.989243852024e+04 5.718750000000e-04 1.958537774335e-06 1.873093903111e-02 2.141985289461e-03 1.323964374624e-02
49 1 5.844913303272e-03 5.763102778321e-03 1.123203986822e-02 -1.846302502087e+01 9.272582805052e+00 1.542649784980e+01 -3.497844232882e+03 -2.824656250154e+04 1.413242102604e+03 5.718750000000e-04 1.958537774335e-06 1.846396776335e-02 -9.273056273391e-03 -1.542728554385e-02
50 1 1.465995948515e-02 3.480123030578e-04 1.260415566333e-02 -1.907184009152e+01 -2.434654945308e-03 1.226774332663e+01 -5.392337241678e+03 2.187149538845e+03 1.617833124352e+04 5.718750000000e-04 1.958537774335e-06 1.907281392078e-02 2.434779261484e-06 -1.226836973118e-02
51 1 8.776534467048e-03 5.104120438471e-04 2.847551582314e-03 1.311543417556e+01 6.189107829442e+00 8.307793764178e+00 -7.435690020381e+03 1.230216835737e+04 2.035348683103e+03 5.718750000000e-04 1.958537774335e-06 -1.311610386415e-02 -6.189423852137e-03 -8.308217969321e-03
52 1 2.756505102098e-04 1.269823145736e-02 9.950418068950e-04 -1.112142078184e+01 6.784168082748e+00 6.066517000448e+00 -1.233070829000e+04 -2.027459139503e+04 2.046811948855e+04 5.718750000000e-04 1.958537774335e-06 1.112198865390e-02 -6.784514489878e-03 -6.066826763520e-03
53 1 5.598998348676e-03 1.537412792650e-03 1.698783456189e-03 1.786843027630e+01 5.943401788052e+00 4.381992418132e+00 -1.186686328631e+04 3.570991259214e+04 9.466935201797e+03 5.718750000000e-04 1.958537774335e-06 -1.786934265812e-02 -5.943705264725e-03 -4.382216167514e-03
54 1 1.420033216450e-02 8.091376592720e-03 3.994108965707e-03 1.124628213396e+01 1.919492585256e+01 8.932649399831e+00 -4.132494063691e+04 2.413419002938e+04 -3.029278349885e+03 5.718750000000e-04 1.958537774335e-06 -1.124685638157e-02 -1.919590596672e-02 -8.933105510795e-03
55 1 6.415479999006e-03 9.616388930014e-03 6.169566991083e-04 -2.183886402407e+00 1.242921367000e+01 1.413877689813e+00 -2.028128093983e+04 -1.217234945347e+03 -7.466877842113e+03 5.718750000000e-04 1.958537774335e-06 2.183997914064e-03 -1.242984831940e-02 -1.413949883972e-03
56 1 3.228887885990e-03 7.474493483433e-03 2.080254090179e-03 1.320161320448e+01 -1.324944458883e+01 -7.225457420901e+00 3.328310207532e+03 1.758897980394e+04 -1.068831701213e+03 5.718750000000e-04 1.958537774335e-06 -1.320228729346e-02 1.325012112013e-02 7.225826360753e-03
57 1 7.341480828929e-03 9.957242448477e-03 7.785457812040e-03 -8.603254483237e+00 -1.836727655521e+01 -1.086035430948e+01 1.881649388994e+04 5.560536394454e+03 -1.353673345537e+03 5.718750000000e-04 1.958537774335e-06 8.603693774931e-03 1.836821440868e-02 1.086090885119e-02
58 1 8.626045955423e-03 1.297812304689e-02 1.373151025239e-02 8.052259430631e+00 -3.306992928420e+01 2.371941733649e+01 -9.609614157485e+03 8.883461625725e+03 2.187167009476e+04 5.718750000000e-04 1.958537774335e-06 -8.052670587909e-03 3.307161787138e-02 -2.372062847619e-02
59 1 5.855542946428e-03 3.077397970949e-03 9.120040696105e-04 2.331451124986e+01 -1.969761304655e+01 -4.341480848224e-01 -3.614056430347e+03 -2.099638399436e+04 3.721303376321e+03 5.718750000000e-04 1.958537774335e-06 -2.331570171460e-02 1.969861882847e-02 4.341702529041e-04
60 1 1.221353439833e-02 6.117845552234e-03 8.299822560438e-04 1.846440985527e+01 -1.839022122164e+01 2.273122035799e+01 7.659890461878e+02 1.239883311504e+04 -4.553153334814e+03 5.718750000000e-04 1.958537774335e-06 -1.846535266847e-02 1.839116024668e-02 -2.273238103925e-02
61 1 1.320717890556e-02 6.864987782729e-04 1.490335693843e-02 -7.389188780741e+00 -2.148573039484e+01 -5.163542166379e-01 -6.824237791361e+03 1.671153858786e+04 1.015460104781e+04 5.718750000000e-04 1.958537774335e-06 -4.768621816366e-02 4.584202928922e-01 -8.802655338717e-01
62 1 7.757650505298e-03 7.140616942805e-03 4.762313380784e-03 1.213567395739e+01 1.335327542557e+01 4.464147259054e+00 -1.305402279726e+03 1.651787523510e+04 3.295669302981e+03 5.718750000000e-04 1.958537774335e-06 -1.213629361833e-02 -1.335395725859e-02 -4.464375203353e-03
63 1 3.363319159848e-03 8.342878861777e-03 1.078054721829e-02 -1.364197176967e+01 2.283551191233e+01 7.161876464981e-01 5.553067444650e+02 -6.693598964865e+03 2.953382183649e+04 5.718750000000e-04 1.958537774335e-06 1.364266834385e-02 -2.283667791884e-02 -7.162242158319e-04
64 1 8.906637177727e-03 1.385835105843e-02 5.496526942571e-03 1.752064334727e+00 2.113584549443e+01 -1.871106086379e+01 6.383147150903e+03 1.408398844641e+04 6.592521782534e+03 5.718750000000e-04 1.958537774335e-06 -1.752153797071e-03 -2.113692471409e-02 1.871201627127e-02
65 1 1.051734372629e-02 4.651648250227e-03 1.458458547203e-02 2.467768652220e+01 1.957067227840e+01 -1.233274497243e+01 3.473194648156e+04 -4.401890245932e+04 -1.452467721716e+04 5.718750000000e-04 1.958537774335e-06 -2.467894659218e-02 -1.957167157858e-02 1.233337469604e-02
66 1 4.622062759390e-03 1.441593089721e-02 5.095040460947e-04 1.016803876622e+01 8.110233445458e+00 5.248724970483e+00 -1.449262648994e+04 1.806390900337e+04 4.034155493537e+03 5.718750000000e-04 1.958537774335e-06 -3.589710439823e-03 -1.205934616641e-03 -1.255594710854e-01
67 1 5.334153552345e-03 1.498263420897e-02 5.030513137868e-03 5.687403479583e+00 -2.493251180916e+01 1.219654800670e+01 -2.282373362381e+03 -4.023115758405e+03 -6.157067794025e+02 5.718750000000e-04 1.958537774335e-06 -5.687693884699e-03 2.493378489080e-02 -1.219717077594e-02
68 1 1.362507806422e-02 7.376173892078e-03 1.488097550831e-02 7.863533182227e+00 4.219754585941e+00 -6.943564866060e+00 7.143404957876e+03 -1.341097602292e+04 -3.295567747167e+03 5.718750000000e-04 1.958537774335e-06 -1.376218666495e-02 -8.420472321047e-03 1.359171511921e-01
69 1 6.514942223329e-03 9.217820128169e-03 8.424847021415e-03 2.842212200980e+01 1.003508018954e+01 -7.063876417423e+00 1.930478497634e+04 2.898441957381e+02 3.535949240950e+03 5.718750000000e-04 1.958537774335e-06 -2.842357327480e-02 -1.003559259183e-02 7.064237106770e-03
70 1 1.985095328927e-04 1.425948064308e-02 1.291205366640e-02 -9.738912959636e+00 3.046428289843e+01 -2.629094787109e-01 6.303568929423e+01 -1.093357327636e+04 1.921390051954e+03 5.718750000000e-04 1.958537774335e-06 9.739410239309e-03 -3.046583843843e-02 2.629229031598e-04
71 1 1.074293049201e-02 2.611544080543e-03 8.673549362773e-03 -1.664876954077e+01 -3.309866597703e+01 -1.538221102986e+01 -4.187655417700e+03 4.377733619439e+02 -3.874202247559e+03 5.718750000000e-04 1.958537774335e-06 1.664961964537e-02 3.310035603154e-02 1.538299646258e-02
72 1 4.471648402322e-03 7.238098449382e-03 6.829038594446e-03 9.752906506465e+00 -2.181960316627e+01 -1.131093466232e+01 1.313757962702e+04 -2.010033793580e+03 -1.772970457036e+04 5.718750000000e-04 1.958537774335e-06 -9.753404500664e-03 2.182071729935e-02 1.131151221116e-02
73 1 4.300083644427e-03 4.376196571834e-03 1.401003843012e-02 -6.637412292584e+00 1.227245915043e+01 -2.454719813929e+00 4.983102796883e+03 1.641862147530e+04 2.110265898700e+04 5.718750000000e-04 1.958537774335e-06 6.637751206201e-03 -1.227308579578e-02 2.454845154639e-03
74 1 5.599428585843e-03 3.680341406378e-03 4.535425642951e-03 -7.576332014963e+00 1.507797278401e+01 6.807418234121e+00 1.326216951855e+04 3.066412895662e+04 6.673150515443e+03 5.718750000000e-04 1.958537774335e-06 7.576718870860e-03 -1.507874268198e-02 -6.807765828429e-03
75 1 4.810640629722e-03 4.561109752469e-03 1.403316809575e-02 -1.682750610814e+01 -3.535000042616e+01 2.147614153084e+01 -2.238324553354e+04 -1.693859284175e+04 -3.069290074664e+04 5.718750000000e-04 1.958537774335e-06 1.682836533922e-02 3.535180543630e-02 -2.147723812639e-02
76 1 1.445664411697e-02 9.530080532603e-03 8.486277649164e-04 -2.268683941111e+01 5.384708869297e+00 3.772837604731e+00 -1.001511181281e+04 -4.134023723836e+04 6.113169553226e+03 5.718750000000e-04 1.958537774335e-06 2.268799782623e-02 -5.384983818491e-03 -3.773030249995e-03
77 1 4.189498609040e-03 9.805561738141e-03 3.677679876368e-03 -6.328837960487e+00 1.671382905438e+00 -2.521443029853e+01 2.180214829063e+04 -3.657763702140e+04 -3.535390528474e+03 5.718750000000e-04 1.958537774335e-06 6.329161117956e-03 -1.671468248099e-03 2.521571777524e-02
78 1 1.009390804243e-02 1.066718271955e-02 1.567569181448e-03 2.176913323406e+01 -4.481958004789e+00 4.829779944666e+00 1.374231391538e+03 -2.089709213737e+04 -3.673802767857e+02 5.718750000000e-04 1.958537774335e-06 -2.177024479009e-02 4.482186858524e-03 -4.830026558575e-03
79 1 2.177270502052e-03 8.905287621803e-04 1.104724246941e-02 -9.740246934392e-01 -1.685448507961e+00 -8.440016686498e+00 3.682524618543e+03 -1.031627052367e+04 -1.862227218904e+04 5.718750000000e-04 1.958537774335e-06 9.740744282179e-04 1.685534568827e-03 8.440447643090e-03
80 1 6.754555701955e-03 1.028034767044e-03 1.215747183111e-02 -5.169202433182e-01 2.122382291891e+00 -2.217760144065e+01 1.040136280053e+04 4.264190505095e+03 2.072057649872e+04 5.718750000000e-04 1.958537774335e-06 5.169466378378e-04 -2.122490663079e-03 2.217873385352e-02
81 1 8.687302518021e-03 9.221468038869e-03 1.959640679353e-03 -1.481466789724e+01 -7.991234688626e+00 -4.306910168862e+00 1.791788513436e+03 -2.365788297398e+03 2.740733781353e+04 5.718750000000e-04 1.958537774335e-06 1.481542435058e-02 7.991642729912e-03 4.307130084461e-03
82 1 1.065639512629e-02 5.577774855258e-03 1.487022637697e-02 -2.200183585914e+01 -1.281772833996e+01 5.203484321642e+00 2.250432931234e+04 -3.615885206582e+03 -8.804025842919e+03 5.718750000000e-04 1.958537774335e-06 3.490679071067e-01 3.616792164956e-01 -1.105901066216e+00
83 1 9.808277908070e-03 7.407734826208e-03 2.146617092629e-03 4.889879857192e+00 3.542408189191e+00 2.841759824692e+00 -1.829039524560e+03 1.378546627689e+04 2.179804916032e+04 5.718750000000e-04 1.958537774335e-06 -4.890129539868e-03 -3.542589068473e-03 -2.841904928093e-03
84 1 3.958166790930e-03 1.044540802994e-02 4.326181870042e-03 -2.746813405382e+01 2.417967697382e+01 1.432034628702e+01 1.908555013867e+04 -9.100669923592e+03 1.891881820108e+04 5.718750000000e-04 1.958537774335e-06 2.746953660714e-02 -2.418091161488e-02 -1.432107749975e-02
85 1 4.748245248204e-03 1.164139447312e-02 1.790778470481e-03 -1.436451746892e+01 -2.374930409747e+01 8.521615434152e+00 4.488455622512e+04 -2.715406587909e+04 -7.375494715349e+02 5.718750000000e-04 1.958537774335e-06 1.436525093708e-02 2.375051676322e-02 -8.522050557266e-03
86 1 2.409204138721e-03 1.418980074692e-03 8.492156245255e-03 -3.568567806254e+00 5.334020888181e+00 8.403311605974e+00 -1.538148828898e+04 -1.630096842453e+04 6.657491380331e+03 5.718750000000e-04 1.958537774335e-06 3.568750021275e-03 -5.334293249190e-03 -8.403740688364e-03
87 1 1.266394302905e-02 1.213208301386e-02 9.790590718949e-03 -3.505087054128e+01 1.023357535532e+01 -2.187118951473e+01 -9.191870215559e+03 -9.176886219336e+03 1.687919615159e+04 5.718750000000e-04 1.958537774335e-06 3.505266027752e-02 -1.023409789300e-02 2.187230628187e-02
88 1 7.241487537871e-03 1.084294148432e-03 7.495466704975e-03 2.606181959871e+01 -1.516952646200e+01 -1.449089501152e+00 4.083164102367e+03 4.821326037078e+03 -5.643094991648e+03 5.718750000000e-04 1.958537774335e-06 -2.606315034406e-02 1.517030103481e-02 1.449163493265e-03
89 1 1.271727717447e-02 5.208275939649e-03 6.431247487945e-03 -1.894649653615e+01 1.899070293100e+01 -4.446726008158e-01 -6.849625511819e+03 1.324631361716e+04 1.944178335343e+03 5.718750000000e-04 1.958537774335e-06 1.894746396523e-02 -1.899167261730e-02 4.446953062909e-04
90 1 1.010892325363e-02 6.019657947442e-03 7.753459963421e-03 1.270167719778e+01 -3.395204521963e-01 -1.812037451743e+01 -4.458880291399e+03 2.334342491994e+04 -4.329870156298e+03 5.718750000000e-04 1.958537774335e-06 -1.270232575947e-02 3.395377884863e-04 1.812129976380e-02
91 1 1.175558868889e-02 6.282342580442e-03 6.516210416941e-03 -1.746870142644e+01 1.211476918288e+01 1.601804679492e+01 3.366477121892e+02 1.167875801097e+04 5.914997409290e+03 5.718750000000e-04 1.958537774335e-06 1.746959339767e-02 -1.211538777641e-02 -1.601886469411e-02
92 1 1.128127762905e-02 1.399766646684e-02 2.268732130637e-03 -2.148091948381e+01 -4.295543148758e+01 -1.526348143413e+01 -1.984531079459e+04 -1.453147151237e+04 -2.171277108643e+04 5.718750000000e-04 1.958537774335e-06 2.148201632333e-02 4.295762483945e-02 1.526426080438e-02
93 1 9.541541291017e-03 6.243877742468e-03 7.238764231357e-03 1.376635191324e+01 4.652172633151e+00 1.235818801743e+01 -1.943654969139e+02 6.694217670818e+03 -9.244145977376e+03 5.718750000000e-04 1.958537774335e-06 -1.376705483840e-02 -4.652410178234e-03 -1.235881904019e-02
94 1 2.974073148709e-03 8.554819630432e-03 4.749394855855e-03 1.381465998757e+01 7.863576535263e-01 2.828597320329e+01 1.611225249756e+04 -6.694772114363e+03 -2.889243687402e+04 5.718750000000e-04 1.958537774335e-06 -1.381536537939e-02 -7.863978058182e-04 -2.828741751638e-02
95 1 1.676045363124e-03 2.284041013001e-03 7.526244785700e-03 5.739089917353e+00 4.379942552459e+00 -4.431028759984e+01 -5.100506212994e+03 1.049789317122e+04 4.649885791547e+03 5.718750000000e-04 1.958537774335e-06 -5.739382961635e-03 -4.380166197172e-03 4.431255013216e-02
96 1 1.162884293739e-02 3.407538374697e-03 9.876594645028e-03 1.582636813547e+00 -2.488331330440e+01 1.428740654560e+01 2.244033071271e+04 -1.214138042769e+04 -1.150747064474e+04 5.718750000000e-04 1.958537774335e-06 -1.582717624734e-03 2.488458387392e-02 -1.428813607638e-02
97 1 1.041981428795e-02 1.036609876694e-02 8.158537939860e-03 -1.101138526552e+01 -9.698929213128e+00 -1.044439290228e+01 2.492247205222e+04 1.668838173948e+02 -1.283352086045e+04 5.718750000000e-04 1.958537774335e-06 1.101194751904e-02 9.699424451186e-03 1.044492620454e-02
98 1 7.898726218759e-03 5.318583196525e-04 7.612626580007e-04 9.425014959173e+00 -5.925601018680e+00 1.755978907020e+00 -1.487666902057e+04 -1.775808022298e+03 7.823109042598e+03 5.718750000000e-04 1.958537774335e-06 -9.425496210867e-03 5.925903586425e-03 -1.756068569247e-03
99 1 1.113590988757e-02 6.332403143063e-03 1.027163186018e-02 1.497806923525e+01 -1.106443968898e+01 2.131154671509e+01 -2.662927278192e+04 -2.293038266095e+04 -1.028267867517e+03 5.718750000000e-04 1.958537774335e-06 -1.497883403204e-02 1.106500465152e-02 -2.131263490625e-02
100 1 2.763588452459e-03 1.130886282491e-04 6.590135142852e-03 -1.819483449594e+01 -4.766256303008e+00 2.478102594436e+00 -7.968353313564e+03 1.122447048483e+04 -7.699803626356e+03 5.718750000000e-04 1.958537774335e-06 1.819576354433e-02 4.766499673329e-03 -2.478229129096e-03
101 2 1.522760459566e-02 4.944979880406e-03 1.480547234928e-02 -1.237928005009e+01 1.737265378474e+01 -5.240042040126e+00 1.336540357187e+04 4.281377184032e+03 2.295202162785e+03 7.625000000000e-04 4.642459909534e-06 6.404238791410e-01 -5.112518544847e-01 -1.592703497089e+00
102 2 1.193411589030e-02 1.126238558554e-02 7.773303072745e-04 6.380834345481e+00 1.319493908647e+01 2.186039202416e+00 -5.413011439736e+02 -4.741641345445e+03 -7.719975193143e+03 7.625000000000e-04 4.642459909534e-06 -6.380971793556e-03 -1.319522331559e-02 -2.186086291380e-03
103 2 4.245013030341e-03 1.365255472669e-03 8.449157067307e-03 4.724160105467e+00 -1.641465191058e+01 -3.391533066536e+00 -2.671210764410e+03 6.794784149377e+03 9.793957128095e+02 7.625000000000e-04 4.642459909534e-06 -4.724261867506e-03 1.641500549479e-02 3.391606122765e-03
104 2 9.081925464637e-03 5.730945785264e-03 8.642457932726e-04 -7.884595026742e+00 8.722969793596e+00 5.598319837298e+00 -1.146838804369e+04 -1.050630286995e+04 -6.599748706093e+03 7.625000000000e-04 4.642459909534e-06 7.884764866978e-03 -8.723157693068e-03 -5.598440429409e-03
105 2 7.895770602374e-03 2.942608048142e-03 7.831633308556e-03 3.985593907502e+00 -1.857742331010e+01 2.061817638520e+01 -1.451445067291e+04 8.464073212516e+03 1.276430133876e+04 7.625000000000e-04 4.642459909534e-06 -3.985679760257e-03 1.857782348208e-02 -2.061862051657e-02
106 2 1.237213062755e-02 9.976542075146e-03 1.374209141511e-03 -1.142251063030e+00 9.748250319519e-02 6.068081542788e+00 -3.337538333374e+01 -1.525191004619e+03 -1.111591156431e+03 7.625000000000e-04 4.642459909534e-06 1.142275667995e-03 -9.748460304322e-05 -6.068212253927e-03
107 2 8.400290536522e-03 1.159864284535e-02 5.562573919394e-03 1.563912423911e+01 5.209397885085e-01 1.229650345212e+00 -2.695662767210e+03 5.898764622496e+03 -1.198264869600e+04 7.625000000000e-04 4.642459909534e-06 -1.563946111786e-02 -5.209510099518e-04 -1.229676832825e-03
108 2 6.244907347399e-03 2.013320105270e-03 2.115238804561e-03 -1.951103386124e+01 2.088515132553e+00 -8.175464989599e-01 -7.645429287482e+03 1.164825923069e+04 -9.712159343056e+03 7.625000000000e-04 4.642459909534e-06 1.951145414391e-02 -2.088560120774e-03 8.175641095397e-04
109 2 4.050052278147e-03 7.062609094188e-03 7.767261411461e-03 -3.857899692241e+00 1.728161156277e+01 -7.618829651466e+00 -4.485235448730e+03 -1.680403311775e+03 1.006695030527e+04 7.625000000000e-04 4.642459909534e-06 3.857982794365e-03 -1.728198382196e-02 7.618993766911e-03
110 2 1.375462645135e-02 9.429777534048e-03 2.075433761199e-03 1.307739411905e+00 8.472720365274e+00 4.667039714086e+00 1.144259890678e+04 8.791159177804e+03 -5.775653151519e+03 7.625000000000e-04 4.642459909534e-06 -1.307767581617e-03 -8.472902874182e-03 -4.667140245708e-03
111 2 5.166321247451e-03 1.196153404392e-02 1.331690071708e-02 6.370804962219e+00 -5.537418168276e+00 -4.529546851811e+00 3.291254134463e+03 1.558866300173e+04 9.691507653212e+03 7.625000000000e-04 4.642459909534e-06 -6.370942194254e-03 5.537537448519e-03 4.529644421731e-03
112 2 1.161440464380e-02 1.049707893860e-02 7.992690075547e-04 -1.400733996955e+01 -2.308706446991e+01 1.415587020712e+00 -1.213935599576e+03 -1.643106504036e+04 4.026020888093e+03 7.625000000000e-04 4.642459909534e-06 1.400764169842e-02 2.308756178302e-02 -1.415617513544e-03
113 2 8.741095444521e-03 1.069190133586e-02 1.211252337641e-02 2.047788827156e+01 -1.101708439024e+01 6.860446884227e+00 -5.196719995236e+03 9.293781384905e+02 2.800486972236e+03 7.625000000000e-04 4.642459909534e-06 -2.047832938101e-02 1.101732170670e-02 -6.860594663525e-03
114 2 5.412007817117e-03 3.969250839657e-03 1.210323380449e-03 1.826750092313e+01 1.474426887249e+01 8.835846261848e+00 -6.233832659100e+01 -7.206930843703e+03 4.164355967782e+03 7.625000000000e-04 4.642459909534e-06 -1.826789441913e-02 -1.474458647537e-02 -8.836036592767e-03
115 2 3.556725479105e-03 1.409945314909e-03 2.438618434372e-03 1.350263015046e+01 9.715572746058e+00 -1.279139385800e+01 -1.584063565313e+03 5.039167895904e+03 -7.131259466231e+02 7.625000000000e-04 4.642459909534e-06 -1.350292100749e-02 -9.715782026961e-03 1.279166939445e-02
116 2 6.947702390561e-03 1.528338722571e-02 1.457664876237e-02 1.121162731591e+00 -8.411377010180e+00 -2.378926235423e+00 -1.110630053907e+04 -1.481776781765e+03 -5.714808379432e+03 7.625000000000e-04 4.642459909534e-06 -1.121186882298e-03 8.411558197704e-03 2.378977479323e-03
117 2 2.852887142471e-03 1.208303303534e-03 7.640160137913e-04 -3.151628226613e+01 -8.126396432889e+00 7.016070965646e-01 8.761057235792e+03 -1.273179173788e+04 -2.646310369458e+03 7.625000000000e-04 4.642459909534e-06 3.151696115107e-02 8.126571481713e-03 -7.016222097206e-04
118 2 8.291688049081e-04 6.443748770128e-03 7.638784403028e-04 1.900360362109e+01 9.898155772267e+00 5.862564067275e+00 -1.301936840678e+04 2.485647572524e+04 8.003153875677e+03 7.625000000000e-04 4.642459909534e-06 -1.900401297332e-02 -9.898368986149e-03 -5.862690351411e-03
119 2 6.463065917363e-03 1.057572606021e-02 5.118178788547e-04 -4.321593269527e+00 4.019143085557e-01 -1.119567246580e+00 6.889483047185e+02 -5.377770416786e+03 -8.653038902407e+02 7.625000000000e-04 4.642459909534e-06 6.456783357491e-03 -1.611360993248e-02 4.314037333895e+00
120 2 4.355119931734e-03 6.847080392522e-04 1.173471129418e-02 7.173814381234e+00 3.022478112638e+00 -9.563416376545e-01 -5.307009753418e+03 4.157753895038e+03 1.041785207586e+04 7.625000000000e-04 4.642459909534e-06 -7.173968910709e-03 -3.022543219139e-03 9.563622379883e-04
121 2 4.242049728059e-04 5.227778526023e-03 6.380974397114e-04 -6.043346549946e+00 2.154515575734e+00 3.327337223916e+00 -2.521831312488e+03 -6.980307434312e+03 6.822935097192e+03 7.625000000000e-04 4.642459909534e-06 1.896422404550e-01 -6.108749745645e-02 7.164475578020e-01
122 2 2.049374706572e-03 7.977160712614e-03 1.176281444263e-02 1.511316592061e+01 2.061650606461e+01 7.188446385069e+00 -8.087316320475e+02 4.525936450069e+03 -1.273248196855e+04 7.625000000000e-04 4.642459909534e-06 -1.511349146981e-02 -2.061695015999e-02 -7.188601229728e-03
123 2 3.525089061627e-03 1.521063861184e-02 1.390692773932e-02 5.534262807582e+00 1.043042811639e+01 -4.390557093979e+00 1.522060848302e+04 -7.669356279794e+03 6.351370655402e+03 7.625000000000e-04 4.642459909534e-06 -5.534382019856e-03 -1.043065279583e-02 4.390651669953e-03
124 2 3.610437355834e-03 1.150465481469e-03 3.626466254494e-03 4.505489043645e+00 -1.836311665477e+01 4.888172093690e+00 2.334391269729e+03 -2.286447743438e+03 -1.413384406523e+03 7.625000000000e-04 4.642459909534e-06 -4.505586095341e-03 1.836351221041e-02 -4.888277388674e-03
125 2 7.767561091892e-03 1.016224770328e-02 3.029387491857e-03 2.643544427942e+01 7.704917120755e+00 8.297437071766e-01 -1.400077378975e+04 3.728626468998e+03 5.932822348080e+03 7.625000000000e-04 4.642459909534e-06 -2.643601371920e-02 -7.705083090590e-03 -8.297615804937e-04
126 2 1.010751412174e-02 1.403914150257e-02 3.357469519009e-03 8.114026618367e-01 2.999961314068e+00 1.086356153666e+01 -5.294815923860e+03 -6.778065549467e+03 -1.696636472692e+04 7.625000000000e-04 4.642459909534e-06 2.304731520600e+01 8.008025009749e+00 1.330691797677e+01
127 2 3.104040663607e-03 1.483220956944e-02 1.132869533765e-02 -3.110930591276e+01 1.540705155144e+01 -6.350349881643e+00 -2.669087888617e+04 1.140461632331e+04 -1.401530814089e+04 7.625000000000e-04 4.642459909534e-06 3.110997603111e-02 -1.540738343117e-02 6.350486673059e-03
128 2 1.123951129060e-02 9.046619738079e-03 7.708503337420e-03 -2.466489380692e+01 -1.212387152550e+01 1.680061085723e+01 7.347941454658e+03 -1.578857687616e+03 1.262714819157e+04 7.625000000000e-04 4.642459909534e-06 2.466542510769e-02 1.212413268301e-02 -1.680097275530e-02
129 2 1.916426883872e-04 2.813607955774e-03 8.279512937549e-03 8.317038840083e+00 -5.215522808124e+00 -2.568864140652e+01 5.934017389978e+03 4.114812913279e+03 1.547261573881e+04 7.625000000000e-04 4.642459909534e-06 -8.317217995491e-03 5.215635154493e-03 2.568919475960e-02
130 2 6.317883283406e-03 6.374212403412e-03 9.517390854550e-03 -1.145359756929e+01 1.078925247370e+01 -4.035742846703e+00 -1.415374157388e+03 2.395552574692e+03 -2.797682927095e+03 7.625000000000e-04 4.642459909534e-06 1.145384428859e-02 -1.078948488249e-02 4.035829779706e-03
131 2 1.012473765011e-02 1.712384360835e-03 3.668946453564e-03 5.764856462719e+00 -1.562135622357e+01 2.201462407284e+01 -3.268172554484e+03 1.269070096007e+04 1.020483326381e+04 7.625000000000e-04 4.642459909534e-06 -5.764980642158e-03 1.562169271959e-02 -2.201509828476e-02
132 2 1.038632650011e-02 1.002893423050e-02 4.791329489468e-03 -1.394753900465e+01 -1.093676421486e+01 -2.989554527123e+00 2.279531694157e+03 -7.140075892093e+03 9.193552494397e+01 7.625000000000e-04 4.642459909534e-06 1.394783944536e-02 1.093699980116e-02 2.989618924425e-03
133 2 8.309000810423e-04 1.416050180165e-02 4.165071557281e-03 -1.279837074442e+01 9.304341893618e+00 1.291829555950e+01 -1.912747567048e+04 -3.839918382540e+03 -1.284448688309e+04 7.625000000000e-04 4.642459909534e-06 1.279864643116e-02 -9.304542316292e-03 -1.291857382952e-02
134 2 1.642304277613e-03 3.136570797816e-03 4.826919469162e-03 -1.583333491860e+01 -8.803763854739e+00 3.720116922549e-01 2.071312687049e+04 -3.722272455687e+03 -4.039414485472e+03 7.625000000000e-04 4.642459909534e-06 1.583367598081e-02 8.803953494578e-03 -3.720197056726e-04
135 2 1.086558191088e-02 2.073740972522e-03 1.151701856639e-02 2.285501188741e+00 4.031110382437e+00 8.960101300962e+00 -8.639200839429e+03 2.668552160071e+03 1.271518692479e+04 7.625000000000e-04 4.642459909534e-06 -2.285550420193e-03 -4.031197215653e-03 -8.960294308429e-03
136 2 3.130877066053e-03 9.450096705132e-03 1.103999470741e-02 1.673283827763e+01 -2.007329763736e+01 1.775301744399e+01 -6.905942444996e+03 5.419976999974e+03 5.199487443487e+03 7.625000000000e-04 4.642459909534e-06 -1.673319871582e-02 2.007373003162e-02 -1.775339985763e-02
137 2 1.583687548277e-03 7.539038480170e-03 8.495504467447e-03 -5.130810366180e+00 -1.215601750889e+00 2.563410077514e+01 1.178937053952e+04 1.162316368459e+04 1.302824010851e+04 7.625000000000e-04 4.642459909534e-06 5.130920887778e-03 1.215627935885e-03 -2.563465295337e-02
138 2 2.991569654030e-03 1.078271688851e-02 1.419885020847e-02 2.688401644706e+01 -9.273457833718e+00 1.446546584487e+01 -2.860117140832e+03 -8.041004097262e+03 7.719201728506e+03 7.625000000000e-04 4.642459909534e-06 -2.688459554943e-02 9.273657591126e-03 -1.446577744212e-02
139 2 4.413200330126e-03 1.445886659922e-02 1.359016220197e-02 2.056766077256e+01 3.802339408062e+00 -1.490139919159e+01 -4.159138240747e+03 -3.892158706321e+03 -9.556202435405e+03 7.625000000000e-04 4.642459909534e-06 -2.056810381578e-02 -3.802421313375e-03 1.490172017918e-02
140 2 3.575004301165e-03 1.330433727138e-02 1.010377449783e-02 2.478174893250e+01 2.362924145181e+00 1.390698728196e+01 2.051816120883e+04 4.925904437073e+03 -3.109597355708e+03 7.625000000000e-04 4.642459909534e-06 -2.478228275041e-02 -2.362975044383e-03 -1.390728684916e-02
141 2 1.061812815654e-02 4.135736429004e-03 1.224174600170e-03 4.815777068632e+00 1.864943594787e+01 1.209956922137e+00 -1.143104709413e+03 -2.010123752927e+04 5.378602687468e+02 7.625000000000e-04 4.642459909534e-06 -4.815880804171e-03 -1.864983767106e-02 -1.209982985539e-03
142 2 9.461784132015e-03 1.249289289400e-02 9.775009930935e-04 1.864847280308e+01 -4.801099856670e+00 8.437038541737e-01 1.524247172088e+04 1.381211850241e+04 -3.978880657343e+03 7.625000000000e-04 4.642459909534e-06 -1.864887450552e-02 4.801203276051e-03 -8.437220282031e-04
143 2 9.509414609506e-03 1.307974414895e-02 2.249033504425e-03 -1.707027700471e+01 -1.395231955116e+01 1.770297833999e+01 1.170765377011e+04 -6.098807988031e+03 7.043798486363e+03 7.625000000000e-04 4.642459909534e-06 1.707064471159e-02 1.395262009484e-02 -1.770335967574e-02
144 2 9.820710556745e-03 1.081583986711e-02 1.357950547645e-02 2.446992130735e+01 -4.213702719294e+00 -3.978385306725e+00 3.786275828297e+03 -1.920368943850e+04 -7.436108160523e+02 7.625000000000e-04 4.642459909534e-06 -2.447044840826e-02 4.213793485689e-03 3.978471004202e-03
145 2 1.261447255523e-02 5.632674906492e-03 7.608384123326e-03 5.941990957814e+00 2.926121070285e+01 1.206120523892e+01 -5.018811818919e+03 9.479140396308e+03 3.211146467118e+03 7.625000000000e-04 4.642459909534e-06 -5.942118952865e-03 -2.926184101182e-02 -1.206146504655e-02
146 2 7.012227347406e-03 7.748699471339e-05 1.146833708088e-02 1.022033067299e+01 -1.898468134537e+01 -1.661734448568e+00 -1.014862053478e+04 3.441163761221e+03 -1.093366997980e+04 7.625000000000e-04 4.642459909534e-06 -1.022055082676e-02 1.898509028999e-02 1.661770243605e-03
147 2 3.935765380786e-03 9.498854988693e-04 1.093820099020e-02 -1.163158860693e+01 -6.517521429593e-01 -1.333995188934e+01 -4.695255228159e+03 -8.933560723129e+03 -8.841012503026e+03 7.625000000000e-04 4.642459909534e-06 1.163183916029e-02 6.517661822013e-04 1.334023924216e-02
148 2 6.793213326823e-03 7.168176534624e-03 2.568136241628e-03 -3.183826169047e+00 8.404265522836e+00 -1.349372274190e+00 -4.726083926133e+03 -7.099358319398e+02 -1.969541650555e+04 7.625000000000e-04 4.642459909534e-06 3.183894751109e-03 -8.404446557174e-03 1.349401340706e-03
149 2 5.907202343035e-03 4.611017119457e-03 1.111710249721e-03 7.163329718394e+00 -1.422343421029e+00 1.020893462464e+01 -4.866275932112e+03 -2.337331822040e+04 8.479766538703e+03 7.625000000000e-04 4.642459909534e-06 -7.163484022021e-03 1.422374059399e-03 -1.020915453294e-02
150 2 5.748501764423e-03 4.765417663277e-03 1.471834244289e-02 -8.234363142711e+00 1.394815179250e+01 5.512604133820e+00 4.779304244429e+03 4.418583920183e+03 4.489668623584e+03 7.625000000000e-04 4.642459909534e-06 1.978117557252e-01 -4.165708553684e-01 -2.289745772434e+00
151 2 1.013992473269e-02 3.411576392044e-03 1.306477088257e-03 -5.758064375514e+00 -4.443500124137e+00 7.367751370810e+00 -1.320841177068e+04 1.567365395866e+04 3.121075499716e+03 7.625000000000e-04 4.642459909534e-06 5.758188408646e-03 4.443595840544e-03 -7.367910077837e-03
152 2 9.139755424062e-03 6.892719007138e-03 1.065908760203e-02 -8.083506262659e+00 8.406232518565e+00 3.613427662907e+00 5.666914287153e+03 -4.212260308853e+03 7.143841428965e+03 7.625000000000e-04 4.642459909534e-06 8.083680387596e-03 -8.406413595273e-03 -3.613505498915e-03
153 2 1.180761815475e-02 8.134907190955e-03 1.249822372948e-03 2.356137201254e+00 -1.299113083590e+00 2.326271574334e+00 1.965347182476e+03 1.382942107107e+03 -5.194923408916e+03 7.625000000000e-04 4.642459909534e-06 -2.356187954260e-03 1.299141067484e-03 -2.326321684011e-03
154 2 4.500110372146e-03 5.162984788270e-03 4.472379924862e-03 3.605406674066e+00 -2.455940267662e+01 -1.233656007689e+01 7.585743315349e+03 2.016440281013e+02 1.606039417701e+04 7.625000000000e-04 4.642459909534e-06 -4.413199580815e+00 -2.265144168079e+01 1.213533074676e+00
155 2 1.462357039846e-02 1.291293070116e-02 1.761029994251e-03 -1.242886829887e+00 1.708330950572e+00 3.175864644136e+00 -2.264976309381e+03 -1.744093046984e+03 2.126219592715e+02 7.625000000000e-04 4.642459909534e-06 1.242913602625e-03 -1.708367749333e-03 -3.175933054701e-03
156 2 7.262521162741e-04 1.169158646016e-02 1.160139927522e-02 -1.403111833845e+00 8.256636178710e+00 -6.126120184771e-01 7.580515010276e+03 2.581587613104e+03 7.979816290226e+03 7.625000000000e-04 4.642459909534e-06 1.403142057952e-03 -8.256814032998e-03 6.126252146108e-04
157 2 5.810116917097e-03 1.514263284258e-02 1.441594578768e-02 -2.187527940516e+00 9.482050189923e+00 -1.548649726762e+00 1.282300145654e+04 2.927142007578e+03 1.163904920996e+04 7.625000000000e-04 4.642459909534e-06 2.187575061549e-03 -9.482254440571e-03 1.548683085867e-03
158 2 4.319498333570e-03 1.273275864398e-02 9.471618702958e-03 -1.581705484369e+01 -1.007469861513e+01 4.426606951006e+00 1.135598000219e+04 6.625195123809e+03 -3.413607428228e+03 7.625000000000e-04 4.642459909534e-06 1.581739555521e-02 1.007491563188e-02 -4.426702303521e-03
159 2 1.841842040794e-03 1.275381515001e-02 3.396912580766e-03 -1.012868072986e+01 -8.270382473294e+00 -5.732598629020e+00 1.972696897551e+04 1.194062667514e+03 2.022475773758e+03 7.625000000000e-04 4.642459909534e-06 1.012889890943e-02 8.270560623688e-03 5.732722113600e-03
160 2 1.403508134782e-02 5.082412119196e-03 1.188539457103e-02 -1.136597806906e+01 1.597635430613e+01 -2.570566007449e+01 -1.006320957330e+04 -1.466003641271e+04 -4.570195369688e+03 7.625000000000e-04 4.642459909534e-06 1.136622290096e-02 -1.597669844908e-02 2.570621379416e-02
161 2 9.050338331327e-03 4.733917794066e-03 1.304323506193e-02 -2.195260155648e+01 6.006080054807e+00 1.325746849531e+01 -2.926723135800e+03 2.876999718914e+03 1.566643614672e+04 7.625000000000e-04 4.642459909534e-06 2.195307443239e-02 -6.006209430387e-03 -1.325775407137e-02
162 2 8.009446334002e-03 1.187247592265e-02 9.386268277569e-03 2.413076337196e+01 1.833345505204e+01 -1.194362602322e+01 -1.600932572169e+04 -8.249485978753e+02 2.898812768937e+03 7.625000000000e-04 4.642459909534e-06 -2.413128316715e-02 -1.833384996875e-02 1.194388329811e-02
163 2 3.275949187512e-03 1.284584158662e-02 1.301266369830e-03 -4.584650906452e+00 -1.647853096280e+00 4.579476834570e+00 2.174749702223e+03 -6.230254865248e+03 3.469455303205e+02 7.625000000000e-04 4.642459909534e-06 4.584749663356e-03 1.647888592302e-03 -4.579575480020e-03
164 2 4.615367561894e-03 1.522393042040e-02 7.026355621422e-04 1.837502656034e+01 -1.714246480446e+01 -1.769733390524e+00 -1.184503222539e+04 5.915375520880e+03 8.969557341736e+03 7.625000000000e-04 4.642459909534e-06 -1.994291639344e-01 3.601312169079e-01 7.774539549213e-01
165 2 8.894930830572e-03 8.077421557824e-03 1.785100920978e-03 -1.361771546629e+01 -7.368461023445e+00 -1.664357315094e+01 -1.089677896719e+03 -1.068085939529e+04 -5.606916315340e+02 7.625000000000e-04 4.642459909534e-06 1.361800880235e-02 7.368619745758e-03 1.664393166630e-02
166 2 1.423372340322e-02 9.390816888503e-03 1.075117555059e-02 1.502813964631e+01 -8.354340239203e+00 -3.139802799430e+00 7.312467772382e+03 -4.701953678612e+03 1.526853912591e+04 7.625000000000e-04 4.642459909534e-06 -1.502846336399e-02 8.354520198112e-03 3.139870433195e-03
167 2 1.181197382868e-02 7.731001691417e-03 6.836289436232e-03 -1.026971001859e+01 -5.581659364636e+00 1.774370449207e+01 1.377197459188e+03 -1.873594528694e+04 -1.493130024660e+04 7.625000000000e-04 4.642459909534e-06 1.026993123604e-02 5.581779597868e-03 -1.774408670510e-02
168 2 8.683703089796e-03 9.515817910805e-03 4.465116080019e-03 1.029595965645e+01 1.766333615767e+01 -4.448090613560e+01 7.213460945471e+03 1.673435828546e+04 9.065465242690e+03 7.625000000000e-04 4.642459909534e-06 -1.029618143933e-02 -1.766371663951e-02 4.448186428850e-02
169 2 1.294061201891e-02 5.398280434496e-03 4.690261567975e-03 -3.850544746712e+00 -1.349713925325e+01 1.023529309905e+01 -5.810530879565e+03 3.227782633777e+03 9.539815620864e+03 7.625000000000e-04 4.642459909534e-06 3.850627690405e-03 1.349742999200e-02 -1.023551357513e-02
170 2 7.192251260364e-03 1.099277958482e-02 4.786521066361e-03 1.128972443274e+01 1.748325494594e+01 -1.963235891092e+01 -1.219606069388e+03 2.167208673381e+04 1.577442775032e+04 7.625000000000e-04 4.642459909534e-06 -1.128996762208e-02 -1.748363154869e-02 1.963278180702e-02
171 2 4.510933629073e-03 8.095586106747e-03 4.065143745796e-03 -1.137972550772e+01 -2.312283875054e+01 -9.412978005929e+00 1.985568129273e+04 1.028468791196e+03 -2.927896920821e+03 7.625000000000e-04 4.642459909534e-06 1.137997063576e-02 2.312333683425e-02 9.413180768709e-03
172 2 7.795671256558e-03 7.333332501706e-03 6.523542643820e-03 -2.593138534759e+01 -1.444292250168e+01 -1.819160341805e+01 -2.288127985173e+03 5.956379198031e+03 -4.268659924142e+03 7.625000000000e-04 4.642459909534e-06 2.593194392955e-02 1.444323361333e-02 1.819199527917e-02
173 2 1.335002230166e-02 2.038819853062e-03 1.300757908764e-02 3.640624836920e+00 1.971281648634e+00 9.110554455802e+00 -5.526458028125e+03 -1.761962857224e+03 -1.717530894792e+04 7.625000000000e-04 4.642459909534e-06 -3.640703258777e-03 -1.971324111556e-03 -9.110750704146e-03
174 2 1.079909391896e-02 1.150278021539e-02 7.761758018864e-03 2.505379708514e+00 -2.085991492176e+01 2.288667553311e+01 -3.360035867986e+03 -9.589369902776e+03 2.689293119097e+02 7.625000000000e-04 4.642459909534e-06 -2.505433676319e-03 2.086036426036e-02 -2.288716852969e-02
175 2 6.194457670402e-03 6.061906169396e-03 3.211881596799e-03 -1.558671081334e+01 2.952088718351e+01 -2.396509881701e+00 -3.220557007859e+03 -7.002081117207e+03 1.698141575791e+04 7.625000000000e-04 4.642459909534e-06 1.558704656307e-02 -2.952152308610e-02 2.396561504366e-03
176 2 1.297445164335e-02 1.055460075761e-02 1.218502471301e-03 -8.913567952653e+00 8.231426248206e+00 7.358471533451e+00 -1.748046260931e+04 -5.463132762343e+03 3.176611178816e+03 7.625000000000e-04 4.642459909534e-06 8.913759957756e-03 -8.231603559453e-03 -7.358630040583e-03
177 2 1.505128219642e-02 7.583356979199e-03 7.629435719294e-03 -2.577367191490e+01 -7.093443733775e+00 -1.825280279991e+01 4.540423786878e+03 -4.490433473530e+03 1.080838798986e+04 7.625000000000e-04 4.642459909534e-06 2.577422709960e-02 7.093596532004e-03 1.825319597931e-02
178 2 6.753877429974e-03 1.175127748512e-03 8.600907385491e-03 -1.275017186796e+00 -1.349117921293e+01 -7.380080766553e+00 4.906585072622e+03 4.994995475681e+03 -4.582855791855e+03 7.625000000000e-04 4.642459909534e-06 1.275044651646e-03 1.349146982330e-02 7.380239739165e-03
179 2 2.580720503094e-05 1.529503611297e-03 5.413110600469e-03 1.816521188613e+01 1.315551212835e+01 4.229689932156e+00 1.456963279199e+04 1.001054758741e+03 -2.378102735570e+02 7.625000000000e-04 4.642459909534e-06 -1.816560317876e-02 -1.315579550819e-02 -4.229781042928e-03
180 2 7.789912732749e-03 3.440799718385e-03 3.482505083103e-03 -1.939785009020e+01 -1.021006042050e+01 2.409806792778e+01 -1.433949833849e+04 -3.169197167270e+03 3.222523863599e+03 7.625000000000e-04 4.642459909534e-06 1.939826793480e-02 1.021028035305e-02 -2.409858701869e-02
181 2 1.055123128289e-02 3.588744202183e-03 7.602554040790e-03 5.447147105650e+00 -2.085742365792e+01 8.178852539417e+00 2.334102812171e+03 -2.734773313147e+01 1.784747284096e+04 7.625000000000e-04 4.642459909534e-06 -5.447264441384e-03 2.085787294285e-02 -8.179028718186e-03
182 2 1.013580874507e-02 1.125279074643e-02 4.665682711900e-03 7.007155429579e+00 -2.308682532386e+00 -1.191125893225e+01 8.231418591911e+03 1.912569289136e+04 -3.444311822259e+03 7.625000000000e-04 4.642459909534e-06 -7.007306369091e-03 2.308732263182e-03 1.191151550992e-02
183 2 4.404052995622e-03 7.989100290310e-03 8.521640005469e-03 7.594660951726e+00 -6.094475968662e+00 -9.556797954534e-01 -8.942471337739e+03 9.426599941828e+03 -2.198059289107e+03 7.625000000000e-04 4.642459909534e-06 -7.594824546559e-03 6.094607248358e-03 9.557003815306e-04
184 2 1.323898065067e-02 4.665068402804e-03 6.774976055915e-03 5.467721814595e+00 5.855663339374e+00 1.054607051678e+01 -6.753641888994e+03 6.400271734829e+03 4.504981537361e+03 7.625000000000e-04 4.642459909534e-06 -5.467839593525e-03 -5.855789474862e-03 -1.054629768724e-02
185 2 1.129383050377e-02 6.234335414926e-03 1.474078219198e-02 -6.156491407810e+00 3.547493795036e+00 7.689717798058e+00 4.366815241979e+03 8.367928239128e+03 2.273748158105e+03 7.625000000000e-04 4.642459909534e-06 -1.144387080830e-01 -1.369570811018e-01 -3.180535362262e+00
186 2 1.166569558001e-02 7.324963322283e-03 1.024474651418e-02 2.855510975568e+01 -2.520681193464e+01 5.956511949341e+00 2.989205858910e+03 2.380487718395e+04 -1.033718584491e+04 7.625000000000e-04 4.642459909534e-06 -2.855572485469e-02 2.520735490874e-02 -5.956640257186e-03
187 2 6.123881804035e-03 5.251035862645e-03 6.812095486627e-04 6.185469294304e+00 2.328713048754e+01 4.301260417592e-01 -1.793177767255e+03 2.091837801505e+03 -2.772075402792e+03 7.625000000000e-04 4.642459909534e-06 -7.818067195473e+00 2.358358180247e-01 5.580476287630e+00
188 2 8.448813231410e-03 2.039825808063e-03 8.560161844852e-04 -1.446093725382e+01 8.968526939530e+00 3.941737214270e+00 -1.192974741224e+04 -1.922655880126e+04 -5.243645159645e+03 7.625000000000e-04 4.642459909534e-06 1.446124875353e-02 -8.968720128492e-03 -3.941822122319e-03
189 2 8.428852042238e-03 5.749337330599e-03 1.393817732042e-02 2.025311205710e-01 5.671744555977e+00 1.055238444038e+01 -3.192838739492e+03 -5.680303053798e+03 8.794538218846e+03 7.625000000000e-04 4.642459909534e-06 -2.025354832469e-04 -5.671866729713e-03 -1.055261174685e-02
190 2 7.145004754088e-03 1.518835790666e-02 5.583497915737e-03 8.832056565061e+00 2.249361410660e+01 1.623194148363e+01 5.387278737721e+03 8.466354533760e+03 -2.617287854905e+03 7.625000000000e-04 4.642459909534e-06 -8.832246814347e-03 -2.249409863633e-02 -1.623229113212e-02
191 2 8.391306166909e-03 1.099150393997e-02 1.150239273316e-02 5.369727634758e+00 1.421952133219e+00 -8.462698186857e+00 1.049711531272e+04 7.547352116461e+03 5.395520414384e+03 7.625000000000e-04 4.642459909534e-06 -5.369843302817e-03 -1.421982763161e-03 8.462880479879e-03
192 2 2.515464764591e-03 2.973522642461e-03 2.780574240696e-03 -9.605235353669e+00 -1.843949159631e+01 -1.481696229488e+00 7.813703617182e+03 -1.176654973924e+04 1.813622232473e+03 7.625000000000e-04 4.642459909534e-06 9.605442257820e-03 1.843988879713e-02 1.481728146364e-03
193 2 7.019329622582e-03 1.265795153054e-02 1.294945329414e-02 1.235906912103e+01 3.769782839378e+00 -1.506759357582e+00 -5.335719263220e+03 -2.190738521674e+04 -1.321042958836e+04 7.625000000000e-04 4.642459909534e-06 -1.235933534488e-02 -3.769864043398e-03 1.506791814337e-03
194 2 3.186811488784e-04 2.807939302160e-03 6.878863147239e-03 -9.865689725801e-01 -1.399099299323e+01 -7.895207508401e+00 1.312784688989e+03 2.792239337096e+03 1.946370112595e+04 7.625000000000e-04 4.642459909534e-06 9.865902240339e-04 1.399129436997e-02 7.895377577238e-03
195 2 3.459141322787e-03 5.174174179102e-03 3.320823074395e-03 6.019262017400e+00 -7.767492996882e+00 -8.514659161517e+00 3.194408911194e+03 3.961260511802e+03 -1.397801961122e+04 7.625000000000e-04 4.642459909534e-06 -6.019391676930e-03 7.767660314650e-03 8.514842573819e-03
196 2 1.508621294936e-02 1.525673783457e-02 2.163705944422e-03 4.113037338757e+00 2.831628868281e+00 -1.890514542901e+01 -2.035633926468e+04 3.105882732831e+02 6.397486586256e+03 7.625000000000e-04 4.642459909534e-06 -4.113125936742e-03 -2.831689863742e-03 1.890555266037e-02
197 2 7.788148486606e-03 1.025416903019e-04 1.366584396437e-02 -5.783468158290e+00 -9.032868607760e+00 1.294459345538e+00 -3.458677788087e+03 2.789630119388e+03 3.579109347963e+03 7.625000000000e-04 4.642459909534e-06 5.783592738638e-03 9.033063182691e-03 -1.294487229187e-03
198 2 1.093532817143e-02 4.735304610471e-03 1.036257331607e-02 5.300555209901e+00 4.319324401336e+00 7.761898940321e+00 -6.459111164859e+03 8.497512639024e+02 -8.554590458460e+02 7.625000000000e-04 4.642459909534e-06 -5.300669387934e-03 -4.319417442903e-03 -7.762066137589e-03
199 2 1.102327683887e-02 2.832655589026e-03 3.351202879056e-03 7.151795032054e+00 -6.084410296025e+00 -3.951202923416e-01 1.597201571371e+04 1.083520518676e+04 -1.480207360008e+04 7.625000000000e-04 4.642459909534e-06 -7.151949087215e-03 6.084541358899e-03 3.951288035363e-04
200 2 1.431087667417e-02 9.725686095460e-03 4.623291004571e-03 1.571873185546e+01 -5.067701140040e+00 -4.432080185416e+00 -1.961328877643e+04 2.272766213239e+03 2.666161032063e+04 7.625000000000e-04 4.642459909534e-06 -1.571907044902e-02 5.067810302217e-03 4.432175655829e-03
201 2 4.451429446349e-03 5.824632461178e-03 5.029332452501e-03 1.386356154680e+01 1.000648698489e+01 -7.867508345900e+00 5.638138484963e+03 8.964861373574e+03 3.922788121395e+02 7.625000000000e-04 4.642459909534e-06 -1.386386017857e-02 -1.000670253231e-02 7.867677818076e-03
202 2 6.572613863203e-03 1.254797217138e-02 3.778237336110e-03 -4.037666898733e+00 -3.662497683198e+00 -1.235208369197e+01 -2.099618740401e+03 2.271510257199e+03 7.688060687520e+03 7.625000000000e-04 4.642459909534e-06 4.037753873181e-03 3.662576576213e-03 1.235234976534e-02
203 2 4.171149277203e-03 3.282110401102e-03 1.465884114694e-02 4.019743071224e+00 -1.004399889696e+01 1.769305747583e+00 8.807724162758e+03 -7.094829623434e+02 4.351781875835e+03 7.625000000000e-04 4.642459909534e-06 -7.073044531477e-02 3.329391362845e-01 -6.611976910497e-01
204 2 1.526407398464e-02 1.176455044595e-02 1.315609945002e-02 5.828859325544e+00 -2.238376634451e+01 1.763537879264e+01 -2.348601039307e+03 -8.310149136675e+03 6.687274425978e+03 7.625000000000e-04 4.642459909534e-06 -5.828984883653e-03 2.238424850804e-02 -1.763575867225e-02
205 2 2.558862607318e-04 5.829380980181e-03 8.377337379311e-03 9.249395933579e+00 -2.311240466235e+01 4.107805485779e+00 -8.685466457132e+03 -9.064336122266e+03 -6.540538129868e+03 7.625000000000e-04 4.642459909534e-06 -9.249595172675e-03 2.311290252130e-02 -4.107893971066e-03
206 2 1.169389341210e-02 4.766448865460e-03 4.236369754966e-03 9.923778793691e+00 7.073059886026e+00 -1.217145799930e+01 -2.557475892383e+03 -1.010153250392e+04 6.646826296052e+03 7.625000000000e-04 4.642459909534e-06 -9.923992559513e-03 -7.073212245172e-03 1.217172018186e-02
207 2 1.243398345234e-02 1.180068074797e-02 1.443304679268e-02 7.921358267465e+00 -3.338037992505e+00 2.208069466998e+00 -9.028979258012e+03 4.942290458581e+01 2.028551864292e+03 7.625000000000e-04 4.642459909534e-06 -7.921528899610e-03 3.338109896409e-03 -2.208117030512e-03
208 2 6.720732211246e-03 2.650468426500e-03 1.273728524101e-02 -1.813902569283e+01 -6.866972747753e+00 -2.065347379386e+00 2.559725804434e+03 5.299202869260e+03 -6.099044362637e+03 7.625000000000e-04 4.642459909534e-06 1.813941642138e-02 6.867120667623e-03 2.065391868556e-03
209 2 1.289800665093e-02 1.033745914081e-02 1.268040624845e-02 8.213282480884e+00 -3.084267583747e+00 -1.651428001225e+00 7.659944780777e+03 1.519125768340e+04 -1.326715719268e+04 7.625000000000e-04 4.642459909534e-06 -8.213459401300e-03 3.084334021241e-03 1.651463574254e-03
210 2 6.178001736423e-03 5.409024082336e-03 7.335819659241e-03 3.904820130577e+00 2.061865188660e+01 -6.966898086305e+00 8.554584008533e+02 2.562548753805e+03 -3.405818293664e+03 7.625000000000e-04 4.642459909534e-06 -3.904904243403e-03 -2.061909602820e-02 6.967048158644e-03
211 2 1.065598654774e-02 1.054045980572e-02 2.572367330454e-03 3.090139047239e+01 -1.441680786714e+01 1.136020086862e+01 -1.984624816359e+03 2.350439530410e+04 6.724254102114e+03 7.625000000000e-04 4.642459909534e-06 -3.090205611209e-02 1.441711841626e-02 -1.136044557608e-02
212 2 6.904288957169e-03 1.515801331353e-02 4.555369485738e-03 -2.865723030508e+01 -1.506812018694e+01 5.389854271542e+00 -8.983441993522e+03 -1.257785513836e+04 1.470082374923e+04 7.625000000000e-04 4.642459909534e-06 2.865784760384e-02 1.506844476583e-02 -5.389970373145e-03
213 2 1.045259771031e-03 2.840505534345e-03 1.162685748281e-02 -4.246225934787e+00 2.972352932642e+00 -6.871297890781e+00 -3.237771874988e+03 1.155685533314e+03 3.020470712257e+03 7.625000000000e-04 4.642459909534e-06 4.246317401756e-03 -2.972416959408e-03 6.871445903818e-03
214 2 1.134377580757e-02 4.554792472480e-03 9.650490560513e-03 2.016773094380e+00 1.137448119496e+01 2.767083100601e+01 2.327673285033e+03 1.026003509226e+04 -4.770361450077e+03 7.625000000000e-04 4.642459909534e-06 -2.016816537222e-03 -1.137472621002e-02 -2.767142705697e-02
215 2 7.346801266545e-03 7.498168343970e-03 2.820775849049e-03 2.156962343464e+01 8.621072459440e-01 -1.024195069203e+01 -1.097333346633e+04 1.627295728607e+03 -3.882999130881e+03 7.625000000000e-04 4.642459909534e-06 -2.157008806091e-02 -8.621258163966e-04 1.024217131152e-02
216 2 8.993514199909e-03 2.495791987866e-04 8.009633233058e-03 -6.837340862717e+00 6.881324839570e+00 1.673641016121e+00 -1.575572220516e+04 1.388299981041e+03 -1.734378523655e+04 7.625000000000e-04 4.642459909534e-06 -1.432744248842e+01 -3.085566805357e+01 4.100390551284e+00
217 2 1.187125042934e-02 1.517861716754e-02 5.795697555570e-03 1.995364342293e+00 -6.760183315527e+00 2.097857111674e+00 -1.304172075196e+04 -1.030390138412e+03 7.839031032256e+03 7.625000000000e-04 4.642459909534e-06 -1.995407323974e-03 6.760328935070e-03 -2.097902301129e-03
218 2 1.258845691825e-02 1.360195245967e-02 1.437051243845e-02 -2.023372941182e+01 1.441947252723e+00 -2.768256401152e+00 -6.949633657701e+03 1.746929956570e+04 2.637171693939e+03 7.625000000000e-04 4.642459909534e-06 2.023416526190e-02 -1.441978313375e-03 2.768316031522e-03
219 2 1.154754624274e-02 8.286655432190e-03 1.268524974825e-02 -1.665451910436e+01 5.047935380616e+00 -1.235378982676e+01 -2.203003205856e+04 5.161914787515e+03 -1.433093666870e+02 7.625000000000e-04 4.642459909534e-06 1.665487785550e-02 -5.048044117023e-03 1.235405593689e-02
220 2 4.830656220873e-03 6.133412687767e-03 8.724174799915e-03 1.532395190923e+01 -1.597694165318e+00 2.051959850913e+01 -1.468250592815e+04 -7.455781081659e+03 -2.291965301085e+03 7.625000000000e-04 4.642459909534e-06 -1.532428199893e-02 1.597728580879e-03 -2.052004051705e-02
221 2 5.481373612149e-03 7.687493240609e-03 6.358988290606e-03 1.388600655958e+01 -1.477888966253e+01 -4.156957059647e+00 1.952233571791e+03 -1.931375404270e+03 -8.256446937665e+03 7.625000000000e-04 4.642459909534e-06 -1.388630567483e-02 1.477920801117e-02 4.157046603697e-03
222 2 6.544255745451e-03 7.899604377172e-03 1.434667807011e-02 -1.439370712905e+01 -1.639442816747e+01 -3.908103841670e+00 -1.469174027175e+04 1.146108012332e+04 -7.019162876701e+03 7.625000000000e-04 4.642459909534e-06 1.439401718057e-02 1.639478131605e-02 3.908188025230e-03
223 2 1.663543997436e-03 1.431263416648e-02 1.281650831022e-02 -5.412939951166e+00 7.327686689197e+00 1.479973933756e+01 6.029848899339e+02 2.159356049833e+04 -3.287096214843e+03 7.625000000000e-04 4.642459909534e-06 5.413056550052e-03 -7.327844533199e-03 -1.480005813532e-02
224 2 9.390600088192e-03 2.973188389736e-03 4.203713195711e-03 2.723953859289e+00 1.572342550501e+01 -2.562868631880e+01 -1.385935784713e+04 -1.130773321137e+03 3.343001901734e+03 7.625000000000e-04 4.642459909534e-06 -2.724012535348e-03 -1.572376419968e-02 2.562923838040e-02
225 2 5.217072156781e-03 1.402101814995e-03 1.421375336565e-02 -1.059789901075e+01 -6.502654309883e+00 -2.652696033920e+00 -8.452631322624e+03 1.298839154904e+04 -3.797184099059e+03 7.625000000000e-04 4.642459909534e-06 1.059812729764e-02 6.502794382054e-03 2.652753175031e-03
226 2 8.586094562530e-03 5.169849828010e-03 2.861494952201e-03 -3.709496694265e+00 -1.210079573208e+00 4.429232967896e+00 9.830959563307e+03 5.755625937520e+02 1.809066716600e+03 7.625000000000e-04 4.642459909534e-06 3.709576599675e-03 1.210105639252e-03 -4.429328376978e-03
227 2 1.482322102997e-02 1.230685661758e-02 1.086037532069e-02 7.172518070936e+00 3.751587794917e+00 -5.157607570634e+00 -1.211024226942e+04 -5.460023773137e+03 -8.336003138116e+03 7.625000000000e-04 4.642459909534e-06 -7.172672572487e-03 -3.751668607001e-03 5.157718669465e-03
228 2 5.220184483869e-03 5.021209532578e-03 5.751596167406e-03 1.447720660831e+01 1.315726573752e+01 -2.177930853474e+00 -7.987965661046e+03 1.413280098695e+04 -1.443870103794e+04 7.625000000000e-04 4.642459909534e-06 -1.447751845846e-02 -1.315754915513e-02 2.177977767778e-03
229 2 1.909249849937e-03 1.512416272242e-02 6.921907603950e-04 -8.045657697399e+00 1.072266724883e+01 1.770110022929e+00 1.239563998567e+03 3.924011748136e+03 8.484837560108e+03 7.625000000000e-04 4.642459909534e-06 1.044764243626e-01 -1.126023522668e-01 2.787884552879e-01
230 2 1.503520857163e-02 9.358971405401e-03 3.481921316287e-03 1.146723241504e+01 4.449798675412e+00 6.964126745608e+00 -1.259348399580e+04 -1.333566327913e+04 -1.483531675138e+04 7.625000000000e-04 4.642459909534e-06 -1.146747942804e-02 -4.449894527495e-03 -6.964276758249e-03
231 2 7.545150761569e-03 1.149361638571e-03 1.256419324303e-02 -1.255172773126e+01 -4.122177465060e+00 4.311304710365e+00 -9.546567783182e+03 -1.918269354389e+04 -2.198065161463e+03 7.625000000000e-04 4.642459909534e-06 1.255199810512e-02 4.122266259930e-03 -4.311397579182e-03
232 2 1.649271903112e-03 1.315223640488e-03 3.903433070983e-03 2.274427244970e+01 1.828115939112e+00 -5.600884315239e-01 -8.534343363510e+03 4.121763377627e+03 1.174480363855e+04 7.625000000000e-04 4.642459909534e-06 -2.274476237880e-02 -1.828155318135e-03 5.601004962591e-04
233 2 3.244460590483e-03 1.344233707530e-02 9.014143606885e-03 2.656759170411e+01 -1.424007203999e+01 1.268581849336e+01 1.606071265215e+03 -1.427843950664e+04 -1.037089074440e+04 7.625000000000e-04 4.642459909534e-06 -2.656816399045e-02 1.424037878208e-02 -1.268609175564e-02
234 2 1.430540719809e-02 3.754481784295e-03 1.572357013598e-03 1.002969198281e+01 8.783483234179e+00 4.912971463744e+00 1.029347773419e+04 -1.232699547803e+04 -8.077066378068e+03 7.625000000000e-04 4.642459909534e-06 -1.002990803008e-02 -8.783672437158e-03 -4.913077292925e-03
235 2 6.847958399209e-03 3.993175786636e-03 1.421699690660e-02 -1.142335990948e+01 1.013303835523e+01 5.438601361268e+00 1.348743885883e+04 -7.412018551262e+03 -6.881379323774e+03 7.625000000000e-04 4.642459909534e-06 1.142360597743e-02 -1.013325662866e-02 -5.438718512920e-03
236 2 1.491148280382e-02 3.935214407712e-03 1.373900265477e-03 -3.826697617115e+00 2.726202460372e+01 -4.727401542642e+00 -7.908028756150e+03 6.903987260675e+03 -6.388262584698e+03 7.625000000000e-04 4.642459909534e-06 3.826780047122e-03 -2.726261184868e-02 4.727503374504e-03
237 2 1.416966679610e-02 8.326468741937e-03 1.328330274113e-02 1.424027160396e+01 -5.797162899929e+00 -1.989001365747e+01 -5.269537505425e+03 6.481378085414e+03 1.707567802282e+04 7.625000000000e-04 4.642459909534e-06 -1.424057835035e-02 5.797287775273e-03 1.989044210364e-02
238 2 6.689984684463e-03 1.664702480275e-03 1.196009400280e-02 -5.924462869390e+00 7.588952418097e-01 1.388396215198e+01 -7.594582219024e+03 -1.388441020653e+04 1.867383516426e+04 7.625000000000e-04 4.642459909534e-06 5.924590486873e-03 -7.589115889964e-04 -1.388426122319e-02
239 2 8.250670906299e-03 2.761748077056e-03 2.322702731836e-03 -1.338875593497e+01 1.411303634436e+00 -7.430883907772e+00 -3.467840032402e+03 1.241456177999e+04 -1.369103626067e+04 7.625000000000e-04 4.642459909534e-06 1.338904433906e-02 -1.411334035001e-03 7.431043974722e-03
240 2 1.084618270965e-02 8.677251897412e-03 1.313781739525e-02 4.610353246992e+00 1.861774818421e+01 3.254520952861e+01 2.143883121066e+03 -1.127077329992e+04 -4.963717454992e+03 7.625000000000e-04 4.642459909534e-06 -4.610452557544e-03 -1.861814922481e-02 -3.254591057743e-02
241 2 1.211639542433e-02 1.296901128421e-02 4.960711954581e-03 -1.189589591551e+01 -6.509573684179e-01 -1.916838805536e+01 1.657390756144e+03 3.597661335688e+03 1.475674537073e+03 7.625000000000e-04 4.642459909534e-06 1.189615216225e-02 6.509713905398e-04 1.916880095716e-02
242 2 6.697306507320e-03 4.817853734881e-03 5.606850696143e-03 4.114629442775e+00 -8.092930353707e+00 1.360983839239e+01 -9.837181861360e+02 -6.703407008652e+01 6.590557587925e+03 7.625000000000e-04 4.642459909534e-06 -4.114718075056e-03 8.093104681646e-03 -1.361013155877e-02
243 2 9.102759899484e-04 6.187782388250e-03 1.427969326934e-02 7.948942724970e+00 -2.538612854502e+00 -4.733320798066e+00 6.248885499646e+03 1.291391473466e+04 -1.179337248794e+04 7.625000000000e-04 4.642459909534e-06 -7.949113951305e-03 2.538667538174e-03 4.733422757434e-03
244 2 7.589371187690e-03 6.068933384386e-03 1.445737211587e-02 -1.505391687246e+01 1.711955452236e+01 -1.667632984910e+00 2.113815317465e+03 6.035861250478e+03 9.449762938721e+03 7.625000000000e-04 4.642459909534e-06 1.505424114540e-02 -1.711992329072e-02 1.667668907006e-03
245 2 4.140455190231e-03 1.133492543465e-02 1.236652880662e-02 -2.328394161324e+01 -2.478563676701e+01 -3.370759723537e+01 2.312051651204e+04 -9.871417657460e+03 2.137444145141e+04 7.625000000000e-04 4.642459909534e-06 2.328444316724e-02 2.478617066867e-02 3.370832332292e-02
246 2 8.018890063534e-03 1.000321463905e-02 7.049144093792e-03 1.279985801866e+01 5.023941104961e-02 7.017018090833e+00 -2.242726795590e+03 5.369586723079e+03 -2.069838100598e+03 7.625000000000e-04 4.642459909534e-06 3.255987626736e+01 -1.182487635918e+01 -2.408103445038e+00
247 2 1.394528199568e-02 6.996734014337e-03 1.112232282996e-02 -3.397701836342e+00 -4.534654227865e+00 1.358266238802e+01 1.207046142268e+04 -9.861743713816e+03 1.405357308523e+04 7.625000000000e-04 4.642459909534e-06 3.397775025450e-03 4.534751907802e-03 -1.358295496900e-02
248 2 1.434212252951e-02 7.814821282119e-03 3.239598877610e-03 3.702900932683e+00 2.451932969769e+01 2.041995856290e+01 2.084453949808e+03 8.195477166776e+03 -4.089594569801e+03 7.625000000000e-04 4.642459909534e-06 -3.702980696015e-03 -2.451985786289e-02 -2.042039842450e-02
249 2 1.187334255575e-02 8.055894548545e-03 2.319488641829e-03 -3.747544928945e+01 2.972396197618e+01 8.229728190544e+00 -6.352887616135e+03 1.527903428999e+03 -3.939255532669e+03 7.625000000000e-04 4.642459909534e-06 3.747625653942e-02 -2.972460225317e-02 -8.229905465214e-03
250 2 1.401218768886e-02 8.410756420208e-03 1.386888214586e-02 1.972854023894e+01 4.042970193819e+00 7.619466636940e+00 -8.783273952440e+03 1.085917694710e+04 -3.766188906928e+03 7.625000000000e-04 4.642459909534e-06 -1.972896520686e-02 -4.043057282504e-03 -7.619630766107e-03
251 2 7.953063068822e-03 5.766080275502e-03 7.240810246733e-03 7.842890278466e+00 -6.923871581679e+00 1.089874729260e+01 -2.921709860526e+03 -9.533793209303e+03 1.618870881054e+03 7.625000000000e-04 4.642459909534e-06 -7.843059220349e-03 6.924020727193e-03 -1.089898205999e-02
252 2 1.186087183663e-03 1.040095156696e-02 1.128812052214e-03 1.509433045663e+01 -2.353387866766e+00 3.323071312827e+00 3.082374251625e+03 -9.423819739424e+02 3.880725972833e+03 7.625000000000e-04 4.642459909534e-06 -1.509465560011e-02 2.353438560549e-03 -3.323142894337e-03
253 2 9.422615709022e-03 1.100689988573e-02 1.617413279762e-03 -6.116612848535e-01 9.925455601040e+00 1.140431005774e+00 1.728940371523e+04 -7.274772682295e+03 3.296539209199e+03 7.625000000000e-04 4.642459909534e-06 6.116744605076e-04 -9.925669402981e-03 -1.140455571534e-03
254 2 1.049836693042e-02 9.148556933955e-03 1.351415967856e-02 -8.997136846274e+00 3.793101052738e+00 -3.652469548052e+00 2.052833415740e+04 -1.696043553122e+04 1.108762108896e+04 7.625000000000e-04 4.642459909534e-06 8.997330651516e-03 -3.793182759050e-03 3.652548225053e-03
255 2 8.220500073829e-03 2.955455562343e-03 1.642950745899e-03 -2.287938322842e+01 9.019603402439e-01 -1.539612404772e+01 -9.719226301253e+03 -5.634586725422e+03 9.377380203651e+03 7.625000000000e-04 4.642459909534e-06 2.287987606791e-02 -9.019797691627e-04 1.539645569206e-02
256 2 1.213816841498e-02 1.084164495731e-02 9.183298085349e-03 4.023549140013e+00 2.716049444691e+01 1.399617120465e+01 2.125500610728e+03 -1.061305024407e+04 -2.168614581837e+02 7.625000000000e-04 4.642459909534e-06 -4.023635810354e-03 -2.716107950483e-02 -1.399647269294e-02
257 2 3.306414896863e-03 1.456996654229e-02 1.445375959572e-02 -6.270023986140e+00 9.375129166868e+00 9.248593730525e+00 1.195115783170e+03 1.169966215695e+04 5.392023797883e+03 7.625000000000e-04 4.642459909534e-06 6.270159047275e-03 -9.375331114355e-03 -9.248792952341e-03
258 2 1.366930175280e-02 1.299999132761e-02 1.453841354345e-02 -7.915018517724e+00 -1.883422787549e+00 -9.279340471948e-01 2.131093986725e+02 9.078248040253e+03 7.191788337208e+03 7.625000000000e-04 4.642459909534e-06 7.915189013305e-03 1.883463357924e-03 9.279540356073e-04
259 2 1.324459458500e-02 1.326861994520e-02 1.234070245330e-02 -1.704933707275e+01 -6.442884642617e+00 7.995464287368e+00 -5.750600520686e+01 2.103913299020e+03 -5.090000972421e+03 7.625000000000e-04 4.642459909534e-06 1.704970432857e-02 6.443023427304e-03 -7.995636515813e-03
260 2 5.435747619453e-03 1.120173807030e-04 6.618419732458e-03 3.944655959583e+00 -1.056805852577e+01 -3.314531172818e+00 -1.662922337539e+04 -1.112700922980e+04 2.149286837588e+03 7.625000000000e-04 4.642459909534e-06 -3.944740930504e-03 1.056828616987e-02 3.314602570366e-03
261 2 1.491997091837e-02 1.427209014560e-03 1.237801425876e-02 -5.962731585716e+00 -1.817617213238e+01 3.142085360377e+01 -1.052267039231e+03 -7.708866126900e+03 1.288267025523e+04 7.625000000000e-04 4.642459909534e-06 5.962860027537e-03 1.817656366109e-02 -3.142153043311e-02
262 2 2.645302218213e-03 1.194849482045e-02 7.568334814709e-03 2.717603276117e+00 -2.024556880128e+01 2.522086339027e+01 9.191275799795e+02 3.186562311340e+03 5.356337969268e+03 7.625000000000e-04 4.642459909534e-06 -2.717661815380e-03 2.024600490639e-02 -2.522140666705e-02
263 2 1.077992880147e-02 1.094473591673e-02 5.831996425826e-03 -2.661304502816e+00 -3.046660214049e+00 1.907179057512e+01 -2.976700912417e+03 -2.178357294904e+03 -4.424676389964e+03 7.625000000000e-04 4.642459909534e-06 2.661361829360e-03 3.046725841451e-03 -1.907220139615e-02
264 2 5.494339711255e-03 1.516775194661e-02 2.581306898956e-03 -2.587847890938e+01 2.155760372061e+01 -4.935899882433e+00 1.501189771920e+04 1.217757797024e+03 -1.542804169228e+04 7.625000000000e-04 4.642459909534e-06 2.587903635170e-02 -2.155806808796e-02 4.936006205509e-03
265 2 5.775161014109e-03 5.329148516280e-04 1.299401517520e-02 6.470025470577e+00 1.988277621330e+01 1.195802214194e+01 -4.686016983241e+03 -4.183162128081e+03 1.859728678735e+04 7.625000000000e-04 4.642459909534e-06 -6.470164839898e-03 -1.988320450358e-02 -1.195827972693e-02
266 2 1.496748629795e-02 3.414423043502e-03 1.488462414446e-02 1.118401595685e+01 -1.112249089770e+01 -4.561085421916e+00 -1.016255547762e+04 -9.303475025474e+03 8.085241656546e+03 7.625000000000e-04 4.642459909534e-06 -6.421317391468e-01 5.733551826325e-01 -3.515177224115e+00
267 2 4.828732921891e-03 1.237483549783e-02 1.084923065861e-03 5.673475349975e+00 1.974067864298e+01 7.113198785526e+00 -2.626173385130e+04 7.561619312052e+03 8.966569002308e+03 7.625000000000e-04 4.642459909534e-06 -5.673597560994e-03 -1.974110387237e-02 -7.113352009295e-03
268 2 1.152074171422e-02 1.044539938038e-02 9.088307410198e-03 1.581023098365e+01 6.565035173170e+00 3.102110509338e+00 1.248846993446e+04 -1.270901069069e+03 -7.221684430803e+03 7.625000000000e-04 4.642459909534e-06 -1.581057154818e-02 -6.565176589073e-03 -3.102177331182e-03
269 2 1.131214035140e-02 9.492694489561e-03 5.064272165835e-03 -1.282906721239e+00 -2.205373626694e+01 -4.279103400566e+00 4.241035840997e+03 -2.327392541587e+03 1.439017396948e+03 7.625000000000e-04 4.642459909534e-06 1.282934356036e-03 2.205421132136e-02 4.279195575742e-03
270 2 1.134289456447e-02 1.400179297366e-02 1.052253405588e-02 1.552139699006e+01 1.620927531841e+01 5.037043456637e+00 8.189695812463e+03 -4.232612959743e+03 2.724157364962e+03 7.625000000000e-04 4.642459909534e-06 -1.552173133288e-02 -1.620962447865e-02 -5.037151958424e-03
271 2 8.057044974371e-03 1.389207368885e-02 9.751603732345e-04 -2.126798727438e+00 -3.014333066975e+00 4.611809382975e+00 4.006493575803e+03 -2.882040500111e+03 6.776691147624e+03 7.625000000000e-04 4.642459909534e-06 2.126844540317e-03 3.014397998026e-03 -4.611908724894e-03
272 2 6.629278086036e-03 5.136574088831e-03 1.015541752397e-02 3.854075433893e+00 3.605601125301e+01 -6.682247901008e+00 -1.828559091434e+04 -5.999288551761e+03 -8.081668608515e+03 7.625000000000e-04 4.642459909534e-06 -3.854158453640e-03 -3.605678792720e-02 6.682391841763e-03
273 2 9.808649738489e-03 1.469130168685e-02 1.399837427361e-02 7.628286999319e+00 -8.742688356042e+00 7.245286376367e-01 9.898779893220e+03 -1.438642162417e+04 9.262116911049e+02 7.625000000000e-04 4.642459909534e-06 -7.628451318483e-03 8.742876680268e-03 -7.245442445403e-04
274 2 7.997950629721e-04 1.447440511800e-03 2.779237809169e-03 1.499069728650e+01 -1.493086894602e+01 6.415923131774e+00 4.235657852971e+03 2.492366072945e+03 -7.975170167443e+03 7.625000000000e-04 4.642459909534e-06 -1.499102019764e-02 1.493119056841e-02 -6.416061335689e-03
275 2 8.409917004148e-03 5.554926519628e-03 1.601231949137e-03 -1.500658741632e+00 2.058563857942e+00 3.178724389487e+00 -3.188894841962e+03 -5.839884439920e+03 1.736323490581e+03 7.625000000000e-04 4.642459909534e-06 1.500691066975e-03 -2.058608200990e-03 -3.178792861653e-03
276 2 1.023767370135e-02 5.562616423680e-03 1.004230156039e-02 1.226814947693e+01 -1.251585377634e+01 -6.868677361955e+00 3.552560648049e+03 -2.346370346061e+03 5.373249296388e+02 7.625000000000e-04 4.642459909534e-06 -1.226841374230e-02 1.251612337745e-02 6.868825318544e-03
277 2 7.539386172965e-03 9.810380571837e-03 5.410606918303e-03 -2.102133352308e+01 -7.931968938855e+00 6.594716507677e+00 4.524528478395e+03 5.563494733018e+03 1.099356942227e+04 7.625000000000e-04 4.642459909534e-06 2.102178633876e-02 7.932139799562e-03 -6.594858562939e-03
278 2 1.397745969863e-02 1.217068415560e-02 1.127692557593e-02 -7.245002772972e+00 2.057602981785e+01 2.086765545170e+01 -1.537759485276e+04 3.243346015964e+03 -1.543028765256e+04 7.625000000000e-04 4.642459909534e-06 7.245158835899e-03 -2.057647304134e-02 -2.086810495703e-02
279 2 7.466312040062e-03 1.331660554627e-02 5.163218872494e-03 -2.032420276147e+01 -2.108177419748e+01 1.156074768489e+01 -6.137060516026e+03 -1.813311866092e+02 -8.665049461108e+03 7.625000000000e-04 4.642459909534e-06 2.032464056042e-02 2.108222831510e-02 -1.156099671228e-02
280 2 4.490543450494e-03 1.203970134978e-02 8.557463714021e-03 -1.606064633246e+01 1.473402728600e+01 -8.507151876318e+00 1.140583303320e+04 -6.145165778480e+02 1.545675599885e+04 7.625000000000e-04 4.642459909534e-06 1.606099229113e-02 -1.473434466827e-02 8.507335126907e-03
281 2 5.460301947259e-03 5.554758195690e-03 1.273010114254e-02 -1.311206029485e+00 -1.787335506142e+01 -1.083511565446e+01 -1.220501028816e+04 -1.229421655977e+04 2.646291246699e+04 7.625000000000e-04 4.642459909534e-06 1.311234273871e-03 1.787374006723e-02 1.083534905118e-02
282 2 4.125645754219e-03 1.336328821324e-02 2.896694868054e-03 1.677799944707e+01 1.992620952091e+01 1.160389600300e+01 -1.100313988473e+04 7.205497452002e+03 3.975967257406e+03 7.625000000000e-04 4.642459909534e-06 -1.677836085807e-02 -1.992663874677e-02 -1.160414595984e-02
283 2 3.947048221810e-03 5.346113396156e-03 6.968646425374e-04 -9.755206068116e+00 2.120155924766e+01 9.853314457792e+00 -2.810063052881e+04 -1.389918560675e+04 -6.891542894695e+03 7.625000000000e-04 4.642459909534e-06 -1.151410075380e-01 1.406277242188e-02 -1.210216954588e+00
284 2 2.228356359877e-03 9.873412198000e-03 6.981972902780e-03 -2.394022891143e+01 -1.617690436477e+01 -3.681011614237e+00 -6.144505010857e+03 6.087284532179e+03 1.530230591117e+04 7.625000000000e-04 4.642459909534e-06 2.394074460236e-02 1.617725282772e-02 3.681090906056e-03
285 2 4.836765257015e-03 6.273371394699e-03 1.425009580740e-02 -1.065719931347e+01 7.726550408008e+00 7.419069704964e+00 -1.951468086818e+04 -1.469223639631e+04 5.148068015918e+03 7.625000000000e-04 4.642459909534e-06 1.065742887773e-02 -7.726716843842e-03 -7.419229517427e-03
286 2 5.131571791096e-03 2.337729975837e-03 2.438252346375e-03 -5.424516171915e+00 6.393817045135e+00 8.248968253216e+00 -9.102501363450e+03 -4.729772873573e+03 -1.692618745112e+04 7.625000000000e-04 4.642459909534e-06 5.424633020162e-03 -6.393954772868e-03 -8.249145942332e-03
287 2 1.323822346062e-02 7.520282144858e-03 7.496393912759e-03 -1.694146886085e+01 -4.529484443768e+00 7.275942697591e+00 1.363217676702e+03 -9.442444298210e+03 5.760576792169e+03 7.625000000000e-04 4.642459909534e-06 1.694183379311e-02 4.529582012344e-03 -7.276099426988e-03
288 2 1.025349991051e-02 3.002149947759e-03 1.279640547135e-02 -3.060239739244e+00 1.819974159741e+00 -8.059202627694e+00 -2.851629572506e+03 1.015042368488e+04 -1.750724952693e+03 7.625000000000e-04 4.642459909534e-06 3.060305659160e-03 -1.820013363383e-03 8.059376229112e-03
289 2 1.498235210218e-02 3.805986924529e-03 1.299977662415e-02 8.250084839078e+00 -1.868872040484e+01 4.960601160623e+00 3.505603519301e+03 8.936536087086e+03 -1.493695672658e+04 7.625000000000e-04 4.642459909534e-06 -8.250262552246e-03 1.868912297424e-02 -4.960708015784e-03
290 2 1.179786618354e-02 9.693593854362e-03 1.056015327050e-02 -3.847317637336e+00 -2.575039234641e+01 4.991860763869e+00 7.382748080452e+03 -3.959503465542e+01 9.615762107427e+03 7.625000000000e-04 4.642459909534e-06 3.847400511514e-03 2.575094702965e-02 -4.991968292386e-03
291 2 4.752238522846e-03 3.174692189419e-03 4.850256167325e-03 -2.293311472710e+01 3.976631997682e+01 3.434130181712e+01 -1.395595073386e+04 -5.413209049080e+03 4.844278572610e+03 7.625000000000e-04 4.642459909534e-06 2.293360872401e-02 -3.976717657391e-02 -3.434204155515e-02
292 2 8.275393206061e-04 1.024105718577e-02 1.333199719551e-02 -1.641384214241e+01 -2.253549727452e+01 2.581399363098e+00 -8.755227908324e+03 1.493400743600e+04 3.724978042814e+03 7.625000000000e-04 4.642459909534e-06 1.641419570919e-02 2.253598270645e-02 -2.581454968424e-03
293 2 1.951391076273e-03 1.235232015034e-02 1.412703303417e-03 -6.155501445962e+00 1.740310379169e+01 2.611193265572e+00 8.193095498168e+03 4.264616630803e+03 -1.823162850306e+02 7.625000000000e-04 4.642459909534e-06 6.155634040194e-03 -1.740347866792e-02 -2.611249512682e-03
294 2 1.179300924411e-02 9.845994409002e-03 6.495687147585e-03 -2.956142430845e+01 -1.808774225351e+01 -7.003257211148e-02 -4.937596242426e+03 -1.290575720051e+04 -4.584020122171e+03 7.625000000000e-04 4.642459909534e-06 2.956206108425e-02 1.808813187738e-02 7.003408066690e-05
295 2 1.041126937431e-02 1.453230143472e-03 1.146944719166e-03 -2.776499550522e+01 -5.272224563810e+00 -9.869136936982e-01 -1.520197648611e+03 9.331884714453e+03 7.625905521399e+03 7.625000000000e-04 4.642459909534e-06 2.776559358456e-02 5.272338131578e-03 9.869349525775e-04
296 2 1.515627762847e-02 1.552639322802e-03 1.164689665082e-02 1.433112402577e+00 -1.229495242608e+01 -3.088962853954e+00 -2.195547201398e+03 1.501122560049e+04 -1.023205881325e+04 7.625000000000e-04 4.642459909534e-06 -1.433143272920e-03 1.229521726881e-02 3.089029392588e-03
297 2 2.626985643508e-03 4.474906062076e-03 1.613801295996e-03 -1.231344844202e+01 6.548599586349e-01 4.827866890517e+00 -1.076825012150e+03 9.548378624818e+03 -1.989985266293e+03 7.625000000000e-04 4.642459909534e-06 1.231371368316e-02 -6.548740648216e-04 -4.827970886480e-03
298 2 3.180348235450e-03 1.448329899973e-03 1.002620673875e-02 5.413290419246e+00 -2.319545571005e+01 -1.857674889497e+01 1.004743838100e+04 7.837867886842e+03 1.277090109880e+03 7.625000000000e-04 4.642459909534e-06 -5.413407025682e-03 2.319595535799e-02 1.857714905242e-02
299 2 1.908037749969e-03 9.620714193470e-03 8.646030388190e-03 -1.418651795537e+01 7.982535402954e+00 1.870195109063e+00 -2.172718649183e+03 3.866821067076e+03 7.621697583091e+03 7.625000000000e-04 4.642459909534e-06 1.418682354387e-02 -7.982707352901e-03 -1.870235394503e-03
300 2 3.445645616125e-03 8.910050504276e-03 1.501571093111e-03 1.929670955384e+01 -6.770592423741e+00 -2.310400426617e+01 -2.094153229732e+03 -1.496366401327e+04 2.360522162284e+04 7.625000000000e-04 4.642459909534e-06 -1.929712521979e-02 6.770738267504e-03 2.310450194417e-02
301 2 1.519365042184e-02 3.065990747005e-03 1.077118504200e-02 -2.086978314872e+01 1.135573043529e+01 -1.084684971728e+01 -6.687997208005e+03 1.199505416224e+04 1.255277515416e+04 7.625000000000e-04 4.642459909534e-06 2.087023269989e-02 -1.135597504645e-02 1.084708336676e-02
302 2 4.881482190759e-05 1.383900112372e-03 1.225246991699e-02 5.973156104037e-01 -1.625092902132e+00 -9.349575788413e+00 -1.233168754162e+04 2.979852623155e+03 8.349123116304e+03 7.625000000000e-04 4.642459909534e-06 -5.973284770410e-04 1.625127907882e-03 9.349777185460e-03
303 2 1.319946640479e-02 1.051313717757e-02 6.605593159228e-04 -1.844919726558e+01 -4.632240994449e-01 -6.609665248193e-01 -3.004647371191e+02 -1.132145548194e+04 -4.546445325248e+03 7.625000000000e-04 4.642459909534e-06 5.452084100354e-01 1.945254063819e-02 1.176553245296e+00
304 2 4.247966338697e-03 1.326090695617e-02 5.828331125375e-03 2.482199823969e+01 -1.244455104983e+01 -6.831864542530e+00 9.500158849535e+03 -4.688641334042e+03 -1.139105020769e+04 7.625000000000e-04 4.642459909534e-06 -2.482253292461e-02 1.244481911502e-02 6.832011706142e-03
305 2 3.139249388191e-03 1.025458875077e-02 5.658120185539e-03 3.180667425786e+00 -4.906490631205e+00 1.865171579836e+01 -1.275188329681e+04 -8.891234686866e+03 8.106819424215e+02 7.625000000000e-04 4.642459909534e-06 -3.180735939807e-03 4.906596320783e-03 -1.865211757065e-02
306 2 1.839385942315e-03 3.627422391285e-03 1.155312140651e-03 1.438154293765e+00 -8.931237596754e-01 -1.151550253015e+01 1.515383778025e+04 -5.706605975877e+03 9.209578368921e+03 7.625000000000e-04 4.642459909534e-06 -1.438185272714e-03 8.931429982475e-04 1.151575058293e-02
307 2 1.079367407488e-02 1.170802038245e-02 1.100804236429e-02 1.030805707684e+00 7.280875671459e+00 2.527612642552e+00 4.167542321727e+03 -3.030200170964e+03 -5.080437717009e+03 7.625000000000e-04 4.642459909534e-06 -1.030827912031e-03 -7.281032507116e-03 -2.527667089271e-03
308 2 1.282588189659e-02 1.451591819799e-02 7.753956309058e-03 -1.262955330337e+00 1.904705279621e+01 -1.246306967539e+01 -1.189467048505e+04 -2.137557917071e+04 -1.594654924909e+04 7.625000000000e-04 4.642459909534e-06 1.262982535366e-03 -1.904746308436e-02 1.246333813949e-02
309 2 1.494625539817e-03 6.572505881258e-03 7.489976845176e-03 9.483642134758e+00 7.335258464877e-01 3.157938311727e-01 -5.373891162287e+02 -1.030994211924e+04 -6.977282162093e+03 7.625000000000e-04 4.642459909534e-06 -9.483846419698e-03 -7.335416471982e-04 -3.158006336145e-04
310 2 4.689844163719e-03 5.671465057596e-03 4.527007215075e-03 1.027161764797e+01 -3.211539976791e+01 1.420034403846e+01 9.257552931752e+03 4.813034072080e+03 -3.421258831412e+03 7.625000000000e-04 4.642459909534e-06 4.399322257571e+00 2.270811770405e+01 -1.215396898785e+00
311 2 1.034870791889e-05 3.957130238976e-04 1.219069600741e-02 9.343222892667e+00 8.715445311896e+00 1.786971920344e+01 -7.358674590711e+03 -8.632836987579e+03 -7.305664914176e+02 7.625000000000e-04 4.642459909534e-06 -9.343424152868e-03 -8.715633049286e-03 -1.787010413092e-02
312 2 3.833598114181e-03 9.517887414114e-03 2.047924338065e-03 1.671135173629e+01 1.523404263419e+01 -1.835845821694e+00 -4.208082981683e+03 -1.120975319137e+04 -2.238833910745e+04 7.625000000000e-04 4.642459909534e-06 -1.671171171165e-02 -1.523437078717e-02 1.835885367224e-03
313 2 3.847683658627e-03 3.490839999514e-03 8.764086890901e-03 3.873803661280e+00 -1.793157677937e+01 1.204228405540e+01 -2.821584066058e+03 2.192112176079e+03 1.237492904224e+04 7.625000000000e-04 4.642459909534e-06 -3.873887105988e-03 1.793196303931e-02 -1.204254345546e-02
314 2 1.195044269241e-02 1.329777752417e-02 3.986241431804e-03 -3.485007102025e+00 5.258406879579e+00 -6.518172502098e+00 1.229019573139e+04 1.450023184630e+01 -6.083641483086e+02 7.625000000000e-04 4.642459909534e-06 3.485082171756e-03 -5.258520149704e-03 6.518312908543e-03
315 2 1.228654850965e-02 1.004172060290e-02 1.466504260295e-02 4.100128365133e+00 2.663701241943e+01 -3.580409362578e+00 5.095882292210e+03 -5.746237698169e+03 -1.021853456307e+04 7.625000000000e-04 4.642459909534e-06 -2.984572893394e-03 -1.137774775679e-01 1.778745521176e-01
316 2 2.415946709761e-03 6.018498647418e-03 1.438202501741e-02 -1.597037794597e+01 2.577988511604e+01 -1.816265023148e+00 -1.421611057147e+02 5.892826207067e+03 9.396111120390e+03 7.625000000000e-04 4.642459909534e-06 1.597072196018e-02 -2.578044043458e-02 1.816304146892e-03
317 2 1.819689172162e-03 7.253411672144e-03 3.178622863469e-03 9.197608716626e+00 -5.344828725284e-01 2.731768296043e+01 -9.123085741639e+02 8.229928850692e+03 1.236601702109e+04 7.625000000000e-04 4.642459909534e-06 -9.197806840186e-03 5.344943857002e-04 -2.731827140431e-02
318 2 1.041769900699e-02 1.462741496350e-02 1.051261123415e-02 1.762732792251e+01 -1.059359703955e+01 -2.208326662031e+01 -8.062604763838e+03 1.545452217766e+04 4.139903447451e+02 7.625000000000e-04 4.642459909534e-06 -1.762770762870e-02 1.059382523377e-02 2.208374231084e-02
319 2 1.467669790469e-02 1.199147602306e-02 1.323372988853e-02 1.461487404912e+00 -6.590634473201e+00 -3.105192406284e+00 1.644656694012e+03 -7.239357813574e+03 1.308786691632e+04 7.625000000000e-04 4.642459909534e-06 -1.461518886474e-03 6.590776440532e-03 3.105259294515e-03
320 2 1.263966779254e-02 1.415175463828e-02 8.095761391249e-04 5.541117217204e+00 -1.475713110615e+01 1.917405447462e+00 -2.136089974240e+03 1.142657960683e+04 1.231231198148e+04 7.625000000000e-04 4.642459909534e-06 -5.541236577127e-03 1.475744898610e-02 -1.917446749849e-03
321 2 5.911742870534e-03 1.629490986676e-03 1.476477722738e-02 -6.472614926257e+00 2.298996345743e+01 -3.747930863205e+00 4.745407294958e+03 3.495944799153e+03 8.201311810512e+03 7.625000000000e-04 4.642459909534e-06 1.190479296904e-01 -5.965021745746e-01 -1.165164061012e+00
322 2 6.554035635348e-03 1.352647850192e-02 1.449326262871e-02 7.979528400125e-01 8.511874461283e+00 -6.794388540383e+00 1.167758865633e+04 -1.379828420305e+03 2.924174509156e+03 7.625000000000e-04 4.642459909534e-06 -7.979700285298e-04 -8.512057813600e-03 6.794534896734e-03
323 2 2.649045846596e-03 1.240280107645e-02 1.058442900052e-02 -9.060538709482e+00 -3.188316307928e+01 -9.982366873615e+00 9.231127526867e+02 -9.088777836772e+02 4.795853781721e+03 7.625000000000e-04 4.642459909534e-06 9.060733880448e-03 3.188384986712e-02 9.982581901468e-03
324 2 2.105466614680e-03 1.128267091982e-02 4.473623575405e-03 1.047153158693e+01 -8.626644483346e+00 -1.298066752856e+01 3.869975021441e+03 5.098537619040e+03 -1.125903294206e+04 7.625000000000e-04 4.642459909534e-06 -1.047175715177e-02 8.626830307897e-03 1.298094714212e-02
325 2 1.224198200530e-02 2.037991841097e-04 8.096410401952e-04 2.590244433831e+00 -1.131183286859e+01 1.094096963748e+01 1.491713515974e+04 3.369342830444e+03 -7.426120031830e+03 7.625000000000e-04 4.642459909534e-06 -2.590300229687e-03 1.131207653416e-02 -1.094120531438e-02
326 2 8.914664185137e-04 1.338309825837e-02 6.174445319509e-03 -1.568812315026e+01 9.739741042045e+00 -2.668843285444e+01 -6.627394330329e+03 -5.337625458155e+03 3.843562743047e+03 7.625000000000e-04 4.642459909534e-06 1.568846108449e-02 -9.739950843552e-03 2.668900774379e-02
327 2 8.802262399591e-03 1.170144241948e-02 3.962321532501e-03 1.781632761905e+00 -7.022644340898e+00 7.157852893859e+00 -3.631613962655e+03 -9.293690136488e+03 1.451695604592e+03 7.625000000000e-04 4.642459909534e-06 -1.781671139644e-03 7.022795614054e-03 -7.158007079511e-03
328 2 3.008802350758e-03 1.097807856222e-02 5.754470559079e-03 1.415946041603e+01 6.578398459654e+00 -1.354209538935e+01 -4.374492033454e+03 -2.765986229667e+03 -6.787373981296e+03 7.625000000000e-04 4.642459909534e-06 -1.415976542168e-02 -6.578540163412e-03 1.354238709649e-02
329 2 1.395558099997e-02 1.295959250025e-02 5.443486876046e-03 2.073678356362e+01 1.267021494228e+01 -1.751914356011e+01 -8.226365971442e+03 -1.624241758645e+04 1.312165482386e+04 7.625000000000e-04 4.642459909534e-06 -2.073723024988e-02 -1.267048786844e-02 1.751952093593e-02
330 2 7.604796079350e-03 6.362779673648e-03 1.289332990897e-02 1.088760275799e+01 6.973052372352e+00 -8.785905159542e+00 6.825039841647e+03 9.259560636537e+02 -8.165714278081e+03 7.625000000000e-04 4.642459909534e-06 -1.088783728532e-02 -6.973202577259e-03 8.786094414691e-03
331 2 1.473418936910e-02 4.518910916601e-03 2.515836828314e-03 9.133710153345e+00 8.784519869904e-02 2.393756942765e+00 -2.263022597549e+03 1.132154772102e+04 -1.065545225419e+04 7.625000000000e-04 4.642459909534e-06 -9.133906900481e-03 -8.784709095213e-05 -2.393808506129e-03
332 2 3.980934195388e-03 3.343336978152e-03 1.288250584966e-02 -9.138414511772e+00 1.268368288565e+01 -2.116726511229e+01 2.146321641986e+04 -2.182640782849e+04 -6.880387028276e+03 7.625000000000e-04 4.642459909534e-06 9.138611360243e-03 -1.268395610193e-02 2.116772107144e-02
333 2 3.520124017994e-03 3.940649224880e-04 1.444558802036e-02 -1.065851876489e+01 -3.948951828996e+00 -3.379549036952e+00 -5.282770189393e+03 1.418177617311e+04 -9.731010411866e+03 7.625000000000e-04 4.642459909534e-06 1.065874835757e-02 3.949036892453e-03 3.379621835035e-03
334 2 1.453037462746e-02 2.221548060260e-04 1.016588202841e-02 1.463514439272e+01 -1.796913589427e+00 1.788736496775e+01 1.100842484553e+02 5.588319652337e+03 1.942313096532e+03 7.625000000000e-04 4.642459909534e-06 -1.463545964497e-02 1.796952296326e-03 -1.788775027534e-02
335 2 4.057419498334e-03 1.066888649050e-02 1.438468187377e-02 -3.422946565041e-01 3.709782954303e+00 -7.284394183850e+00 4.985941056704e+03 4.706695181711e+02 2.968951015461e+03 7.625000000000e-04 4.642459909534e-06 3.423020297940e-04 -3.709862865879e-03 7.284551095299e-03
336 2 9.271368137083e-03 9.683784918557e-03 4.211293043943e-03 -3.464063594836e+00 1.257358913398e+01 2.140308813501e+00 -9.692280774192e+02 -1.473762687468e+04 -8.648689326289e+03 7.625000000000e-04 4.642459909534e-06 3.464138213428e-03 -1.257385997875e-02 -2.140354917397e-03
337 2 7.905349397329e-03 9.480516623516e-03 1.447956560255e-02 -6.751487116719e+00 -1.128676669321e+01 -7.610784302009e+00 -1.496446550029e+04 8.929063086817e+03 -7.394693229598e+03 7.625000000000e-04 4.642459909534e-06 6.751632548940e-03 1.128700981884e-02 7.610948244152e-03
338 2 1.040917714813e-02 1.300932851727e-02 1.192711893901e-02 -4.698619429280e+00 -1.490432205692e+00 -3.291836633893e+00 3.344797872936e+03 7.886742208234e+03 -1.218718785766e+04 7.625000000000e-04 4.642459909534e-06 4.698720641154e-03 1.490464310747e-03 3.291907542584e-03
339 2 1.512601775255e-02 3.514514991593e-03 1.379529517925e-02 1.614794196676e+01 -5.580230216894e+00 -1.842525626752e+01 2.408532617396e+04 4.623152228137e+03 8.873441994671e+02 7.625000000000e-04 4.642459909534e-06 -1.614828980584e-02 5.580350419341e-03 1.842565316170e-02
340 2 1.324584758464e-02 1.028921604214e-02 2.772718583086e-03 -1.771390176249e+01 3.299072312592e+00 -3.111668525338e+00 1.590324824111e+03 -1.766414694557e+04 2.592781280803e+03 7.625000000000e-04 4.642459909534e-06 1.771428333354e-02 -3.299143377145e-03 3.111735553069e-03
341 2 7.503000130144e-03 5.369659849933e-04 6.813455877618e-03 -1.351620463511e+01 1.948682547389e+01 7.018548737856e+00 2.733331708668e+03 -4.374519185690e+03 3.096723318034e+03 7.625000000000e-04 4.642459909534e-06 1.351649578455e-02 -1.948724523509e-02 -7.018699922789e-03
342 2 8.911594067817e-03 3.317374453937e-03 1.057450072262e-02 -6.076283351696e+00 -9.637244112990e+00 1.469074379672e+01 5.609534008289e+03 -1.525410886978e+03 -3.290234881199e+03 7.625000000000e-04 4.642459909534e-06 6.076414239508e-03 9.637451706634e-03 -1.469106024663e-02
343 2 6.564172177171e-03 1.465967421495e-02 6.858977832048e-04 -1.391887584375e+01 -1.113676579509e+01 -1.814551164069e-02 1.147282168371e+04 -8.816727574072e+03 2.290303351778e+03 7.625000000000e-04 4.642459909534e-06 3.388955879536e-01 1.179629445605e-01 6.841861070300e-01
344 2 7.107644482403e-03 3.047051764147e-03 8.881092969034e-03 -3.490771593489e+00 1.505435922400e+01 -1.753948178895e+01 -2.629760286333e+03 1.552257439147e+04 1.650546497201e+04 7.625000000000e-04 4.642459909534e-06 3.490846787392e-03 -1.505468350647e-02 1.753985960287e-02
345 2 5.661997757957e-05 5.561603143073e-04 1.049816255997e-02 1.884593525488e+01 -2.981272648509e+01 1.856097907540e+01 1.004515103121e+04 -5.381259384037e+03 -1.002511584025e+04 7.625000000000e-04 4.642459909534e-06 -1.884634121081e-02 2.981336867412e-02 -1.856137889315e-02
346 2 2.758802110679e-03 4.430917801471e-03 1.357498248786e-02 5.156600743441e+00 -4.791715890033e+00 2.180985581014e+01 8.553938663136e+03 -2.704200800612e+03 -4.708757165896e+03 7.625000000000e-04 4.642459909534e-06 -5.156711820584e-03 4.791819107275e-03 -2.181032561119e-02
347 2 1.392613076053e-03 1.220101013127e-02 4.264383366629e-03 -1.136307368513e+01 2.213422725356e+01 1.146745452179e+01 -6.829964181372e+03 -4.165323828049e+03 3.130216693688e+03 7.625000000000e-04 4.642459909534e-06 1.136331845447e-02 -2.213470404182e-02 -1.146770153957e-02
348 2 1.102286727004e-03 5.267646224517e-03 9.825602257681e-03 -1.151154205662e+01 -1.154250844971e+01 1.461119521686e+00 6.662997390807e+03 4.244373646311e+03 1.654800664230e+03 7.625000000000e-04 4.642459909534e-06 1.151179002408e-02 1.154275708421e-02 -1.461150995323e-03
349 2 6.316096958706e-03 4.435469650164e-03 1.407507118665e-02 9.438311192270e-01 6.444581447387e+00 -9.436340927416e+00 2.236837340144e+04 -8.440420736720e+03 -1.725964596802e+04 7.625000000000e-04 4.642459909534e-06 -9.438514500746e-04 -6.444720268624e-03 9.436544193451e-03
350 2 8.724760983227e-04 7.582548109372e-03 1.251136658375e-03 -1.149298550013e+01 1.291028737715e+00 -7.456082751224e+00 -1.374313359823e+04 -5.132729286274e+02 1.623105932366e+04 7.625000000000e-04 4.642459909534e-06 1.149323306787e-02 -1.291056547466e-03 7.456243360976e-03
351 2 8.832676275704e-03 1.531261501607e-02 1.003261529768e-03 -7.430435044412e-01 -8.944797660577e+00 -1.092925821648e+01 -2.371185482013e+03 1.973485192668e+03 1.142603577274e+03 7.625000000000e-04 4.642459909534e-06 7.430595101693e-04 8.944990338393e-03 1.092949364111e-02
352 2 1.165415132601e-02 1.149924488817e-02 4.669581938521e-03 1.250266435053e+01 2.774280313384e+00 1.201969082620e+01 7.536916156499e+03 -5.937205148620e+03 -1.070770267254e+04 7.625000000000e-04 4.642459909534e-06 -1.250293366752e-02 -2.774340073514e-03 -1.201994973958e-02
353 2 1.155945402782e-02 6.892619338721e-03 1.473044829973e-02 1.166238892730e+01 -8.523886238797e-01 -2.408197285017e-01 4.901826749599e+03 -9.482891092049e+03 -4.717672175968e+02 7.625000000000e-04 4.642459909534e-06 -4.655019398284e-01 4.747243352025e-01 -1.324413150530e+00
354 2 1.383732978807e-02 9.118586112853e-03 7.233622090816e-04 2.552268317497e+01 -1.711796243539e+00 8.280909692172e+00 2.247036306073e+03 3.393155590349e+04 3.007320820454e+02 7.625000000000e-04 4.642459909534e-06 2.926558930677e-02 1.774027086385e-03 -1.044419966458e+00
355 2 9.331576947164e-03 4.749376398295e-03 8.380805080536e-03 1.754690768847e+01 7.466203057790e+00 2.456716470290e+01 -1.048680799550e+03 3.710577391368e+02 1.414913246038e+04 7.625000000000e-04 4.642459909534e-06 -1.754728566235e-02 -7.466363885541e-03 -2.456769389850e-02
356 2 4.127080728139e-03 1.231376126450e-03 1.221497274604e-02 -1.757608930331e+01 -1.873770652844e+01 -2.325190589921e+00 1.276229057708e+04 -6.846723312689e+03 -7.740118033052e+03 7.625000000000e-04 4.642459909534e-06 1.757646790579e-02 1.873811015304e-02 2.325240676313e-03
357 2 5.897309663033e-04 8.462026567163e-03 4.725977854330e-03 -4.268821194427e+00 4.230160205403e+00 3.894624679213e+00 -1.434258645927e+04 -8.096678704724e+03 -3.468283128050e+03 7.625000000000e-04 4.642459909534e-06 4.268913148116e-03 -4.230251326304e-03 -3.894708572422e-03
358 2 1.482741169015e-02 6.137664951122e-03 1.453941982547e-02 -9.051030483273e+00 4.080736066381e+00 -2.504150236632e+00 1.202949719055e+04 6.966580916542e+03 2.753123534065e+03 7.625000000000e-04 4.642459909534e-06 9.051225449426e-03 -4.080823968572e-03 2.504204177952e-03
359 2 1.144680576150e-02 1.232336704970e-02 1.466674858733e-02 -2.238253275851e+01 -1.601903134887e+01 4.126408146390e+00 -1.220952615137e+03 1.550389052282e+04 1.176999418632e+03 7.625000000000e-04 4.642459909534e-06 3.885642146810e-02 4.397969329737e-02 -1.168113070823e+00
360 2 2.616276440466e-03 1.127821977114e-02 1.015355510087e-03 -4.613576682680e+00 -1.434129981923e+01 -1.501273135733e+01 -1.332564066841e+04 -1.206759800404e+04 9.423041840662e+03 7.625000000000e-04 4.642459909534e-06 4.613676062667e-03 1.434160874185e-02 1.501305474310e-02
361 2 1.451340720922e-02 1.370864200705e-02 7.299231420889e-04 4.700239690689e-01 3.189520220349e+01 2.175366488139e+00 -4.450486833164e+03 2.466318899894e+02 -1.221876220337e+04 7.625000000000e-04 4.642459909534e-06 -1.130071258318e-03 -9.869964983858e-02 -1.357894556893e-01
362 2 1.318412929289e-02 4.437467818302e-03 1.306140167423e-02 2.445304996126e+01 -3.703536018484e+00 -5.870902480224e+00 -4.498855335105e+03 8.483949998225e+03 -1.077192435577e+04 7.625000000000e-04 4.642459909534e-06 -2.445357669875e-02 3.703615795496e-03 5.871028943975e-03
363 2 1.007200234990e-03 5.245906897004e-03 1.356178020705e-02 -2.399309927280e+01 9.984670722402e+00 -1.565167654803e+00 -6.608869780281e+03 -4.550943641042e+03 5.558078664216e+03 7.625000000000e-04 4.642459909534e-06 2.399361610260e-02 -9.984885799882e-03 1.565201369717e-03
364 2 1.256796388421e-03 1.478767080745e-02 8.454699019157e-03 -2.127780034276e+01 1.723382028207e+01 5.693329769588e-01 4.933608013756e+03 1.970431516776e+04 -1.236201061408e+03 7.625000000000e-04 4.642459909534e-06 2.127825868293e-02 -1.723419151180e-02 -5.693452408287e-04
365 2 1.221711792964e-02 5.333576450807e-05 2.775029488397e-03 6.248622912907e+00 -1.664760115112e+00 -1.745574195854e+00 -6.735220543585e+02 -6.124443996630e+03 -1.892662071404e+03 7.625000000000e-04 4.642459909534e-06 -6.248757513046e-03 1.664795975325e-03 1.745611796863e-03
366 2 9.295255889063e-03 6.951306874706e-03 1.009878826139e-03 -6.623335839821e+00 -1.312865546795e+01 6.744501041869e+00 1.724463217429e+04 -8.675807774136e+03 -7.938188658912e+03 7.625000000000e-04 4.642459909534e-06 6.623478511565e-03 1.312893826928e-02 -6.744646323605e-03
367 2 8.574058245884e-03 1.881840748131e-04 1.249776668999e-02 -6.012341306073e+00 4.003043533120e+01 7.476470211305e+00 -1.570308451904e+04 1.421789448375e+04 9.905331469659e+01 7.625000000000e-04 4.642459909534e-06 6.012470816525e-03 -4.003129761754e-02 -7.476631260219e-03
368 2 8.712467383441e-03 1.242528480235e-02 1.287807058973e-02 7.972365094599e+00 -2.264141881120e+01 -7.185818230480e+00 -2.884807458331e+03 -2.439244658312e+04 -1.228816510697e+03 7.625000000000e-04 4.642459909534e-06 -7.972536825470e-03 2.264190652476e-02 7.185973018527e-03
369 2 5.073238598951e-03 8.664064626213e-03 1.687547262050e-03 9.616372802377e+00 -7.480713481135e+00 1.802553936953e+00 8.736827686192e+03 9.008630282520e+03 1.728678929991e+03 7.625000000000e-04 4.642459909534e-06 -9.616579946437e-03 7.480874621452e-03 -1.802592765350e-03
370 2 4.988367960938e-03 1.472241367692e-02 8.735831367644e-03 8.859321618809e+00 3.495441821534e+00 3.389483585502e+00 7.879482072883e+03 -7.445977967942e+03 4.284019628773e+03 7.625000000000e-04 4.642459909534e-06 -8.859512455404e-03 -3.495517116037e-03 -3.389556597583e-03
371 2 1.243202987394e-02 9.163455507061e-03 1.094314285000e-03 3.521768902408e+00 -9.256564986340e-01 4.452965344872e+00 9.825283550000e+03 -1.134763712644e+04 -1.004378055595e+04 7.625000000000e-04 4.642459909534e-06 -3.521844764016e-03 9.256764379863e-04 -4.453061265168e-03
372 2 1.478718921572e-02 1.213345396328e-02 6.549447080377e-03 -1.421739774339e+01 1.695555879099e+01 -9.117450284957e+00 -1.719646177441e+04 -1.400161637254e+04 4.000800137380e+03 7.625000000000e-04 4.642459909534e-06 1.421770399707e-02 -1.695592402676e-02 9.117646681843e-03
373 2 8.642952025550e-03 3.112798236808e-03 4.415801803192e-03 1.537390482446e+01 -5.189314238875e+00 1.358798311332e+01 -7.180677726989e+03 -8.485368783100e+03 -7.963616702715e+02 7.625000000000e-04 4.642459909534e-06 -1.537423599018e-02 5.189426020691e-03 -1.358827580892e-02
374 2 9.656943413854e-03 1.001771387743e-02 9.367000259091e-03 1.152066533684e+01 1.572948071785e+01 -4.461966792861e+00 5.545573710229e+03 6.396718971124e+03 9.680983342547e+03 7.625000000000e-04 4.642459909534e-06 -1.152091350082e-02 -1.572981954295e-02 4.462062907054e-03
375 2 1.277262050279e-02 2.184471253637e-03 1.009070142462e-02 3.161275822337e+00 -3.485371880016e+01 1.833373237586e+01 -1.152942884114e+04 3.825649514463e+03 1.795888127311e+04 7.625000000000e-04 4.642459909534e-06 -3.161343918648e-03 3.485446957605e-02 -1.833412729854e-02
376 2 8.341019621720e-03 1.345667943167e-02 1.464577400750e-02 -2.255532894472e+01 -6.334306159543e+00 8.281057138515e+00 -2.354623174173e+03 -7.822515789834e+03 -2.710063336308e+02 7.625000000000e-04 4.642459909534e-06 -7.169986254631e-01 -1.116564567018e-01 -1.514767706140e+00
377 2 1.552710178904e-03 1.918036052077e-03 8.500652597931e-03 -1.341830431505e+01 -1.161828987644e+01 -1.155285768195e+01 -4.602681187470e+03 -6.278230293731e+03 -1.125858731953e+03 7.625000000000e-04 4.642459909534e-06 1.341859335564e-02 1.161854014333e-02 1.155310653938e-02
378 2 1.512102758238e-02 7.392148761220e-04 1.442696534243e-02 -1.121316193433e+01 -7.198880001410e+00 -3.684931881248e+00 -8.300964612048e+02 1.091189916365e+04 -2.680575374484e+03 7.625000000000e-04 4.642459909534e-06 1.121340347446e-02 7.199035070817e-03 3.685011257512e-03
379 2 1.455230513563e-02 1.206985967342e-02 2.227042371955e-03 2.655378598939e+00 4.366189512830e-01 3.597101131102e+00 -6.284547936128e+02 3.829157313913e+03 1.215044127932e+04 7.625000000000e-04 4.642459909534e-06 -2.655435797835e-03 -4.366283563907e-04 -3.597178615424e-03
380 2 9.804988245856e-03 6.870429530177e-05 1.081916369868e-03 -6.001108533219e+00 -1.031767165535e+00 1.393207148194e+00 -2.273143734048e+03 -8.286363474052e+03 -7.469014945007e+03 7.625000000000e-04 4.642459909534e-06 6.001237801708e-03 1.031789390593e-03 -1.393237158946e-03
381 2 1.515373258866e-02 1.400344279582e-02 1.451546585797e-02 -1.327452268900e+01 1.422994835802e+00 9.010073151990e+00 8.595511348883e+02 -9.587660658903e+03 -4.665409287184e+03 7.625000000000e-04 4.642459909534e-06 1.327480863242e-02 -1.423025488204e-03 -9.010267235890e-03
382 2 1.002255638332e-02 1.358697572855e-02 1.342362462621e-03 8.365664350797e-01 1.449532981239e+01 -1.517488404044e+01 1.406239844022e+04 9.702487184382e+03 -1.136780555191e+03 7.625000000000e-04 4.642459909534e-06 -8.365844553636e-04 -1.449564205293e-02 1.517521091910e-02
383 2 3.935603969657e-03 8.141046072840e-03 4.011488844593e-03 1.863993512954e+01 -1.341624526801e+01 1.563568297968e+01 -1.241284338211e+04 4.349842101022e+03 -4.827057882872e+03 7.625000000000e-04 4.642459909534e-06 -1.864033664806e-02 1.341653426425e-02 -1.563601978431e-02
384 2 1.319778520727e-02 1.428848257516e-02 6.528752383228e-03 -9.965469947683e+00 3.286859918380e+00 -5.908453074518e+00 1.557249855048e+03 1.361175983177e+04 7.445878874730e+03 7.625000000000e-04 4.642459909534e-06 9.965684611564e-03 -3.286930719869e-03 5.908580347137e-03
385 2 1.206587892456e-02 1.422608402647e-02 1.237350042132e-02 -6.794707059076e+00 9.136911193831e+00 5.513415907734e+00 -1.421587660777e+04 -9.130055354518e+03 5.514355069126e+03 7.625000000000e-04 4.642459909534e-06 6.794853422288e-03 -9.137108009920e-03 -5.513534670950e-03
386 2 1.377756110133e-02 6.718245942589e-03 6.599124600598e-03 -3.880783264583e+00 1.125938753245e+01 9.524265013692e+00 -1.298450342371e+04 2.282062482561e+03 -6.103506320887e+03 7.625000000000e-04 4.642459909534e-06 3.880866859637e-03 -1.125963006831e-02 -9.524470173679e-03
387 2 2.384915941068e-03 6.152469525334e-03 6.805689179822e-03 -2.470721878035e+01 -2.351799611082e+01 4.943425132750e+00 -1.221638482900e+04 -2.878946561226e+03 1.100768573028e+04 7.625000000000e-04 4.642459909534e-06 2.470775099283e-02 2.351850270653e-02 -4.943531617926e-03
388 2 9.637217415131e-03 1.386941561749e-02 4.170929412255e-03 7.348159379065e+00 -2.285895573755e+00 1.115652786539e+01 -9.834250530726e+03 -3.415239048974e+03 -6.796643746528e+03 7.625000000000e-04 4.642459909534e-06 -7.348317664065e-03 2.285944813702e-03 -1.115676818558e-02
389 2 7.174448362718e-04 3.831572946423e-03 7.633897737525e-03 8.705531421635e+00 2.030966115355e+01 1.405343671566e+01 -2.482753094458e+03 5.943311022987e+03 -2.031839231432e+03 7.625000000000e-04 4.642459909534e-06 -8.705718945472e-03 -2.031009863926e-02 -1.405373943749e-02
390 2 7.218459036214e-03 1.073775559108e-02 2.250984996038e-03 1.263706725429e+01 -4.523600664148e+00 -2.007720094007e+01 -7.759408299780e+03 -1.327515321200e+04 1.628895433041e+03 7.625000000000e-04 4.642459909534e-06 -1.263733946643e-02 4.523698105983e-03 2.007763341841e-02
391 2 4.827435581746e-03 3.368475560880e-03 1.002180981418e-03 2.328828674948e+00 -8.991018222710e+00 6.986829280067e+00 -2.948018674387e+03 1.852889502585e+04 6.664205961798e+03 7.625000000000e-04 4.642459909534e-06 -2.328878839708e-03 8.991211896152e-03 -6.986979781739e-03
392 2 6.512623339550e-03 1.448598434492e-02 8.153038120929e-03 2.877610280055e+00 -6.808348372857e+00 -1.363969473842e+01 -7.797378658740e+03 4.341539438298e+03 -8.491992299202e+03 7.625000000000e-04 4.642459909534e-06 -2.877672265992e-03 6.808495029913e-03 1.363998854792e-02
393 2 1.516664775019e-02 4.536406533539e-03 6.685818927432e-03 4.451712739652e+00 6.752738901115e-01 1.221934657862e+01 5.946813382868e+03 -1.188806267084e+04 3.732652013278e+03 7.625000000000e-04 4.642459909534e-06 -4.451808632966e-03 -6.752884360300e-04 -1.221960979273e-02
394 2 2.516780221548e-03 8.595271035135e-03 9.652248669558e-03 1.339933639482e+01 -3.763750606168e+00 7.341789764277e+00 7.304492868037e+02 1.119097788788e+03 5.503514523098e+03 7.625000000000e-04 4.642459909534e-06 -1.339962502682e-02 3.763831680249e-03 -7.341947912070e-03
395 2 5.548657545721e-03 9.043839259699e-03 1.220466609986e-02 1.102807805454e+01 9.136442544583e+00 3.205684030175e+00 -1.091342126684e+04 1.624030279166e+04 2.281549137561e+04 7.625000000000e-04 4.642459909534e-06 -1.102831560781e-02 -9.136639350577e-03 -3.205753083073e-03
396 2 5.873673000473e-03 1.395055650461e-02 1.085129686886e-02 5.188254938177e-01 9.990480972011e+00 -1.550844345269e+00 1.132475321107e+04 -8.459159377294e+03 -1.060013551603e+04 7.625000000000e-04 4.642459909534e-06 -5.188366697175e-04 -9.990696174649e-03 1.550877751648e-03
397 2 8.464192840881e-04 8.148625222927e-03 1.413744822756e-02 5.067102272620e+00 -5.536519980617e+00 -3.365022787967e+00 -6.864923718430e+03 -1.135992777430e+03 2.910237517433e+03 7.625000000000e-04 4.642459909534e-06 -5.067211421897e-03 5.536639241512e-03 3.365095273143e-03
398 2 1.132338474210e-02 5.448078181089e-03 1.093457522394e-02 -2.880755691910e+01 -1.659692828376e+01 -1.212452617496e+01 -9.663812951584e+03 8.445894525833e+03 -6.549863091593e+03 7.625000000000e-04 4.642459909534e-06 2.880817745601e-02 1.659728579435e-02 1.212478734657e-02
399 2 5.735073040786e-03 5.489611803490e-03 3.144316082256e-03 2.297685560973e+01 1.131303562134e+01 9.125418974899e+00 -1.920029333986e+04 1.212887995339e+04 4.128509543364e+03 7.625000000000e-04 4.642459909534e-06 -2.297735054885e-02 -1.131327931282e-02 -9.125615543436e-03
400 2 3.128677605663e-03 5.712273602664e-04 7.019658128590e-03 -7.392552204661e+00 -6.099233448374e+00 -6.642353253726e+00 -1.571474589064e+03 -3.857630575109e+03 6.299269716682e+03 7.625000000000e-04 4.642459909534e-06 7.392711445916e-03 6.099364830549e-03 6.642496335120e-03
401 3 1.692860499290e-04 1.441168346912e-02 1.124182001010e-02 1.070662554089e+01 2.462223766256e+01 9.028056129833e+00 2.457301515005e+02 -2.873937785262e+02 8.158469560867e+03 9.531250000000e-04 9.067304510808e-06 -1.070674362167e-02 -2.462250921525e-02 -9.028155698075e-03
402 3 3.848531349286e-03 2.189588582280e-03 1.713889477902e-03 -7.635134116681e-01 -1.738632628286e+01 -5.358891430094e+00 -9.488161770134e+03 -7.588461593801e+03 -2.026263842158e+03 9.531250000000e-04 9.067304510808e-06 7.635218322723e-04 1.738651803243e-02 5.358950532008e-03
403 3 1.105724526664e-02 6.427853435545e-03 1.369233700151e-03 1.171760425822e+01 -6.706414169784e+00 2.258105334074e+00 -5.768402072091e+03 7.070005056082e+03 -7.102317592395e+03 9.531250000000e-04 9.067304510808e-06 -1.171773348884e-02 6.706488133200e-03 -2.258130238170e-03
404 3 5.291781146551e-03 6.127888611946e-03 7.669318232090e-03 -7.280073006791e+00 -8.030530448225e+00 8.154986778241e+00 -3.771529153077e+03 3.347080997045e+02 -9.166942611692e+03 9.531250000000e-04 9.067304510808e-06 7.280153296951e-03 8.030619014998e-03 -8.155076717613e-03
405 3 9.387481421047e-03 1.516539846916e-02 2.597745079460e-03 5.394188099724e+00 -6.056227298317e+00 -6.589907609146e+00 8.543350986676e+03 -1.462816525833e+04 -4.358492659103e+03 9.531250000000e-04 9.067304510808e-06 -5.394247590916e-03 6.056294090979e-03 6.589980287639e-03
406 3 1.853866019041e-03 2.068623296199e-03 1.234733256627e-02 2.182058368575e+01 -1.572176867619e+01 1.264914283759e+01 -2.846693374486e+03 -1.959013028002e+03 5.785946380279e+03 9.531250000000e-04 9.067304510808e-06 -2.182082433968e-02 1.572194206777e-02 -1.264928234192e-02
407 3 1.112245117475e-02 4.288568202242e-03 5.143533730607e-03 -3.269426190153e+00 -5.954780540151e+00 6.691113772138e+00 6.013029740748e+03 -2.652492303487e+03 3.117155134466e+03 9.531250000000e-04 9.067304510808e-06 3.269462247862e-03 5.954846213982e-03 -6.691187566809e-03
408 3 9.209554219815e-03 6.753923926629e-04 7.978702833394e-03 1.017388082301e+00 -2.550554699063e+00 -7.371323962001e+00 -1.391334396483e+03 5.432945321416e+03 5.667462777784e+03 9.531250000000e-04 9.067304510808e-06 1.433311189840e+01 3.085101288753e+01 -4.094649703077e+00
409 3 1.233333820480e-02 1.218338902420e-02 1.278515983224e-02 1.781297881030e+01 6.476927758293e+00 -7.831434312930e+00 -1.503400584502e+04 -7.115272516394e+02 1.054564390703e+03 9.531250000000e-04 9.067304510808e-06 -1.781317526533e-02 -6.476999190759e-03 7.831520683920e-03
410 3 4.931789968144e-03 3.229434466540e-03 2.978958577077e-03 9.875034524042e+00 -1.462587324450e+01 -7.506962605389e+00 -2.239393491353e+03 -2.742400802078e+03 3.193699776318e+03 9.531250000000e-04 9.067304510808e-06 -9.875143433403e-03 1.462603454971e-02 7.507045397859e-03
411 3 5.968964290801e-04 1.675272372426e-03 3.895443712509e-03 -1.731712525760e+01 -1.412004755242e-01 1.541131418085e+00 5.234999404017e+03 2.816412447243e+03 5.947287930518e+03 9.531250000000e-04 9.067304510808e-06 1.731731624397e-02 1.412020327900e-04 -1.541148414850e-03
412 3 5.773708695535e-03 6.639869413390e-03 1.010641674737e-02 -1.463870801960e+01 -1.672740931024e+01 4.290314348588e+00 5.886240719173e+02 -5.797378567586e+02 -3.053271282997e+03 9.531250000000e-04 9.067304510808e-06 1.463886946636e-02 1.672759379278e-02 -4.290361665424e-03
413 3 1.500383986197e-03 2.412932051532e-03 1.980551722712e-03 -1.175249050596e+01 8.637190533690e+00 8.726994205885e+00 -1.958402162481e+02 3.977714638019e+03 -9.865738349305e+03 9.531250000000e-04 9.067304510808e-06 1.175262012133e-02 -8.637285791170e-03 -8.727090453788e-03
414 3 1.030259721515e-02 2.776558139150e-03 9.698059127613e-04 -7.616140557429e+00 7.353150437825e+00 1.995512518555e+00 -7.750340824313e+03 -8.017114736998e+03 -1.165673353458e+04 9.531250000000e-04 9.067304510808e-06 7.616224553996e-03 -7.353231533939e-03 -1.995534526579e-03
415 3 6.838468671909e-03 1.397277742080e-02 3.048913344072e-03 -7.208367432110e+00 3.302928723103e+01 -7.629584570647e-01 -1.355229455403e+04 -5.537656521665e+03 7.668415744662e+03 9.531250000000e-04 9.067304510808e-06 7.208446931447e-03 -3.302965150303e-02 7.629668715485e-04
416 3 1.086053602830e-02 1.493299389042e-02 6.814870744249e-03 1.773043234514e+01 -1.570156160970e+01 -9.334804255729e-01 5.835419340728e+03 3.068686946191e+03 8.856993937323e+03 9.531250000000e-04 9.067304510808e-06 -1.773062788978e-02 1.570173477842e-02 9.334907207021e-04
417 3 1.509680016729e-02 1.502620352489e-02 1.478477748696e-02 2.603609215593e+00 4.451156869856e+00 -5.098628753816e+00 3.798844080103e+03 -4.325797627882e+03 5.780223136688e+03 9.531250000000e-04 9.067304510808e-06 2.435356237677e-01 -1.368817808758e-01 -5.941889142224e+00
418 3 1.371247679412e-02 1.490031323331e-02 2.690099952080e-03 -1.738957348145e+01 7.406040849261e+00 6.059255367559e+00 7.263719140379e+03 4.619374625748e+03 -1.857945697259e+03 9.531250000000e-04 9.067304510808e-06 1.738976526684e-02 -7.406122528690e-03 -6.059322193617e-03
419 3 8.005364679819e-03 1.113385252322e-02 6.858916393401e-03 8.377265146879e-01 -8.796931100281e-01 -6.757184553313e+00 9.040518934511e+03 9.273252675062e+03 6.447540589403e+03 9.531250000000e-04 9.067304510808e-06 -8.377357537705e-04 8.797028119501e-04 6.757259076663e-03
420 3 1.152147118256e-02 4.091984986559e-03 1.336428934331e-02 9.123829121566e+00 -8.575940980937e+00 7.995649353763e-02 -9.436010421260e+03 -8.552550366201e+03 5.009584140618e+03 9.531250000000e-04 9.067304510808e-06 -9.123929746066e-03 8.576035562911e-03 -7.995737535841e-05
421 3 1.260980485504e-02 1.041106973771e-02 6.927171892611e-03 -1.354091454837e+01 -1.345581022757e+01 5.202528433634e+00 -1.462955591873e+04 8.498215823873e+03 -6.640087552320e+03 9.531250000000e-04 9.067304510808e-06 1.354106388783e-02 1.345595862844e-02 -5.202585811059e-03
422 3 1.994148408254e-03 4.705119543192e-03 9.810471187202e-03 -7.363739062740e+00 -9.239583020155e+00 -5.031871401118e+00 7.295383218139e+02 2.379298164583e+03 1.293380030567e+04 9.531250000000e-04 9.067304510808e-06 7.363820275633e-03 9.239684921276e-03 5.031926896408e-03
423 3 1.267689782331e-03 5.796517552161e-03 2.636408216715e-03 -1.611694364103e+01 2.235570576175e+01 8.657107954247e+00 -1.465941469152e+04 -3.430268326014e+03 1.263544662548e+04 9.531250000000e-04 9.067304510808e-06 -3.023093557344e+00 -1.821774593936e+01 5.087195158522e+00
424 3 6.887785447603e-04 2.845481481680e-04 9.096623146390e-03 -8.201543797737e+00 2.320071069025e+00 -1.623318740187e+01 -7.030392402342e+03 7.988218212758e+03 -2.764383195044e+03 9.531250000000e-04 9.067304510808e-06 8.201634250575e-03 -2.320096656526e-03 1.623336643376e-02
425 3 7.604326809088e-03 3.208270109645e-03 1.455367355882e-02 1.428701884032e+01 8.031253290446e+00 5.180446589309e+00 -3.325635307504e+03 -1.659237568306e+03 -1.209900647219e+02 9.531250000000e-04 9.067304510808e-06 -1.105535725235e+00 -1.327883950929e+00 -3.430284475849e+00
426 3 9.147958194538e-03 8.966013103980e-03 1.006013548332e-02 -4.383315957089e+00 2.261441754636e+01 -2.024528526115e+01 3.437807786828e+03 1.799318942174e+04 -1.189580684196e+03 9.531250000000e-04 9.067304510808e-06 4.383364299618e-03 -2.261466695529e-02 2.024550854149e-02
427 3 5.443963543043e-03 2.490731700607e-04 8.448323997796e-03 -7.374838829098e+00 -1.436708865617e+00 1.039951450925e+01 3.007451042869e+03 1.571222981375e+03 4.664621423010e+03 9.531250000000e-04 9.067304510808e-06 7.374920164407e-03 1.436724710731e-03 -1.039962920298e-02
428 3 5.770109284564e-03 1.436428103343e-02 4.059271645232e-03 -1.589451788380e+00 -4.742327608921e+00 3.854540718574e+00 2.689672706427e+03 -8.548765226917e+03 7.935567612169e+03 9.531250000000e-04 9.067304510808e-06 1.589469318058e-03 4.742379910903e-03 -3.854583229369e-03
429 3 2.180120616213e-03 4.445992286056e-03 6.802641010769e-03 9.393425844250e+00 -1.954551349994e+01 3.560852902410e+00 -9.291218090110e+03 -3.973540690400e+03 5.583460255963e+03 9.531250000000e-04 9.067304510808e-06 -9.393529442066e-03 1.954572906267e-02 -3.560892174194e-03
430 3 8.671214454270e-03 1.198298978157e-02 1.081674018856e-03 6.147541519439e+00 6.545016760666e+00 8.192611920916e-01 -7.933290144706e+02 -3.497930697991e+03 1.416509563983e+03 9.531250000000e-04 9.067304510808e-06 -6.147609319184e-03 -6.545088944069e-03 -8.192702275247e-04
431 3 7.546501001144e-03 1.222626753435e-02 1.043331616923e-02 1.287884409096e+01 -8.789195347439e+00 -5.438970361961e-01 -5.868154889208e+03 3.854123302088e+03 9.343395357931e+03 9.531250000000e-04 9.067304510808e-06 -1.287898612861e-02 8.789292281343e-03 5.439030347046e-04
432 3 3.714599285304e-03 1.526505554537e-02 7.903774231496e-03 4.743447470072e+00 -1.824659898916e+00 -5.224348479227e-01 -7.123851926293e+03 8.208037530084e+03 2.945270939716e+03 9.531250000000e-04 9.067304510808e-06 -4.743499784404e-03 1.824680022648e-03 5.224406097300e-04
433 3 4.438902042979e-03 1.329453213108e-02 1.318139927625e-02 -5.193826127611e+00 2.908718905682e+01 -9.412777700693e-01 5.301973697554e+03 5.433024130874e+03 2.665094182423e+03 9.531250000000e-04 9.067304510808e-06 5.193883409060e-03 -2.908750985238e-02 9.412881511936e-04
434 3 1.343652257503e-02 9.109517835910e-03 3.682345002547e-03 9.216013079769e+00 1.183762148639e+01 -1.116726927267e+00 -5.903050237454e+03 -7.870124394618e+02 -9.598737408993e+03 9.531250000000e-04 9.067304510808e-06 -9.216114720942e-03 -1.183775204065e-02 1.116739243377e-03
435 3 1.119320612129e-02 9.715262679806e-03 3.219965865778e-03 -7.914088526955e+00 -7.234538813625e+00 1.084166739415e+00 -1.424006389684e+03 -2.410151935388e+03 -1.478847063209e+03 9.531250000000e-04 9.067304510808e-06 7.914175809518e-03 7.234618601599e-03 -1.084178696427e-03
436 3 1.353761760165e-02 1.410697056832e-02 1.344099293266e-02 1.124504688569e+01 7.690870631691e+00 1.311264376460e+00 3.760356822090e+03 2.999940801261e+03 5.882772526626e+02 9.531250000000e-04 9.067304510808e-06 -1.124517090458e-02 -7.690955452438e-03 -1.311278838076e-03
437 3 9.210824514912e-03 2.560166563177e-03 1.415638155297e-02 7.170745796659e+00 -1.267921625323e+01 -5.466380895765e+00 -3.458970830251e+03 -2.187798816601e+03 8.526239826159e+03 9.531250000000e-04 9.067304510808e-06 -7.170824881075e-03 1.267935608923e-02 5.466441183155e-03
438 3 7.388695919728e-03 1.150050226795e-02 9.668989576354e-04 3.729911388108e+00 -8.195119024521e+00 1.859360551857e+00 1.249589470058e+03 -2.507380939313e+03 3.346863582893e+02 9.531250000000e-04 9.067304510808e-06 -3.729952524397e-03 8.195209406502e-03 -1.859381058294e-03
439 3 9.679626504906e-03 8.335690951144e-04 1.138188385940e-02 8.765549412168e+00 -1.476933412509e+01 3.352429589727e+00 8.978074648189e+03 6.074360300657e+03 5.679577187302e+03 9.531250000000e-04 9.067304510808e-06 -8.765646085287e-03 1.476949701249e-02 -3.352466562860e-03
440 3 3.083356238121e-03 1.050632119141e-02 1.215878224845e-03 8.381306286183e+00 1.740924024551e+01 4.936021879262e+00 -1.814693075608e+04 8.892833167627e+03 5.106530223821e+03 9.531250000000e-04 9.067304510808e-06 -8.381398721577e-03 -1.740943224780e-02 -4.936076317450e-03
441 3 1.181039855445e-02 4.869968226474e-03 1.234742231122e-03 3.038906400337e+00 6.317014940844e-01 5.284179170218e+00 -7.123973090594e+02 3.198907307729e+03 -4.187457416533e+03 9.531250000000e-04 9.067304510808e-06 -3.038939915699e-03 -6.317084609670e-04 -5.284237448149e-03
442 3 1.244985209189e-02 8.038445004823e-03 8.982696165732e-04 -8.134601145112e+00 3.729451334507e+00 -6.757918115900e-01 3.092889818201e+03 9.273771712225e+03 6.229242491567e+03 9.531250000000e-04 9.067304510808e-06 3.008966729547e-01 -1.188707897811e-01 6.298565253131e-01
443 3 1.221076458168e-02 9.189927288094e-03 6.544100781246e-03 1.209029257409e+01 -7.156059379400e-01 -1.513169611283e+01 6.391708706103e+03 -9.799099230650e+03 -3.300109360634e+02 9.531250000000e-04 9.067304510808e-06 -1.209042591499e-02 7.156138301844e-04 1.513186299664e-02
444 3 1.139685011320e-02 9.729606796209e-03 1.196047079159e-02 2.825723245672e+01 -5.907589686042e+00 3.859755094399e+00 5.103027486563e+03 5.429419043671e+03 -9.078706754955e+03 9.531250000000e-04 9.067304510808e-06 -2.825754409889e-02 5.907654839417e-03 -3.859797662703e-03
445 3 8.775755550006e-03 6.154583144447e-03 9.978781037061e-03 -6.554261439729e+00 1.139091489474e+01 -1.100803984189e+01 1.141209257178e+03 -3.439405945296e+03 -1.069632768521e+04 9.531250000000e-04 9.067304510808e-06 6.554333725090e-03 -1.139104052237e-02 1.100816124689e-02
446 3 1.355646488533e-02 1.481586961805e-02 1.439095811538e-02 -7.593330787649e+00 -8.776264922376e+00 -5.177252101739e-01 -1.304705002121e+03 -3.804456135208e+02 -5.898012595343e+03 9.531250000000e-04 9.067304510808e-06 7.593414532653e-03 8.776361713674e-03 5.177309200397e-04
447 3 1.284763907122e-02 1.256178295727e-02 4.831755101818e-03 -3.550987682872e+00 -6.057081692081e+00 4.221859179519e+00 1.723734072240e+03 -1.686418895417e+03 9.525879888696e+03 9.531250000000e-04 9.067304510808e-06 3.551026845854e-03 6.057148494166e-03 -4.221905741380e-03
448 3 2.147286731609e-03 1.519503617794e-02 1.353536155934e-02 -5.026903694394e+00 -5.959748833755e-01 3.003248545445e+00 -2.160102780530e+04 4.744709215642e+03 -1.797091820626e+03 9.531250000000e-04 9.067304510808e-06 5.026959134896e-03 5.959814562380e-04 -3.003281667545e-03
449 3 6.188156502131e-04 2.800968076939e-03 1.377684702338e-02 8.118486467000e+00 -1.368076300800e+01 -1.898007055239e+00 -3.141455652700e+03 1.327227947450e+03 -2.069844359566e+03 9.531250000000e-04 9.067304510808e-06 -8.118576003819e-03 1.368091388982e-02 1.898027987899e-03
450 3 1.039024579665e-02 5.589318635184e-03 9.455428777340e-04 4.333324192185e+00 -9.796018965636e+00 1.356986429408e+00 1.033488589312e+04 4.547297874981e+03 3.448257425596e+02 9.531250000000e-04 9.067304510808e-06 -4.029287693329e-03 5.993948963780e-04 -1.837392993941e-01
451 3 3.483739745196e-03 8.160247643814e-03 1.141605296086e-02 -8.893315244805e+00 -7.812104354326e+00 2.999544280599e+00 7.991855323117e+03 5.256081346122e+02 -7.544813395542e+03 9.531250000000e-04 9.067304510808e-06 8.893413327022e-03 7.812190512131e-03 -2.999577361846e-03
452 3 9.908813649949e-04 1.376284956398e-02 1.537763447804e-03 -2.106133251478e+01 -3.528387353217e+00 -4.648269020052e+00 3.186899668183e+03 3.090302442023e+03 -1.340232560028e+04 9.531250000000e-04 9.067304510808e-06 2.106156479511e-02 3.528426266946e-03 4.648320284684e-03
453 3 5.043676888916e-03 2.221928476239e-03 4.068874316628e-03 -7.876466132825e+00 -7.326956012717e+00 -5.119651539696e-01 2.760751992513e+03 2.296979171026e+03 -3.909745556194e+03 9.531250000000e-04 9.067304510808e-06 7.876553000460e-03 7.327036819938e-03 5.119708003091e-04
454 3 4.668280826282e-04 6.831061579562e-03 9.962940380378e-03 -2.007813569544e+01 -1.289748109710e+01 -1.848930915073e+00 -6.769588807139e+02 -1.726170776181e+03 5.104220346358e+03 9.531250000000e-04 9.067304510808e-06 2.007835713233e-02 1.289762334029e-02 1.848951306483e-03
455 3 9.928435767144e-03 1.514445761053e-02 4.108411888945e-03 3.969470794009e+00 2.341976920228e+00 1.648521689009e+01 -7.953764633016e+02 1.650929833415e+02 -1.998599277251e+03 9.531250000000e-04 9.067304510808e-06 -3.969514572340e-03 -2.342002749324e-03 -1.648539870155e-02
456 3 9.835988823776e-03 1.380246996166e-02 6.248285347027e-03 -5.606160659052e+00 4.101479398121e+01 -3.353323715278e+00 -1.645619696237e+02 2.616534013542e+03 -5.238436227548e+03 9.531250000000e-04 9.067304510808e-06 5.606222488039e-03 -4.101524632343e-02 3.353360698272e-03
457 3 4.274579873245e-03 4.483375321893e-03 7.397021600873e-03 1.153061548962e+01 5.844479305409e+00 -1.233710521602e+01 5.631421432113e+02 -6.631729974727e+03 3.807850746164e+03 9.531250000000e-04 9.067304510808e-06 -1.153074265798e-02 -5.844543762754e-03 1.233724127896e-02
458 3 8.165009244977e-03 8.927266649138e-03 8.460629511726e-03 -1.858253918860e+01 -4.556891388842e+00 -9.735025111300e+00 -4.126217995272e+03 -8.569437380876e+03 4.346690276832e+03 9.531250000000e-04 9.067304510808e-06 1.858274413092e-02 4.556941645692e-03 9.735132476531e-03
459 3 1.458478891719e-03 2.634512143695e-03 1.241669873446e-02 6.994090636858e+00 -1.437585684551e+01 5.790239843460e-01 7.356037147698e+03 -5.737666569741e+03 7.721393574232e+03 9.531250000000e-04 9.067304510808e-06 -6.994167772987e-03 1.437601539335e-02 -5.790303702611e-04
460 3 1.080351275853e-03 3.611207552053e-03 1.373035546344e-02 8.124909254010e+00 -5.517305593877e+00 -1.160369813356e+01 1.614120005036e+03 1.074584016850e+04 -4.129948541582e+03 9.531250000000e-04 9.067304510808e-06 -8.124998861664e-03 5.517366442903e-03 1.160382610794e-02
461 3 1.175828671222e-02 9.992001463902e-03 7.351658890581e-03 -7.813474217696e-01 -1.448196513337e+01 -2.070341531263e-02 -5.170599283405e+03 -5.483824953520e+03 -2.397760456933e+03 9.531250000000e-04 9.067304510808e-06 7.813560390608e-04 1.448212485145e-02 2.070364364558e-05
462 3 7.644251802102e-03 1.014717292789e-02 7.006743433862e-03 9.590567868936e+00 7.735711191759e+00 -8.456393600707e+00 -2.323864137536e+03 -2.081901885790e+02 -3.275906610350e+03 9.531250000000e-04 9.067304510808e-06 -3.258192467778e+01 1.181696602215e+01 2.409517522958e+00
463 3 6.046151514590e-03 3.423440988113e-03 1.442314434384e-02 1.297714480546e+01 1.131600192137e+01 -4.324042968559e+00 1.189524524592e+04 -1.376136165961e+04 8.392405088223e+03 9.531250000000e-04 9.067304510808e-06 8.511016663190e-03 -7.910605613731e-03 5.986689406086e-01
464 3 1.091461068190e-03 1.117965892015e-02 1.277448598075e-02 -9.248085776246e+00 1.278982543195e+01 -2.437238373617e+01 -3.336771207541e+03 -1.754589994229e+03 9.097315462274e+02 9.531250000000e-04 9.067304510808e-06 9.248187771142e-03 -1.278996648784e-02 2.437265253328e-02
465 3 1.230034400756e-02 4.527869348387e-03 8.301514472568e-03 1.712158489941e+01 -3.361080319619e+00 -2.397435695636e+00 -4.806828682024e+03 -8.693295538563e+02 1.111620655554e+04 9.531250000000e-04 9.067304510808e-06 -1.712177372922e-02 3.361117388158e-03 2.397462136373e-03
466 3 9.349372085741e-03 2.572508493354e-03 6.795554874755e-03 -1.476372042939e+01 1.464596445283e+00 8.569690524340e+00 1.094034446514e+04 7.759140949628e+03 -7.325064560280e+03 9.531250000000e-04 9.067304510808e-06 1.476388325489e-02 -1.464612597962e-03 -8.569785037379e-03
467 3 1.163243828622e-02 5.587560843971e-03 8.587562200831e-03 1.327079975974e+00 1.686798985208e+01 -5.387484243264e-01 -6.966116844789e+03 4.422553526439e+03 -7.819135922975e+03 9.531250000000e-04 9.067304510808e-06 -1.327094612017e-03 -1.686817588505e-02 5.387543660521e-04
468 3 8.308248571052e-03 1.639072233013e-03 3.676171438677e-03 -1.336613610145e+01 3.255057380770e+00 1.012773561234e+01 3.843125102155e+03 -3.319481799889e+03 -3.531182074843e+03 9.531250000000e-04 9.067304510808e-06 1.336628351332e-02 -3.255093280009e-03 -1.012784730869e-02
469 3 1.250531547443e-02 2.644622411067e-03 1.754903959011e-03 -2.008293896143e+01 5.082211009847e+00 6.033369453455e+00 3.374840747038e+03 8.599548182346e+02 2.795442311012e+03 9.531250000000e-04 9.067304510808e-06 2.008316045129e-02 -5.082267060320e-03 -6.033435994024e-03
470 3 1.270118136181e-02 3.573420821047e-04 1.761334521660e-03 -2.360770364823e-01 -8.989664686536e+00 6.189118954059e+00 7.537571792455e+03 -1.301513636870e+04 4.845351823041e+03 9.531250000000e-04 9.067304510808e-06 2.360796401186e-04 8.989763831368e-03 -6.189187212352e-03
471 3 1.444401363545e-02 3.460789601035e-03 4.673981289795e-03 2.574062285469e-01 -2.658756597019e+00 1.778910232563e+01 2.165254189615e+03 7.893345830636e+03 4.062672147743e+02 9.531250000000e-04 9.067304510808e-06 -2.574090674178e-04 2.658785919801e-03 -1.778929851733e-02
472 3 9.160458719976e-03 8.828169576347e-03 3.980900029330e-03 -9.546367423592e-01 2.005488905931e+01 -1.487583864411e+01 3.317513119204e+03 -6.653815737675e+03 1.059649481653e+03 9.531250000000e-04 9.067304510808e-06 9.546472708164e-04 -2.005511023982e-02 1.487600270612e-02
473 3 5.542889035545e-03 1.022615516131e-02 1.048933210488e-02 -4.958806053058e+00 4.994819892502e+00 -6.872935037694e+00 -5.650187665626e+03 7.593198893573e+03 6.741511162615e+03 9.531250000000e-04 9.067304510808e-06 4.958860742528e-03 -4.994874979159e-03 6.873010837628e-03
474 3 8.803173857998e-03 4.769526779283e-04 2.261071404013e-03 -9.861189847176e-01 -8.304538938196e+00 9.349983906638e+00 1.413501186712e+04 -1.040842941380e+04 3.009010522668e+03 9.531250000000e-04 9.067304510808e-06 9.861298603847e-04 8.304630526942e-03 -9.350087025344e-03
475 3 1.159757964137e-02 1.480428432638e-02 1.079252992135e-02 -1.658416049127e+00 -2.199686571085e-01 -9.279270251806e+00 -4.235098652909e+03 -3.148338657804e+02 1.331437216456e+03 9.531250000000e-04 9.067304510808e-06 1.658434339395e-03 2.199710830895e-04 9.279372590628e-03
476 3 7.175376788155e-03 2.580522925734e-03 1.441628481594e-02 -1.002717147872e+01 -2.385638479375e+01 -5.201220810463e+00 9.795298415208e+03 -5.226499195454e+03 -3.215576973599e+03 9.531250000000e-04 9.067304510808e-06 1.002728206596e-02 2.385664790003e-02 5.201278173466e-03
477 3 1.462496781374e-02 1.713348401887e-03 9.681222977973e-03 -5.613083098606e+00 1.508731887982e+01 -1.156380308718e+01 -7.133131843115e+03 -6.005899297950e+03 -6.759659568461e+03 9.531250000000e-04 9.067304510808e-06 5.613145003938e-03 -1.508748527420e-02 1.156393062156e-02
478 3 1.120451151646e-02 5.145907863983e-03 1.350003192163e-02 1.254388140892e+01 -2.423528547083e+01 -7.732006482995e+00 -3.958816975327e+03 9.391339026149e+02 9.293648738640e+03 9.531250000000e-04 9.067304510808e-06 -1.254401975235e-02 2.423555275592e-02 7.732091757419e-03
479 3 1.178901643249e-02 1.349323689298e-02 9.799357369213e-03 -1.216973712702e+01 1.350711186287e+01 -6.672649824817e+00 -1.430683048214e+03 -1.322977008499e+04 -1.192003363974e+04 9.531250000000e-04 9.067304510808e-06 1.216987134410e-02 -1.350726082953e-02 6.672723415854e-03
480 3 6.577736458854e-03 1.270606244597e-02 2.922545888632e-03 1.271895020654e+01 -1.181757730252e+01 -1.455829996272e+00 -7.354176438576e+03 -7.722429045532e+03 1.315560138321e+01 9.531250000000e-04 9.067304510808e-06 -1.271909048076e-02 1.181770763571e-02 1.455846052268e-03
481 3 1.096230901380e-02 1.077617285110e-02 3.800771677423e-03 -2.948583787850e+00 2.006809809812e+01 -7.279152280582e+00 -2.612024503115e+03 -6.574019133204e+02 -4.634122609889e+03 9.531250000000e-04 9.067304510808e-06 2.948616307066e-03 -2.006831942431e-02 7.279232560587e-03
482 3 9.868946665310e-03 2.758034819413e-03 4.531390741859e-03 -2.432004307224e+01 1.121903001353e+01 1.296281460419e+01 1.073085236179e+04 -7.364875327348e+03 6.734978249065e+03 9.531250000000e-04 9.067304510808e-06 2.432031129209e-02 -1.121915374549e-02 -1.296295756793e-02
483 3 1.488831024747e-02 9.437413659622e-03 1.210488519196e-02 7.943164561794e+00 -1.064060601021e+01 7.618152595869e+00 -3.245117656481e+03 1.342061126782e+04 2.829667440040e+03 9.531250000000e-04 9.067304510808e-06 -7.943252165030e-03 1.064072336288e-02 -7.618236614627e-03
484 3 5.527008290589e-03 7.785627755958e-03 1.089957464776e-02 -8.851685224447e+00 3.000494869775e+00 -9.735019908348e+00 2.799953599970e+03 -2.887999533306e+03 -2.958574761392e+02 9.531250000000e-04 9.067304510808e-06 8.851782847537e-03 -3.000527961506e-03 9.735127273522e-03
485 3 4.295170350412e-03 1.785586119539e-03 4.330108472280e-03 -8.244210194303e+00 9.191140115656e+00 5.420596470290e+00 1.451761103155e+04 4.333082217626e+03 -3.921405004600e+03 9.531250000000e-04 9.067304510808e-06 8.244301117698e-03 -9.191241482511e-03 -5.420656252735e-03
486 3 9.769564027978e-03 4.558666389155e-03 1.619540523711e-03 -6.267812721382e+00 -7.525498957880e+00 7.109839719122e+00 4.258356854565e+03 4.011710949982e+03 4.489122399644e+03 9.531250000000e-04 9.067304510808e-06 6.267881847568e-03 7.525581954783e-03 -7.109918131821e-03
487 3 5.132641987247e-03 1.001173884419e-02 3.409048864514e-03 4.049917533755e+00 -2.623816212023e+01 -2.835945782793e+00 -2.114009792535e+03 -1.306588653201e+04 -1.284829647391e+03 9.531250000000e-04 9.067304510808e-06 -4.049962199313e-03 2.623845149456e-02 2.835977059752e-03
488 3 1.368243395239e-02 1.221773540467e-02 1.834296954339e-03 3.969221281450e+00 -7.847840923120e+00 4.566759969895e+00 8.614996261738e+03 4.353508875763e+03 -2.125059485375e+02 9.531250000000e-04 9.067304510808e-06 -3.969265057029e-03 7.847927475055e-03 -4.566810335584e-03
489 3 1.289582217850e-02 8.606346107453e-03 5.885596365390e-03 -5.139875254672e+00 -6.865691565259e-01 -1.198402192647e+01 3.942943248955e+03 6.762544682238e+03 4.401345419216e+03 9.531250000000e-04 9.067304510808e-06 5.139931941110e-03 6.865767285307e-04 1.198415409535e-02
490 3 9.715481031153e-03 1.374851038503e-02 3.011694800673e-03 1.224416560468e+01 -7.372639564836e+00 -4.990146054650e+00 9.963826447896e+03 5.013165850169e+02 6.653162755668e+03 9.531250000000e-04 9.067304510808e-06 -2.306012864985e+01 -8.003568104640e+00 -1.331265157757e+01
491 3 1.416358705782e-02 8.413882726381e-03 9.107455095944e-04 -1.582341678192e+01 -1.062286236262e+01 3.830797847977e+00 3.299822352002e+03 -1.935985339314e+03 -6.840460423948e+03 9.531250000000e-04 9.067304510808e-06 2.725746979620e-01 1.479279672751e-01 -5.861496202767e-01
492 3 4.170297593152e-03 5.752623889867e-03 1.374437930480e-03 2.202553917710e+00 7.940575076927e+00 -1.440579228938e+01 -5.478256911322e+03 5.129217457686e+03 -4.436490112818e+03 9.531250000000e-04 9.067304510808e-06 -2.202578209143e-03 -7.940662651604e-03 1.440595116737e-02
493 3 2.096140756198e-03 2.667179732830e-03 4.356408609720e-03 -1.693528064044e+01 4.682715024326e-01 -4.442395784365e+00 -1.768866223861e+03 -1.583857254673e+03 3.849903768485e+03 9.531250000000e-04 9.067304510808e-06 1.693546741554e-02 -4.682766668854e-04 4.442444778471e-03
494 3 8.088487149504e-03 8.727639321743e-03 6.735684564592e-03 1.438546006304e+00 -3.360981735640e+00 1.084387569792e+01 -1.260908060816e+03 1.003143443181e+04 5.486330541186e+03 9.531250000000e-04 9.067304510808e-06 -1.438561871679e-03 3.361018803092e-03 -1.084399529240e-02
495 3 4.823932191566e-03 7.201281911865e-03 3.012427022468e-03 -9.760141278372e+00 -2.185888226905e+01 2.883439706708e+00 1.393685151476e+04 -1.339705798159e+02 8.910026151531e+03 9.531250000000e-04 9.067304510808e-06 9.760248920603e-03 2.185912334536e-02 -2.883471507466e-03
496 3 8.508713074564e-03 1.420555985790e-02 1.095427040218e-02 -5.165627274112e+00 5.646767884891e+00 1.477751979677e+01 7.222417507840e+03 -4.197323876123e+03 -8.419395301817e+02 9.531250000000e-04 9.067304510808e-06 5.165684244563e-03 -5.646830161725e-03 -1.477768277445e-02
497 3 6.740235355998e-03 1.368409892502e-02 9.536920327871e-03 9.640024401822e-01 -2.550041486109e+00 -1.241080399516e+00 -3.731280612222e+03 -1.604664741044e+03 -5.691642385673e+03 9.531250000000e-04 9.067304510808e-06 -9.640130719313e-04 2.550069609898e-03 1.241094087091e-03
498 3 5.663709579452e-03 1.035640176876e-02 8.913760494389e-04 3.017067415190e+00 -2.309408464510e+01 -1.636922763450e+00 -1.271411630735e+04 -6.873299246195e+03 7.573498071435e+02 9.531250000000e-04 9.067304510808e-06 -1.304258112943e-01 4.913845028458e-01 9.722628353205e-01
499 3 5.064536735196e-03 9.072985773152e-03 4.136792817616e-03 -9.192589381898e+00 4.864787669765e+00 4.189916667125e+00 5.043943722063e+03 1.816226747186e+03 5.835621675058e+03 9.531250000000e-04 9.067304510808e-06 9.192690764738e-03 -4.864841322329e-03 -4.189962876700e-03
500 3 1.450255823796e-02 6.873197110358e-03 1.257194576971e-03 5.465314464216e+00 1.217419150238e+01 -3.419086790832e+00 -6.976054503293e+03 5.533748821888e+03 1.290135984692e+04 9.531250000000e-04 9.067304510808e-06 -5.465374739844e-03 -1.217432576859e-02 3.419124499112e-03
