ITEM: TIMESTEP
100000
ITEM: NUMBER OF ATOMS
500
ITEM: BOX BOUNDS pp pp ff
0.0000000000000000e+00 1.5370634520482899e-02
0.0000000000000000e+00 1.5370634520482899e-02
0.0000000000000000e+00 1.5370634520482899e-02
ITEM: ATOMS id type x y z vx vy vz omegax omegay omegaz radius mass fx fy fz
1 1 6.428087588794e-03 8.507848307015e-03 1.155684622830e-02 -5.686499000758e-07 2.283396273212e-07 5.642378697599e-07 4.873677328049e-05 5.568706469538e-04 -1.625659300871e-04 7.500000000000e-04 4.417864669111e-06 3.873501476993e-10 1.414029268726e-10 -2.788626537926e-10
2 1 1.209934604842e-02 8.654470433613e-03 1.273930246002e-02 -3.225121502717e-08 4.597669362891e-07 -7.642187831138e-08 -2.578565297882e-04 4.563672246740e-04 3.270195912363e-05 7.500000000000e-04 4.417864669111e-06 6.962675491111e-11 -1.706718741762e-11 -5.564372287322e-12
3 1 3.804597275249e-03 1.070011038925e-02 2.563778423465e-03 4.189685883810e-08 4.731136557400e-07 1.181593350149e-07 7.638606480389e-05 7.334606222099e-04 -3.238830897892e-04 7.500000000000e-04 4.417864669111e-06 2.136638545264e-10 7.475129693037e-12 6.488497482256e-12
4 1 8.828121922211e-04 6.676972022201e-03 4.118367368475e-03 -1.264542088490e-07 1.334358590275e-08 1.069049637589e-07 2.335193906021e+02 -2.891068290460e+01 -1.935497271954e+02 7.500000000000e-04 4.417864669111e-06 1.869386886655e-10 -1.851843171549e-11 -1.574987180996e-10
5 1 1.434506485340e-02 9.476696150992e-03 2.752534422935e-03 1.116906886808e-06 -5.714144840292e-07 3.368142521938e-06 -5.940928371621e-03 1.516445023835e-03 3.348565023068e-04 7.500000000000e-04 4.417864669111e-06 1.132118933620e-10 9.187873600141e-10 -1.373638398884e-09
6 1 1.519440916027e-02 2.081648034029e-03 1.462063732394e-02 -2.030161946113e-06 2.538439175208e-07 -2.032653326562e-07 -1.281207711184e+03 1.184197556912e+03 1.295391225365e+03 7.500000000000e-04 4.417864669111e-06 9.356429088003e-10 -1.316329998753e-10 1.130250636842e-10
7 1 7.736004207452e-03 1.373455575764e-02 6.832108662962e-03 -1.320425233750e-06 9.875359728719e-07 8.929772634389e-08 -9.172437216311e-04 -1.610259158346e-03 1.972602675493e-03 7.500000000000e-04 4.417864669111e-06 9.826048988092e-10 -3.277334797096e-11 4.473328490850e-11
8 1 6.514156294414e-03 6.678345395267e-03 5.818663123938e-03 -4.710914783291e-07 3.192761514197e-07 3.839982434802e-07 9.688294119535e-05 5.973011162197e-05 -6.506408639307e-05 7.500000000000e-04 4.417864669111e-06 6.805907501070e-10 7.209418373817e-11 -2.798674856632e-10
9 1 3.982577324154e-03 2.782941330686e-03 2.343253990893e-03 -1.526106782774e-07 8.919611711535e-07 4.509007966562e-08 -2.753048129852e-04 -2.938965383504e-04 4.171707103098e-04 7.500000000000e-04 4.417864669111e-06 4.809982321739e-10 -7.604483921381e-11 -2.476675446685e-10
10 1 6.755069441328e-03 1.474491624426e-02 3.340013609191e-03 4.164199141196e-07 5.978757299648e-07 -2.293851716330e-07 4.330422365861e-04 6.072788394106e-05 -2.822387258909e-04 7.500000000000e-04 4.417864669111e-06 1.617869195003e-10 3.075396371810e-11 -2.335190691171e-11
11 1 8.244705635935e-03 3.080372590356e-03 1.024322979118e-02 -2.535810202502e-07 3.777599780879e-07 -2.745445318231e-07 -8.647909798341e-05 -2.904423682104e-04 -2.609771005163e-04 7.500000000000e-04 4.417864669111e-06 3.227160747771e-10 8.040091245051e-11 7.176159140209e-11
12 1 4.719723132915e-03 8.820485964673e-03 6.901350566647e-04 1.101946562617e-07 1.301093414529e-07 2.078985060776e-07 -1.129471014404e-04 1.247176845218e-04 -9.499528303362e-05 7.500000000000e-04 4.417864669111e-06 3.720721060882e-11 3.300299281911e-11 -7.157003650924e-11
13 1 8.883192315839e-03 8.400396442563e-03 1.333201672751e-02 3.328901393272e-08 2.812144311171e-07 2.028887133357e-07 -9.843760344355e-05 -1.740514934585e-04 -6.518418454872e-05 7.500000000000e-04 4.417864669111e-06 -1.369298443349e-10 -7.204095300899e-11 -2.055849072024e-14
14 1 1.463807682026e-02 6.325929912776e-03 6.711688414004e-04 -4.559677285296e-07 2.957175958823e-07 -1.009342382327e-07 -4.163528659233e-04 -4.629395442614e-04 1.862760125544e-03 7.500000000000e-04 4.417864669111e-06 1.990521370332e-10 -8.764038082359e-11 1.122132783871e-10
15 1 3.438289728533e-03 3.935147713506e-04 1.143777506551e-03 1.410948151152e-07 5.301940146605e-07 -5.677863552810e-08 2.895467109213e-04 -1.094773372779e-04 6.378367997563e-04 7.500000000000e-04 4.417864669111e-06 1.607841496860e-10 -3.634547669150e-11 -3.625449105725e-11
16 1 1.381190109972e-02 6.181123591366e-03 2.125783088218e-03 1.499486000126e-08 1.579458655899e-06 -1.077172791350e-07 -1.143994080688e-03 -3.465633334684e-04 5.850116011624e-04 7.500000000000e-04 4.417864669111e-06 2.016214557882e-10 -2.267006674442e-10 3.159586971270e-10
17 1 1.144878975634e-03 4.911308114175e-03 4.965725084072e-03 -1.833047971214e-06 2.312564251559e-06 -4.608130472803e-07 -1.432604910439e-03 -1.426479269549e-03 1.426973314336e-03 7.500000000000e-04 4.417864669111e-06 1.443427133369e-09 -1.166981165082e-09 3.707616146639e-10
18 1 4.747397594150e-03 7.187422251695e-03 2.630528916404e-03 -1.097516968101e-07 1.200219522540e-07 1.373694828652e-07 -3.342201709763e-04 2.125986685826e-04 -1.991558303686e-04 7.500000000000e-04 4.417864669111e-06 3.704533649023e-10 -3.321846972096e-12 -1.053265285642e-10
19 1 9.068044460897e-03 1.094635014065e-02 1.425834172337e-02 -1.363490777833e-07 2.994606587030e-07 1.641663944917e-07 2.138587236973e-04 -4.433957807583e-04 9.275712879420e-05 7.500000000000e-04 4.417864669111e-06 -4.272185095858e-12 -3.233864216719e-12 4.233437460349e-11
20 1 9.314710524270e-03 6.433335299748e-03 1.462063639217e-02 -1.082516918320e-06 1.172662530598e-06 -1.931645152938e-07 1.586748373397e-03 1.466351986809e-03 -9.588221210573e-04 7.500000000000e-04 4.417864669111e-06 6.920384868270e-10 -7.361298514602e-10 1.565832441340e-10
21 1 5.384130464213e-03 1.458833512502e-02 3.238704560618e-03 3.368705958703e-07 7.230715906944e-07 -6.562264854937e-08 3.074653202232e-04 3.108494220026e-05 1.900072323091e-04 7.500000000000e-04 4.417864669111e-06 2.354614961392e-10 -1.068943443020e-10 -8.771419340220e-11
22 1 1.958952008202e-05 7.959194485678e-03 1.021278581253e-02 -4.403995957565e-08 1.131364827403e-06 -1.299811342895e-07 7.155021268193e-04 3.301294777811e-03 6.027720472053e-04 7.500000000000e-04 4.417864669111e-06 2.410481817664e-10 -1.457043971284e-10 -4.014357939667e-10
23 1 3.048710479877e-03 5.774454461997e-03 1.004539774924e-02 -5.294377412148e-07 1.066440220381e-06 -1.633436847822e-07 -8.973661506074e-05 -4.353528045885e-04 4.390482844644e-04 7.500000000000e-04 4.417864669111e-06 3.209234087227e-10 -3.724325321994e-10 1.176708366084e-10
24 1 1.173945617209e-02 2.563139031910e-03 1.259827641000e-02 -3.234607466089e-07 5.963983444089e-07 2.947771959383e-08 -1.953273806588e-04 -3.837252054623e-04 2.195933447966e-04 7.500000000000e-04 4.417864669111e-06 2.963699346564e-10 -9.522418859937e-11 -7.810203699757e-11
25 1 1.164549139360e-02 6.241885627858e-03 8.489888996566e-03 3.496199039857e-07 1.076367962155e-06 -1.274016935712e-08 9.609668776933e-04 -1.236009191271e-03 2.876998044016e-04 7.500000000000e-04 4.417864669111e-06 -2.437061051424e-10 -6.548642395325e-11 2.538640995274e-10
26 1 1.252257836716e-02 6.134681971973e-03 7.363006830840e-03 3.990054905346e-06 3.558681314661e-06 1.710539821714e-06 6.357071624511e-03 -3.128781966038e-03 -4.994196830090e-03 7.500000000000e-04 4.417864669111e-06 -6.030332566806e-10 -5.725192819136e-10 8.179945648943e-11
27 1 5.192716019766e-03 2.791480563430e-03 1.278973307335e-02 -3.548871019053e-07 4.406344761138e-07 -2.220410925814e-07 -2.493868049927e-04 -2.452859251897e-04 3.236493299622e-04 7.500000000000e-04 4.417864669111e-06 2.378219259172e-10 1.311623243730e-12 -1.132104893778e-12
28 1 7.121058158427e-03 7.785733864647e-03 2.120488090856e-03 7.982001979731e-08 2.233219135914e-07 -7.222442377262e-08 3.471073772842e-04 -7.540047912992e-04 3.502683294783e-04 7.500000000000e-04 4.417864669111e-06 1.531513456206e-10 -5.794350848942e-11 1.316786301870e-11
29 1 1.472169269177e-02 3.146708062839e-03 6.568644621459e-04 -5.089461658767e-07 -3.069338224750e-08 8.567862005577e-08 1.223680069928e-04 -6.873338393533e-04 1.061436569837e-04 7.500000000000e-04 4.417864669111e-06 1.940170238693e-10 4.399263153102e-11 -6.527869153057e-11
30 1 6.099599085185e-03 2.686292952130e-03 7.638896928943e-03 -5.809697308772e-07 9.057630627702e-07 -1.744549156369e-08 -9.183498356950e-04 -1.564307331699e-04 -1.243864408313e-03 7.500000000000e-04 4.417864669111e-06 5.935548909963e-10 -1.012767913771e-10 -1.095422572657e-10
31 1 6.872667900754e-03 6.863652109841e-03 1.184135852328e-02 -2.892884058202e-07 4.189266876030e-07 2.580757505607e-07 6.485531134562e-04 6.886355809515e-04 3.246641926085e-04 7.500000000000e-04 4.417864669111e-06 1.787573821577e-10 -1.487977325915e-11 -8.232773575897e-11
32 1 1.044962911955e-03 6.103353166033e-03 1.323618393213e-02 -1.455308274641e-07 8.760565315816e-07 -7.054782671522e-08 -1.259065612427e-04 1.450828041390e-03 2.559625718777e-04 7.500000000000e-04 4.417864669111e-06 1.187096348952e-10 -2.403170943401e-10 -3.234092981237e-10
33 1 8.721679068752e-03 2.458346382904e-04 9.571634588980e-03 -1.972201867725e-07 8.347908508415e-07 9.876368960293e-08 4.925437008320e-04 3.069853512122e-05 -7.361922179462e-04 7.500000000000e-04 4.417864669111e-06 3.073862789506e-10 -2.779595736361e-11 3.861685267768e-11
34 1 1.139024656662e-02 1.481760888579e-02 6.937416539449e-04 2.875253130516e-07 -4.434052092158e-07 9.518693923009e-08 4.887189771370e-04 4.688310063711e-04 1.016639657866e-03 7.500000000000e-04 4.417864669111e-06 -1.874767389816e-10 4.980683288922e-10 -3.474250265696e-11
35 1 1.094005047974e-02 5.988784529271e-03 2.077430399167e-03 -1.583556890980e-08 4.706042302307e-07 -7.481130575981e-08 -2.920153519260e-04 -1.832933124812e-04 3.987584388883e-04 7.500000000000e-04 4.417864669111e-06 3.933629263611e-10 -3.510622453879e-11 5.326257327263e-11
36 1 5.910207709914e-04 3.693565592229e-03 1.466650868237e-02 3.593024256815e-08 9.126170775839e-08 -3.010255874625e-07 9.479592875948e-05 -2.801370708023e-05 4.081417833256e-03 7.500000000000e-04 4.417864669111e-06 2.154076855859e-10 2.078870483618e-10 1.952236650290e-10
37 1 8.841508789617e-03 2.014456132237e-04 5.774490135397e-03 3.722765672270e-06 -8.623434725591e-06 -7.850867268276e-06 -9.007586806467e+01 -3.853678213758e+00 -3.592175593005e+01 7.500000000000e-04 4.417864669111e-06 -1.043277632297e-09 3.098119762114e-09 3.407964122694e-09
38 1 4.760226946991e-03 8.815816583244e-04 7.073152781903e-04 2.885728012010e-07 4.252537805400e-07 -6.258284815929e-08 -5.495758233245e-04 3.379583032101e-04 -7.027719673222e-04 7.500000000000e-04 4.417864669111e-06 2.903164896293e-11 1.309054961755e-11 2.538301148080e-11
39 1 6.632151408935e-03 4.662289750044e-03 5.084711245347e-03 -1.042456542032e-07 5.725870252139e-07 1.292928095989e-07 1.489627087170e-04 -4.949186479740e-05 -2.223869907919e-04 7.500000000000e-04 4.417864669111e-06 5.326976185075e-10 -5.278520616421e-11 -1.247904079143e-10
40 1 1.372168362312e-02 9.337795864560e-04 5.283296660958e-03 -3.959017886765e-07 -2.676387854709e-07 9.443456932028e-07 1.327524169550e-04 3.819750410112e-04 -1.241500733068e-05 7.500000000000e-04 4.417864669111e-06 5.143142575100e-10 4.361854108460e-10 -4.750266077073e-10
41 1 1.521752384747e-02 9.732799051674e-03 5.182906725076e-03 6.034615480907e-07 3.763080078125e-06 6.289749445055e-06 -4.503461327406e-03 -8.972267144662e-03 -1.107623856774e-03 7.500000000000e-04 4.417864669111e-06 -3.123204683830e-10 -6.227483745794e-10 -1.824240870400e-09
42 1 1.212892306664e-02 3.929198398897e-03 1.215231658366e-02 -3.070399384045e-07 6.162860058882e-07 3.117412190124e-07 3.940745308254e-04 -3.201414538089e-04 2.616989680307e-04 7.500000000000e-04 4.417864669111e-06 2.104117430504e-10 1.448360477789e-10 -4.159522410624e-10
43 1 7.476263276770e-03 2.125871299834e-03 1.108253577749e-02 -4.755279184673e-07 6.869680788251e-07 6.213477598308e-09 -4.549756351968e-04 7.379074317378e-05 -1.257528869743e-05 7.500000000000e-04 4.417864669111e-06 3.318689056045e-10 -1.961792369137e-11 -2.839070716506e-11
44 1 9.599093778528e-03 1.469238269871e-02 1.479725781725e-02 -6.353102583263e-08 2.231474876593e-07 1.116643644488e-08 1.969349991869e-04 9.847068221384e-05 6.754658412024e-05 7.500000000000e-04 4.417864669111e-06 8.841827674986e-11 1.390310133517e-11 -7.668549107405e-12
45 1 8.803015509682e-03 2.313629050963e-03 2.660038095705e-03 1.624877793864e-07 6.792750106405e-08 2.108936871487e-07 2.032479147845e-04 7.287371572892e-07 2.858741767710e-04 7.500000000000e-04 4.417864669111e-06 3.611411116831e-10 3.222125177388e-11 -4.423264447801e-11
46 1 1.083990552654e-02 9.791009123563e-03 5.014620773355e-03 -1.409006460359e-06 -1.313612003000e-06 1.968607397098e-08 3.955809101645e-03 1.234331659042e-03 2.884699730728e-03 7.500000000000e-04 4.417864669111e-06 7.261903931593e-10 2.769492881015e-10 -3.751310707054e-10
47 1 1.524427273774e-02 1.491890352302e-02 9.877440547453e-03 5.560794123315e-08 1.309932054941e-06 -1.949026082596e-07 2.128280374870e-04 1.209534412506e-04 4.970508542635e-06 7.500000000000e-04 4.417864669111e-06 1.733614454359e-10 -3.283486056356e-10 -1.729396770265e-10
48 1 7.349946932728e-05 2.028932089111e-03 1.075693552830e-02 -3.813021289838e-07 1.083593757505e-06 6.359580541227e-08 -1.740090505283e-04 4.553699632601e-04 1.255597336889e-04 7.500000000000e-04 4.417864669111e-06 3.538836628683e-10 -1.323988124907e-10 -1.733504116636e-10
49 1 1.362840403103e-02 5.134880305655e-03 1.476397169104e-02 -4.985644488268e-08 1.911185021687e-07 1.136338340825e-07 2.536430703596e-04 9.004433934142e-05 1.461158212004e-03 7.500000000000e-04 4.417864669111e-06 2.287803384748e-11 -7.908915299526e-11 -1.796577833256e-10
50 1 3.427952425141e-03 3.206256603869e-03 1.176554343294e-02 -1.679662541350e-07 4.146992420440e-07 -4.282199022188e-07 6.795123241332e+02 1.034928084081e+03 -3.622784562242e+02 7.500000000000e-04 4.417864669111e-06 1.216304912816e-10 8.569420872833e-11 -2.557373677516e-12
51 1 9.334450996544e-03 3.814823721888e-03 1.462063466421e-02 7.884791899242e-09 -2.126610922999e-09 -1.633308511117e-08 -1.809545352862e+01 -6.709214358512e+01 -2.864253646300e+01 7.500000000000e-04 4.417864669111e-06 -5.889835729425e-12 1.588550358518e-12 1.220059951989e-11
52 1 3.134217147055e-03 1.526340442937e-02 1.158229397913e-02 -5.848698068097e-07 1.099133800147e-06 -1.459350898803e-07 7.939309074858e-04 3.090991228085e-04 -3.352923019908e-04 7.500000000000e-04 4.417864669111e-06 2.949694574033e-10 -1.373489898149e-10 9.168133157260e-12
53 1 3.003102557359e-03 4.188639033031e-03 1.298019601299e-02 -9.127583090987e-08 6.307100641634e-07 -2.686991012358e-07 6.849430119290e-04 -1.776618072205e-05 -1.288614435510e-04 7.500000000000e-04 4.417864669111e-06 8.727042231201e-11 6.023661809233e-12 7.738006726332e-11
54 1 1.247625812120e-02 7.361732903541e-03 1.327262785964e-02 -1.003480292851e-07 4.743211663608e-07 6.931892787330e-09 1.407747242121e-04 2.631510932367e-05 -2.138800526853e-04 7.500000000000e-04 4.417864669111e-06 5.516341694462e-11 -2.782454531373e-10 -3.910949229292e-10
55 1 7.766017583605e-03 3.536247707978e-03 1.155828080936e-02 -2.647078559143e-07 2.686636553325e-07 -1.802107203103e-07 2.704843795312e-04 1.171129514306e-04 -2.024051182612e-04 7.500000000000e-04 4.417864669111e-06 2.315934085050e-10 1.029803428985e-10 5.792428735115e-11
56 1 1.245484554182e-02 7.972105041514e-03 1.466312278575e-02 -6.334989585896e-09 1.350660333918e-07 -4.816698086605e-08 -9.339577568211e-05 2.966718376613e-05 -2.797353099564e-06 7.500000000000e-04 4.417864669111e-06 -5.015615616936e-11 -6.649424766647e-12 -2.215853668491e-11
57 1 5.094101626150e-03 1.112389409999e-02 6.991439457010e-03 -3.707070568378e-07 7.163103697678e-07 1.775732950107e-07 -2.170311351001e-04 -2.862375504846e-03 -2.680013905322e-05 7.500000000000e-04 4.417864669111e-06 4.459454306328e-10 6.736404734671e-11 8.101122484070e-11
58 1 7.166837229339e-03 1.108020334505e-02 3.365991657299e-03 -1.178598820271e-06 -6.665618329659e-07 1.354613316090e-06 6.238162078360e-04 -2.767774834574e-03 -2.855166183168e-03 7.500000000000e-04 4.417864669111e-06 1.163600532219e-09 7.332960432768e-10 -1.367912051923e-09
59 1 9.504631560111e-03 1.506945927894e-02 7.038289116714e-04 4.972869614358e-07 -2.458025489578e-07 -3.549225835710e-08 1.817125308604e-05 4.498941597440e-04 9.479990966072e-06 7.500000000000e-04 4.417864669111e-06 -2.732318710377e-10 3.234543419042e-10 -3.981931885074e-11
60 1 4.416449538631e-03 3.962093526383e-03 1.260314756862e-02 -2.424869697572e-07 5.170918560744e-07 -3.053604081821e-07 4.296563816300e-04 9.931665011841e-06 -4.117522420791e-04 7.500000000000e-04 4.417864669111e-06 3.872322710148e-11 -4.086541365376e-11 2.013600866708e-11
61 1 1.183463455467e-02 3.772262280937e-03 2.487071761704e-03 1.050531764167e-07 4.926088418484e-07 3.382485674633e-08 -8.517211528610e-05 -5.476906978729e-05 -8.251375226060e-05 7.500000000000e-04 4.417864669111e-06 4.379354185627e-10 5.490558475521e-11 5.932655585918e-11
62 1 1.049002744980e-02 5.564368119371e-03 7.841453915779e-03 -1.358267871298e-07 1.067732883664e-06 -2.555881396243e-07 -5.148441719695e-04 7.610476658668e-04 -3.083300198476e-04 7.500000000000e-04 4.417864669111e-06 3.750475039018e-10 -1.203269307933e-10 1.092965080302e-10
63 1 3.202108523054e-03 1.207237765829e-02 2.551986136470e-03 3.622726619620e-07 8.458803837082e-07 -8.175264759160e-09 -7.508748160834e-04 -2.914042937121e-04 -8.426054749260e-05 7.500000000000e-04 4.417864669111e-06 3.457746994584e-10 -1.607722031092e-10 6.398719818666e-11
64 1 1.195683193704e-02 8.041520175476e-04 1.050540148548e-02 -1.632155894036e-07 7.396850924781e-07 2.404534917539e-07 1.883262922804e-05 1.341278392886e-03 -5.198202516871e-05 7.500000000000e-04 4.417864669111e-06 2.326881089394e-10 1.828634323959e-10 -5.129052572528e-10
65 1 1.269133532912e-02 5.252316169561e-03 1.176689650264e-02 -6.622453184486e-07 4.814989486070e-07 3.457908670006e-07 -7.181121633165e-04 -1.506912111789e-04 2.690035966292e-04 7.500000000000e-04 4.417864669111e-06 7.632665004590e-10 3.587137347249e-10 -5.231835625074e-10
66 1 7.869662833692e-03 3.069760635520e-03 1.462063464501e-02 5.456588132558e-09 3.708859352151e-09 -1.319545251098e-08 1.488522928553e+01 -2.189960787344e+01 3.078249928276e+02 7.500000000000e-04 4.417864669111e-06 -3.801349699724e-12 -2.583788815031e-12 9.192654498081e-12
67 1 1.325441048307e-02 5.728453952135e-03 6.191813530630e-03 2.087067069134e-08 -4.499687468029e-07 -6.040045848623e-07 -4.784186434782e-03 4.079723965242e-03 -8.837076133593e-03 7.500000000000e-04 4.417864669111e-06 4.873469564203e-10 9.688865119900e-10 5.688862368798e-10
68 1 4.767549174393e-03 3.066996164971e-03 8.347798397014e-03 -8.014119989913e-07 1.026157471539e-06 -2.089203156911e-07 -4.647924149570e-04 8.013558886969e-04 3.062060660094e-04 7.500000000000e-04 4.417864669111e-06 7.840960666123e-10 -1.752861796058e-10 1.279263760144e-10
69 1 5.402598832048e-03 6.077018220307e-03 6.172436141256e-04 -1.932886702003e-07 1.296821183689e-07 6.961889816057e-08 -1.366650819714e-04 -2.665492067656e-04 -9.130934930513e-04 7.500000000000e-04 4.417864669111e-06 2.816887806176e-10 -6.610424534795e-11 -3.387060866259e-11
70 1 1.098448549046e-02 1.155515035840e-02 5.932387375892e-04 2.876356502215e-07 -6.583690441394e-07 1.453565713208e-07 1.021856765581e-03 1.617214744742e-04 -7.936393598034e-04 7.500000000000e-04 4.417864669111e-06 -1.532961928177e-10 6.292655751020e-10 -1.793920073110e-10
71 1 1.090320220387e-02 1.403940463480e-02 1.465122500199e-02 1.965646687149e-08 1.168037693558e-07 2.618432718042e-08 -9.687255362544e-05 -1.829827407325e-05 -2.377825335407e-04 7.500000000000e-04 4.417864669111e-06 3.704121181032e-11 6.531865331067e-11 8.711212727894e-12
72 1 2.634393250115e-03 1.404507435028e-02 5.532173288451e-03 -2.115168677340e-07 1.386574662232e-06 5.953832521058e-08 -7.038343967809e-03 8.696517287592e-04 -1.188481630848e-02 7.500000000000e-04 4.417864669111e-06 6.008179200549e-11 -2.717052684700e-10 2.419316621805e-10
73 1 1.031948257559e-02 5.346541412915e-03 1.437712176792e-02 -9.881699831058e-07 7.792583790465e-07 -5.877394337463e-07 -6.045933560353e-04 -1.927207280732e-03 5.261552647982e-04 7.500000000000e-04 4.417864669111e-06 6.834829583918e-10 -3.783174682054e-10 3.732049527616e-10
74 1 4.513963041695e-04 2.235457093687e-03 6.629432264964e-03 3.628669320657e-06 1.328905404387e-05 5.317980751786e-06 -5.170353595428e-03 9.268418178557e-03 -1.463821856975e-02 7.500000000000e-04 4.417864669111e-06 -2.501608770608e-09 -9.748483618061e-09 -4.427083954865e-09
75 1 3.886856416373e-03 7.953181994831e-03 4.741423683682e-03 -2.795671198430e-07 1.650978129816e-07 -4.920973704239e-07 -6.984751901542e+02 4.341175628582e+02 -1.253106124827e+03 7.500000000000e-04 4.417864669111e-06 1.057586931198e-10 -5.063576829801e-11 2.138578443535e-10
76 1 4.077599535436e-03 1.498306274539e-02 1.264915917425e-02 -7.463892507307e-07 6.263555101632e-07 -1.974467468329e-07 -2.036738831663e-04 -3.538240367704e-04 -1.118199786372e-04 7.500000000000e-04 4.417864669111e-06 3.389311604817e-10 -1.042089884648e-10 -1.554428268103e-11
77 1 1.059363044971e-04 9.895159965059e-03 7.236412105788e-04 4.510867975939e-07 -1.722829816947e-07 4.429706124225e-07 2.608491133556e-04 1.961537192165e-04 5.579640383032e-04 7.500000000000e-04 4.417864669111e-06 1.989476037478e-10 4.004196288119e-11 -3.075600421080e-10
78 1 1.027947539461e-02 8.046763449296e-03 9.309023918636e-03 -9.517346957527e-08 1.119276740346e-07 2.924552211610e-07 2.526859877858e+00 -9.907421259967e+00 -1.904215570171e+01 7.500000000000e-04 4.417864669111e-06 9.106166210214e-10 9.511876002670e-10 4.360288832521e-10
79 1 5.500078275870e-03 2.083332220534e-03 2.761837079694e-03 1.692566985181e-09 -7.112229695566e-10 3.654747991117e-10 7.338968286015e+02 -3.529869717110e+02 3.136787855341e+02 7.500000000000e-04 4.417864669111e-06 -1.696406864833e-10 7.128365013298e-11 -3.663039416253e-11
80 1 7.435657551148e-03 5.552848665454e-03 4.304427986205e-03 -1.884791308032e-07 4.426719691063e-08 -2.349985407913e-07 6.802110570807e-04 2.086285874397e-03 -1.538148921844e-03 7.500000000000e-04 4.417864669111e-06 5.621524787294e-10 1.862146287710e-10 1.137572753828e-10
81 1 1.351323362182e-02 1.243195978455e-02 5.711694448210e-04 5.560623911548e-07 -9.111782404903e-08 1.001313191830e-07 2.759566694264e-05 6.106564221197e-04 1.104639867372e-03 7.500000000000e-04 4.417864669111e-06 -2.862141513517e-10 -2.387629252529e-10 4.528610228678e-11
82 1 1.493698505298e-02 4.083451391400e-03 4.047322489000e-03 -2.065951575023e-07 4.084741946816e-07 -3.954522772790e-07 -1.619302773656e-03 -2.752628734967e-04 -1.328063628699e-04 7.500000000000e-04 4.417864669111e-06 4.655010058620e-10 2.790786713004e-10 2.474722332584e-10
83 1 3.339690121061e-03 5.056829310604e-04 4.634352926960e-03 2.551122409164e-07 1.221042609846e-06 4.700167837058e-07 -9.536218619829e-04 1.408643463685e-03 -7.436540814875e-04 7.500000000000e-04 4.417864669111e-06 3.815473671425e-10 -2.584232614509e-10 -3.471282913651e-10
84 1 6.263332401302e-03 1.231377238345e-03 7.663104174512e-03 -3.904100982110e-07 8.595150994360e-07 2.812289252271e-07 -5.089667444069e-04 -4.889901092580e-04 -9.855244872646e-05 7.500000000000e-04 4.417864669111e-06 5.275564934328e-10 -1.423332247516e-10 -1.266338588541e-10
85 1 1.103659796858e-02 1.248230328720e-02 1.472325534449e-02 4.039557772499e-08 8.369905981588e-08 -3.386406530713e-08 1.012107086997e-04 -3.845772441202e-05 -2.365367889946e-04 7.500000000000e-04 4.417864669111e-06 5.457906427199e-11 5.347993561209e-11 4.856269824009e-12
86 1 7.081830528237e-04 1.264203122431e-03 1.372643812158e-02 -4.686776968160e-07 7.023774298950e-07 4.042192576841e-07 7.468551247521e-04 2.815305929862e-04 6.320824377773e-04 7.500000000000e-04 4.417864669111e-06 2.856761959389e-10 -2.175070298057e-10 -2.992080842565e-10
87 1 3.367556366597e-04 1.538192383937e-03 4.416142034999e-03 3.685372004217e-07 1.093143622591e-06 -1.859752667382e-07 -3.770015475783e-04 1.164501019485e-03 1.842008972486e-03 7.500000000000e-04 4.417864669111e-06 3.738742257419e-10 -4.436507195693e-11 -7.803066556718e-11
88 1 6.581301829339e-03 1.417062758987e-02 5.950259954130e-03 1.302781719889e-06 6.115688958514e-07 5.388016012360e-07 1.016884662698e-03 -7.391738596591e-04 -1.800976211818e-04 7.500000000000e-04 4.417864669111e-06 6.510500159928e-11 7.290903271947e-11 -1.123509881822e-10
89 1 2.987750269096e-03 1.383530294074e-02 1.147486078635e-02 -4.826005907257e-07 1.202245278696e-06 -1.720218395385e-07 -7.656651282439e-04 1.170972711997e-04 5.333963275622e-04 7.500000000000e-04 4.417864669111e-06 2.993228158939e-10 -2.481204731278e-10 3.447268277021e-11
90 1 6.323993964711e-03 6.857928899619e-03 7.548205412669e-03 -7.056744221257e-07 1.394700150559e-07 1.375674370800e-07 7.538219932763e-04 6.672397437798e-04 -1.161591851785e-04 7.500000000000e-04 4.417864669111e-06 7.296585667847e-10 3.230104321423e-10 -1.910538392330e-10
91 1 5.170805947525e-03 5.886280530277e-03 1.465317309821e-02 -1.288568794050e-07 1.700153247490e-07 3.464532202401e-09 7.268058755099e-05 5.832588077794e-05 -1.233079482201e-04 7.500000000000e-04 4.417864669111e-06 9.741656992419e-11 -6.395540265017e-12 -1.945745100159e-11
92 1 1.204893501527e-02 2.372703684908e-03 2.373732037902e-03 -1.176439763966e-07 1.298096488613e-07 5.675422332978e-08 -7.660735459443e-05 1.126349833009e-04 -1.336562167884e-04 7.500000000000e-04 4.417864669111e-06 3.347578451527e-10 5.515145971415e-11 -8.681397471141e-13
93 1 6.487434265889e-03 5.706681740427e-03 1.054560109270e-02 -2.709859510177e-07 6.593570826829e-07 1.153198073917e-07 8.416328777848e-04 -3.207076088946e-04 2.741566259227e-04 7.500000000000e-04 4.417864669111e-06 2.024228983647e-10 7.036206905882e-12 1.525253825440e-11
94 1 5.459773420861e-03 1.478402510216e-02 6.381606903415e-04 1.834346640017e-07 1.906827350809e-07 -4.580530047519e-08 -2.702719457926e-04 4.676265414135e-05 6.825546833836e-05 7.500000000000e-04 4.417864669111e-06 5.119164471371e-11 4.421539944738e-11 -3.400462804615e-11
95 1 1.219736659667e-02 9.638708177471e-03 4.625444066786e-03 1.395285553579e-06 -6.975579021694e-08 1.943318818487e-06 -1.175190147338e-03 -5.620321939206e-03 -2.014484432800e-03 7.500000000000e-04 4.417864669111e-06 2.361134707001e-10 1.632859499265e-09 -1.065397110869e-09
96 1 1.178943150400e-02 1.200618195536e-03 3.189923116009e-03 -8.317433659331e-08 1.697198456245e-07 4.714758668388e-07 -3.624878165610e-04 3.908901300493e-05 -1.092907059309e-04 7.500000000000e-04 4.417864669111e-06 4.039006391359e-10 -1.050892257905e-11 -1.816899920272e-10
97 1 1.514903835752e-02 2.723380348410e-03 3.846994065435e-03 -2.579589686044e-07 5.867720823359e-07 3.852041057517e-07 8.239850646986e-04 -9.092224009501e-04 -3.372922703600e-05 7.500000000000e-04 4.417864669111e-06 5.349685121020e-10 1.324998335227e-10 -2.020495812676e-10
98 1 1.218340555262e-02 1.331226546766e-02 1.466251497175e-02 -2.709570863842e-09 2.175447922242e-07 7.164734581829e-08 2.338002489917e-04 2.159187484966e-05 3.799700495906e-04 7.500000000000e-04 4.417864669111e-06 1.249068023994e-10 -9.085839879146e-12 -3.438314818808e-12
99 1 2.881063236752e-03 1.210957150449e-02 6.253591915564e-03 9.797899045322e-07 1.606914868146e-06 2.567272645785e-07 -1.859262659620e-03 -5.613783811361e-05 3.215683254628e-04 7.500000000000e-04 4.417864669111e-06 4.431781644787e-10 -1.433731920179e-11 -1.326468979460e-10
100 1 1.604170264330e-03 7.988984323717e-03 4.304311125455e-03 1.846408525505e-192 3.387621520402e-193 -1.694199778525e-192 2.997149852856e+02 -3.667673620677e+02 5.056546459411e+02 7.500000000000e-04 4.417864669111e-06 -1.850597421182e-193 -3.395306923142e-194 1.698043362450e-193
101 2 1.497194785147e-02 8.737981892181e-03 1.440208599882e-02 -1.699530097516e-07 4.316139255232e-07 6.468421379105e-08 1.252174825029e-04 1.414270421083e-04 -4.498272377909e-04 1.000000000000e-03 1.047197551197e-05 1.393304713365e-10 -2.648952074113e-10 -3.667541288590e-10
102 2 1.270552583184e-02 1.931009564511e-03 1.419702253738e-02 -2.662193190058e-07 6.002197813311e-07 1.561069202993e-08 -3.706147153695e-04 -2.850591720250e-04 3.062357686767e-04 1.000000000000e-03 1.047197551197e-05 1.374682114820e-10 -8.277310752025e-10 -1.252948915117e-10
103 2 3.492322984245e-03 6.084711040211e-04 2.862181649156e-03 2.498402240178e-07 9.289860674152e-07 -2.055575479754e-07 -7.346743738211e-05 3.495390142863e-04 3.101301091376e-04 1.000000000000e-03 1.047197551197e-05 6.657057336716e-10 -4.878395627023e-10 -2.031228036132e-10
104 2 6.300685583148e-03 8.895983052193e-03 1.447315647682e-02 -1.952712993762e-08 1.387795567281e-07 6.231615693850e-08 1.015215914376e-04 -2.389538150874e-05 -9.599525063356e-05 1.000000000000e-03 1.047197551197e-05 -6.697720183663e-11 1.861915883045e-10 -2.520950854247e-11
105 2 1.519999343686e-02 3.247940108647e-03 2.258001090797e-03 2.193601382693e-07 1.506449054851e-07 5.601741053195e-08 -1.035830634053e-03 1.051889005349e-03 -2.571640642808e-03 1.000000000000e-03 1.047197551197e-05 1.174419036752e-10 4.855460903043e-10 -3.003769960247e-10
106 2 1.097686262277e-02 8.839392287781e-03 3.292504302913e-03 7.927879025080e-07 6.216848802992e-07 1.101693584858e-06 1.732507582412e-03 -1.115796237535e-03 -9.546597512625e-04 1.000000000000e-03 1.047197551197e-05 -5.173874260251e-10 9.123009425034e-10 -2.033618972842e-09
107 2 3.599554661326e-03 4.447860854446e-03 4.141640552462e-03 -4.913986747979e-07 8.020602051691e-07 4.853442293636e-07 -3.598300375948e-05 -5.362181408448e-04 2.178933893000e-04 1.000000000000e-03 1.047197551197e-05 1.809053112326e-09 -4.751820471883e-10 -9.399834940258e-10
108 2 6.128608966950e-04 1.075827852960e-02 4.112842735565e-03 1.742030980734e-06 5.970577620428e-07 1.082297074999e-06 -2.407108334463e-03 4.284882006551e-03 2.225154070420e-03 1.000000000000e-03 1.047197551197e-05 -3.712987578884e-10 1.686671237242e-09 -1.209039537457e-10
109 2 4.594021352949e-03 2.487409933769e-03 1.044999893809e-02 -4.201769317493e-07 1.027099754039e-06 -6.933131751424e-08 2.089737328921e-05 -5.525881002394e-06 -1.171231170804e-04 1.000000000000e-03 1.047197551197e-05 8.746906062174e-10 -4.308006544159e-10 -5.972912166699e-11
110 2 1.156315413517e-02 1.285127251691e-02 1.314176266777e-02 2.618076879216e-08 4.862343445120e-07 5.333586613764e-08 3.570115516908e-04 1.221584414339e-04 2.099898672196e-04 1.000000000000e-03 1.047197551197e-05 2.359896376738e-10 -1.657761075290e-10 8.476827460241e-11
111 2 3.143746069462e-03 1.352078634457e-02 8.578122138245e-03 -5.326746324200e-07 1.470260304164e-06 -4.625474348501e-07 2.106720142670e-04 -2.195051557846e-04 -8.646047132409e-04 1.000000000000e-03 1.047197551197e-05 1.069635370019e-09 -5.017898996952e-10 3.370219496436e-10
112 2 1.166732351372e-02 6.459840950280e-03 1.445699313220e-02 -1.956370857474e-07 3.577079962751e-07 5.600496696897e-08 2.697817036361e-04 2.497985525918e-04 -2.589761927056e-04 1.000000000000e-03 1.047197551197e-05 3.989805038736e-10 -2.972277728727e-10 -3.440623383758e-10
113 2 1.317626939115e-02 9.880716034234e-03 8.986389313542e-04 1.815281665076e-06 -9.590345190096e-07 9.528534328111e-07 1.052129221128e-03 1.959325003358e-03 2.098435685862e-03 1.000000000000e-03 1.047197551197e-05 -3.287028703118e-09 1.808973516299e-09 -1.605351519034e-09
114 2 4.268101646665e-03 1.449426427175e-02 4.807664106438e-03 5.006603574688e-07 1.202470500487e-06 -1.648060992873e-07 2.604037753175e-04 6.018085404572e-04 4.562466808361e-04 1.000000000000e-03 1.047197551197e-05 6.935832808463e-10 -5.332805262263e-10 -5.039335368027e-11
115 2 1.039707359048e-02 4.616052826161e-04 6.532776555113e-03 -1.001819318952e-06 1.004630663843e-06 6.628497294559e-09 -5.645139857307e-04 -5.845571565868e-04 2.779466591292e-04 1.000000000000e-03 1.047197551197e-05 1.753801123444e-09 -1.094054043332e-09 -8.797760362376e-11
116 2 5.135767715878e-03 6.553487009849e-04 3.987824762228e-03 2.602836623873e-07 8.238406196224e-07 4.941966921364e-08 -1.218385766604e-04 -8.356183569083e-04 -5.133783956173e-04 1.000000000000e-03 1.047197551197e-05 7.512094942569e-10 -3.442724082475e-10 -2.610788389107e-10
117 2 6.022424626036e-03 1.366489811466e-02 4.414636933634e-03 1.028305697097e-06 7.907504113327e-07 -2.229402225467e-07 -1.968927856682e-04 6.469088612165e-04 2.064999173847e-04 1.000000000000e-03 1.047197551197e-05 2.872666266560e-10 -4.572468550988e-11 -5.374663495940e-11
118 2 8.959877064832e-03 9.009252596825e-03 1.023801885927e-02 -7.723146311750e-07 2.394738680038e-07 7.798312493242e-07 6.363644194303e-05 3.635164583232e-04 3.268591076092e-04 1.000000000000e-03 1.047197551197e-05 6.345126028213e-10 2.276450682240e-10 -1.419965320529e-10
119 2 1.451124170099e-02 1.128572810733e-02 9.258876025798e-04 7.440787265569e-07 -3.141803915631e-08 2.370400086102e-07 -3.256396926682e-04 1.654149656471e-04 -7.907968526463e-04 1.000000000000e-03 1.047197551197e-05 5.544748317034e-10 1.956644118189e-10 -1.162828795621e-09
120 2 1.457737875388e-02 2.348000826742e-03 5.404484397456e-03 -5.850883031463e-07 2.598268146015e-07 1.251629254267e-07 -7.602455615206e-04 1.220689102942e-05 7.234397644015e-04 1.000000000000e-03 1.047197551197e-05 1.679926023769e-09 5.457496593311e-10 -2.077931076881e-10
121 2 1.133078983290e-02 6.294734187675e-04 1.264350564736e-02 -2.492843516443e-07 5.318151231331e-07 1.205021588080e-07 -1.339677514136e-04 -6.388688257804e-05 8.755477334863e-05 1.000000000000e-03 1.047197551197e-05 7.606449915896e-10 -2.124878588490e-10 -2.585059081063e-10
122 2 1.468043078307e-02 1.506193814748e-02 4.012230459719e-03 4.342114870482e-07 9.732570810184e-07 9.466687628325e-07 -7.268121433877e-04 1.351996552158e-04 5.119777323766e-04 1.000000000000e-03 1.047197551197e-05 8.949932377512e-10 -5.410367607380e-11 -9.154096693964e-10
123 2 1.696755473777e-04 3.868551648173e-03 7.710470194429e-03 -4.283094945584e-07 2.357970122063e-06 5.597926306723e-07 3.739527668253e-04 -1.134510522266e-04 5.738576822622e-04 1.000000000000e-03 1.047197551197e-05 9.327102178883e-10 -2.789999688533e-09 -1.275345776761e-09
124 2 1.290996381465e-02 5.188708868443e-03 1.336997198824e-02 -3.668390359901e-07 4.601305936513e-07 2.968244092744e-07 5.462673294789e-04 2.119261883495e-04 -1.557530876659e-04 1.000000000000e-03 1.047197551197e-05 9.889217348185e-10 -1.882791652114e-10 -9.713730725508e-10
125 2 2.918045349040e-03 1.488481426669e-02 9.845598094296e-03 -2.876940115757e-07 1.104312717207e-06 -1.065286837250e-07 4.394887280784e-04 -2.730899421685e-04 6.531447681832e-06 1.000000000000e-03 1.047197551197e-05 8.434001224225e-10 -4.736272068364e-10 4.697054641490e-11
126 2 6.124271504046e-03 3.162567640559e-03 1.139986483289e-02 -3.381584315737e-07 5.975335219852e-07 -1.055860222792e-07 3.009533043028e-04 7.968803650326e-05 -1.442542589605e-04 1.000000000000e-03 1.047197551197e-05 7.102949010818e-10 2.772722026378e-11 7.675819249280e-11
127 2 1.193441310189e-02 1.536649875385e-02 1.439466727773e-02 -1.310184252220e-07 4.077090121502e-07 6.868139090280e-08 3.660480974253e-04 1.119511395403e-04 4.277875223455e-04 1.000000000000e-03 1.047197551197e-05 4.910227768940e-10 -5.556503566554e-10 -1.812959688902e-10
128 2 8.498734868209e-03 3.962190985672e-03 8.774547696813e-03 -2.140233592017e-07 6.765566075428e-07 -3.531197189548e-07 2.587577577420e-04 1.379314131147e-04 3.720904769879e-04 1.000000000000e-03 1.047197551197e-05 6.832107780564e-10 4.283929835075e-11 2.498749735366e-10
129 2 4.143088860702e-03 1.089066317958e-02 9.872628061643e-03 -3.560775493132e-07 1.803386742258e-06 1.289660709708e-06 -4.631219819748e-04 -4.279865600384e-04 -1.117253582586e-03 1.000000000000e-03 1.047197551197e-05 3.664481595510e-10 -9.838560490096e-10 -7.862137607379e-10
130 2 1.332513183406e-02 1.322594568577e-03 8.329082408677e-03 -2.052350933535e-07 1.418421952443e-06 6.432188951903e-08 -6.073495239057e-05 7.212009437282e-04 -3.643208872694e-04 1.000000000000e-03 1.047197551197e-05 7.699547173899e-10 -1.388952676515e-09 -6.528592037814e-10
131 2 9.036445982937e-03 1.466705440112e-02 7.259542417426e-03 -1.895536408116e-06 1.367496091024e-06 -3.256355447307e-08 9.787889635861e-04 1.300759386423e-03 -7.622988292062e-04 1.000000000000e-03 1.047197551197e-05 2.916073227641e-09 -1.168158103967e-09 5.875368419055e-10
132 2 9.901977559528e-03 3.868613952380e-03 5.108696966213e-03 -3.810924901279e-07 5.505745340415e-07 -8.964518168770e-08 -3.314583873946e-04 -7.405672180097e-05 6.927731848861e-05 1.000000000000e-03 1.047197551197e-05 1.361347099741e-09 3.335861095151e-11 1.553311267863e-10
133 2 6.328602793348e-03 2.185867147667e-03 9.577756317156e-04 1.403413898352e-07 9.379568983652e-08 1.573065144029e-07 -9.848254591167e-05 7.702384116751e-05 1.401595559602e-04 1.000000000000e-03 1.047197551197e-05 3.179357276064e-10 1.879932908115e-10 5.075409567343e-12
134 2 1.516805779730e-02 2.436403681218e-03 9.052559458113e-03 -2.412060102819e-07 1.255902540860e-06 1.100260386797e-07 3.960120903655e-04 3.436851236385e-06 -2.264192139196e-05 1.000000000000e-03 1.047197551197e-05 4.565665254147e-10 -1.001436068197e-09 -4.313416446562e-10
135 2 2.795000416609e-03 2.164630299097e-03 7.089713395314e-03 -6.679997128847e-07 1.176274166753e-06 2.901883437366e-07 -1.010663370460e-03 4.877029753317e-04 -4.983469369430e-04 1.000000000000e-03 1.047197551197e-05 1.643086576908e-09 -4.291944766284e-10 -3.849283342609e-10
136 2 1.602348503664e-03 1.065135273215e-02 1.110555942874e-03 -9.872285683714e-08 2.913675399900e-07 8.735837668859e-07 9.853366603618e-04 8.903860767578e-04 3.588091872625e-04 1.000000000000e-03 1.047197551197e-05 1.692536240744e-09 -4.072076450206e-10 -8.579043528384e-10
137 2 1.464337978230e-02 7.369646364463e-03 1.302132167741e-02 -3.085273385163e-07 9.504371999315e-07 -1.872609869333e-07 4.686862559012e-04 2.275903445405e-05 6.307914083159e-04 1.000000000000e-03 1.047197551197e-05 2.377518394541e-10 -1.130263507475e-09 -5.652009121746e-10
138 2 7.730516960651e-03 6.573979305289e-03 2.998297998886e-03 -3.664286616749e-07 1.778644621272e-07 4.735682473904e-08 4.093710033042e-05 -5.238517209448e-04 1.710866720200e-05 1.000000000000e-03 1.047197551197e-05 1.443717517616e-09 1.389324677514e-10 -7.465525725952e-11
139 2 7.474498128932e-05 7.789199493925e-03 7.209745005329e-03 2.385128790729e-06 5.280025698939e-06 5.099308718925e-06 1.350387370932e-02 3.456172177059e-03 -1.867770119845e-02 1.000000000000e-03 1.047197551197e-05 -2.054704255523e-09 -4.212276678522e-09 -1.212388853483e-08
140 2 1.358215483801e-02 6.761395223342e-03 1.445444873524e-02 -9.696125025502e-08 1.090760308287e-07 -1.796171426441e-07 1.355074004190e-04 8.681270989759e-05 -7.122725453782e-05 1.000000000000e-03 1.047197551197e-05 1.851332953381e-10 7.485159938124e-11 -6.216075692312e-11
141 2 9.431474457330e-03 8.255648117203e-03 6.552973760786e-03 -1.592550619193e-06 5.526797438430e-07 4.238552176221e-07 5.219957346510e-04 -1.897683151109e-04 1.109494229533e-03 1.000000000000e-03 1.047197551197e-05 2.165512117039e-09 2.254408755429e-10 -6.065209292012e-10
142 2 1.240942476338e-02 5.345370522358e-03 2.674972422811e-03 1.151358057248e-07 8.677066333603e-07 6.456954245023e-08 8.193378570434e-05 -7.323052442520e-05 6.869993369812e-05 1.000000000000e-03 1.047197551197e-05 7.775214136688e-10 -5.006003523957e-11 5.543289109154e-10
143 2 1.084852546054e-03 1.094950204913e-02 7.430204963252e-03 -1.371533940422e-06 4.931350217645e-07 -1.581987165825e-06 -1.116532676783e-04 -1.894476765308e-03 -2.693353565323e-03 1.000000000000e-03 1.047197551197e-05 4.053336314088e-09 -2.852568865327e-10 1.215068179208e-09
144 2 1.501434641630e-02 1.655363383303e-03 1.240540272170e-02 -1.801298604239e-07 9.884048883759e-07 -3.605809836135e-08 7.788711910173e-05 -1.153075461354e-04 2.379171586904e-04 1.000000000000e-03 1.047197551197e-05 5.054489543930e-10 -6.750952799289e-10 -1.041141303197e-10
145 2 1.131984591148e-02 4.350861820988e-03 9.697432178658e-04 -1.396341703832e-08 1.429645447392e-07 2.462092752420e-09 -1.249781978140e-04 1.230910609534e-05 5.636242507202e-04 1.000000000000e-03 1.047197551197e-05 7.804030685448e-10 4.225820482343e-10 1.382223645840e-11
146 2 3.837697960517e-03 3.769677794418e-03 6.896369095823e-03 -1.056077323013e-06 1.119652726060e-06 -1.061726586585e-06 -4.179924099867e-04 -7.585262779177e-04 5.625481025417e-04 1.000000000000e-03 1.047197551197e-05 2.414059239872e-09 -2.063781459095e-10 1.543856267638e-09
147 2 1.267417673291e-02 5.945348160250e-03 8.902376640609e-04 1.090696197381e-07 6.927621160615e-07 2.644905644613e-08 -5.543388250447e-04 1.058015240481e-04 -1.022643475051e-04 1.000000000000e-03 1.047197551197e-05 2.107676090477e-10 -3.659151731705e-10 3.420112604791e-10
148 2 7.102941255372e-03 1.066802020686e-02 1.111490118617e-02 -8.907080689144e-07 4.705112364077e-07 9.346322070667e-07 2.756572870023e-04 4.443380513341e-04 -8.598340445794e-04 1.000000000000e-03 1.047197551197e-05 1.283336727566e-09 2.432549302147e-11 -6.619597726411e-10
149 2 7.090371322623e-03 1.461445157156e-02 9.756236471121e-04 2.981078450731e-07 1.299021921299e-07 -2.999540393967e-08 -4.844471263024e-06 1.333790396705e-04 -1.331170023954e-04 1.000000000000e-03 1.047197551197e-05 -1.060678698035e-10 2.421770586048e-10 -1.318419821821e-10
150 2 7.294758188370e-03 5.494343895421e-03 8.045274623746e-03 -3.235409043927e-07 2.016115659378e-08 -5.276150127595e-07 1.841913697904e-04 8.599634273679e-05 1.060596027996e-04 1.000000000000e-03 1.047197551197e-05 1.409740858972e-09 6.417451393000e-10 6.583663880906e-10
151 2 1.048416667595e-02 7.244461206607e-03 7.767301308252e-03 -5.766122602251e-07 6.578846642585e-07 4.534132320982e-07 1.174031141094e-03 -4.125732384654e-04 8.659411725335e-04 1.000000000000e-03 1.047197551197e-05 2.486092893779e-10 -1.113350946462e-10 -2.752104962179e-10
152 2 1.516848372205e-02 5.361262804051e-03 1.446858655801e-02 -1.643414569788e-07 7.910004581931e-07 1.278661730517e-08 8.113273571760e-04 1.951969922215e-04 -7.434575003492e-04 1.000000000000e-03 1.047197551197e-05 3.119870871157e-10 -5.087471678362e-10 -5.320106370842e-11
153 2 1.579849316951e-03 1.250995222716e-02 4.406104459311e-03 1.536307399402e-06 2.474662744770e-06 2.573850553006e-07 -9.853597957652e-04 -1.550996456005e-04 8.710029339576e-04 1.000000000000e-03 1.047197551197e-05 -1.732272119219e-10 -8.961252665599e-10 -5.471498458817e-10
154 2 7.285306943889e-03 3.772313333252e-03 7.256123414146e-03 -1.411384857301e-07 2.446569606691e-07 -4.453604230444e-07 -1.479362532277e-04 -1.170091760356e-04 2.785053521960e-04 1.000000000000e-03 1.047197551197e-05 8.566038662031e-10 4.272092151309e-10 5.184990813994e-10
155 2 1.118001473223e-02 1.516284632744e-02 2.471907067892e-03 2.919409188709e-07 -2.411168583374e-07 3.148779903311e-07 1.823921164293e-04 1.931340157864e-04 7.311441955506e-04 1.000000000000e-03 1.047197551197e-05 9.405930415328e-12 6.372489870920e-10 -2.034896415845e-10
156 2 5.764895846711e-03 7.268765108423e-03 1.062014724406e-02 -5.182540257917e-07 5.882162497919e-07 4.849024541101e-07 1.404164040322e-04 -5.550340668672e-04 1.065840080969e-05 1.000000000000e-03 1.047197551197e-05 8.516803369400e-10 -5.512164465446e-13 -6.309588527090e-10
157 2 1.913439431650e-03 1.153883787538e-02 1.271597778457e-02 -5.132150115909e-07 8.661478240043e-07 8.823735843677e-08 -9.395742279866e-05 2.383203039711e-04 2.653974246652e-04 1.000000000000e-03 1.047197551197e-05 5.615556984575e-10 -4.096443114150e-10 -2.191307926348e-10
158 2 9.077024586876e-03 5.908604479256e-03 8.496408230297e-03 -4.664655622972e-07 6.623385981573e-07 2.954270580478e-08 4.769602268010e-04 -4.975231239153e-04 7.084265289539e-04 1.000000000000e-03 1.047197551197e-05 1.369177341927e-09 3.377993688284e-10 1.339502806407e-10
159 2 2.218812196679e-03 4.951898662691e-03 1.439083167933e-02 -3.890003094264e-07 1.650832198299e-07 7.966792873727e-08 1.630112004680e-04 3.828514287820e-04 2.122823710329e-05 1.000000000000e-03 1.047197551197e-05 6.859141926324e-10 2.293905016987e-10 -1.840094376382e-10
160 2 7.272295826906e-03 1.528791099986e-02 7.728467259617e-03 -7.156450832441e-07 9.699161470532e-07 1.008156092607e-06 1.263870898247e-04 -2.071942862963e-04 1.823963257726e-04 1.000000000000e-03 1.047197551197e-05 1.524793128962e-09 -7.007272333653e-10 -7.167972544350e-10
161 2 1.351994748395e-02 1.375301043630e-02 1.050378989933e-02 -3.831352188378e-07 1.366864098273e-06 -4.511919603646e-07 7.309796779854e-04 5.030652659030e-04 8.382070144001e-04 1.000000000000e-03 1.047197551197e-05 9.166854376778e-10 -8.262362752280e-10 -3.863836468873e-10
162 2 2.757830070082e-03 9.897058534576e-03 1.278358210333e-02 -7.162292724032e-08 1.179032600939e-06 -7.905911950204e-08 1.496998703795e-04 5.942625082180e-05 1.861099761026e-04 1.000000000000e-03 1.047197551197e-05 -1.994134876641e-10 -9.602979193769e-10 5.048877894850e-11
163 2 7.978768262356e-03 8.645950588804e-03 9.513593398274e-04 2.059894810602e-07 3.560753037458e-07 3.718255378040e-08 -3.624355733015e-04 1.947973734134e-04 1.255884971911e-04 1.000000000000e-03 1.047197551197e-05 -1.515660163934e-10 -1.034670263865e-10 -1.167393041109e-10
164 2 7.245344491352e-03 8.895006802525e-03 1.287462572957e-02 -9.110364744643e-08 1.187146620973e-07 1.926166438774e-07 -5.996965635935e-05 6.503700149175e-05 -6.077930560490e-05 1.000000000000e-03 1.047197551197e-05 5.377179730251e-11 2.648798067872e-10 -8.228494230593e-11
165 2 3.485499789074e-03 2.102020988697e-03 9.257263416699e-04 1.083489824064e-08 3.773565191747e-07 6.557666949538e-08 -2.980625885315e-04 2.015797612152e-05 -2.692723150749e-04 1.000000000000e-03 1.047197551197e-05 3.177022003903e-10 1.191738752278e-10 -2.568995589499e-10
166 2 1.224990109865e-02 2.462516989130e-03 1.080167456821e-02 -3.392598587502e-07 8.701480901098e-07 -9.097266480032e-08 -1.963067034988e-04 -7.250292820166e-06 4.743259988254e-04 1.000000000000e-03 1.047197551197e-05 7.728250200481e-10 3.597150767461e-10 5.313295564825e-11
167 2 3.859070799196e-03 1.080014095246e-02 5.805903420591e-03 7.485426309051e-07 1.195661549325e-06 -3.262567252433e-07 7.157144926544e-04 1.531719370060e-03 -9.661191027725e-07 1.000000000000e-03 1.047197551197e-05 4.811370777629e-10 -2.254495084740e-10 4.803765757092e-10
168 2 2.180607579495e-03 1.526044406299e-02 7.180533099093e-03 -2.677524154275e-07 1.052318159013e-06 -4.581136581942e-07 -1.109675973627e-04 7.514502885168e-04 5.369505727958e-05 1.000000000000e-03 1.047197551197e-05 1.122713272084e-09 -4.929924922936e-10 1.574206410044e-10
169 2 8.288059551269e-04 4.985057163449e-03 3.358099819880e-03 -5.768811314161e-07 2.837548318409e-07 -6.765327838297e-07 -5.882550028887e-04 -6.195712806072e-04 8.590955661891e-04 1.000000000000e-03 1.047197551197e-05 1.410341108484e-09 6.503373639852e-10 8.260452485095e-10
170 2 4.740070991410e-03 6.006185160579e-03 9.634395633449e-03 -1.764318216067e-07 8.654045234401e-07 -2.003874512090e-07 1.456560163182e-04 -2.422086950895e-04 -1.220295721210e-04 1.000000000000e-03 1.047197551197e-05 5.481021267652e-10 -1.656506775577e-10 -1.896360753185e-11
171 2 3.612090213959e-03 1.026344284698e-02 1.445198567992e-02 2.731142429247e-08 3.152878190223e-07 1.513421532261e-07 2.940947533656e-04 -1.590776823488e-04 -1.286044104737e-03 1.000000000000e-03 1.047197551197e-05 -3.257119107957e-10 -2.118304123458e-10 -1.039584136925e-10
172 2 5.190706496998e-03 1.514286183063e-03 8.869459908339e-03 -4.652081833543e-07 1.067307942258e-06 -6.121049253806e-09 -2.473085755152e-06 -4.348938858339e-06 -7.365904325353e-05 1.000000000000e-03 1.047197551197e-05 1.133324127390e-09 -6.629301809173e-10 -5.327362902470e-11
173 2 7.133178561697e-03 2.896870193929e-04 5.405341998963e-03 1.477570114633e-06 5.393970708807e-07 9.543602908377e-07 -1.426403623128e-03 -1.323116067169e-03 1.454710168899e-03 1.000000000000e-03 1.047197551197e-05 1.049416629423e-10 4.588031544295e-11 -5.254469676197e-10
174 2 9.908783125151e-03 3.551406931165e-03 1.072220624303e-02 -2.620591745118e-07 4.247986415316e-07 -2.208673127323e-07 -2.954351969708e-04 2.804363027953e-04 -1.600727485676e-04 1.000000000000e-03 1.047197551197e-05 4.873869940286e-10 -1.377042001454e-10 9.300053882487e-11
175 2 5.117231234220e-03 9.517362060625e-03 6.338109522048e-03 4.883310112749e-07 6.070882917841e-07 -8.095898744560e-07 -6.733977061989e-04 -9.485544360964e-04 -5.344477889312e-04 1.000000000000e-03 1.047197551197e-05 5.484974337834e-10 4.499168286453e-11 4.548825415530e-10
176 2 1.281220606302e-02 1.120682265746e-02 2.189893287039e-03 9.153003620329e-07 -5.825784865989e-07 1.954810903659e-06 -1.329437300187e-03 -4.527540990196e-04 7.646165172645e-04 1.000000000000e-03 1.047197551197e-05 -2.028075233519e-10 1.616167208619e-09 -3.871641605595e-09
177 2 9.373801866315e-03 6.237136661926e-03 6.579830991969e-03 -3.723734340344e-07 7.218995546518e-07 2.589276435279e-08 -2.813152109950e-04 4.085897010924e-04 -1.154329182276e-04 1.000000000000e-03 1.047197551197e-05 1.233114854213e-09 -1.808071311123e-10 -1.262369456353e-10
178 2 8.560734559281e-03 3.852219690100e-03 3.678110122651e-03 -1.709725808270e-07 3.069243899099e-07 -7.827845562485e-08 -2.386678429550e-04 -5.268689900084e-05 -2.406684516598e-04 1.000000000000e-03 1.047197551197e-05 1.294954141050e-09 4.632657092516e-11 1.460426351686e-10
179 2 1.227581628256e-02 4.029144869196e-03 5.890319770868e-03 -6.107155142706e-07 6.989948636654e-07 -3.363027427030e-07 7.530468193769e-05 -5.579028478207e-05 1.447818732393e-04 1.000000000000e-03 1.047197551197e-05 1.286607450728e-09 -3.520911399676e-10 5.039346504440e-10
180 2 3.377360599063e-03 8.766999272642e-03 9.360483200652e-03 1.065016395613e-06 8.360749606421e-07 -2.304945880687e-07 -1.454703590580e-03 -1.925249062551e-03 2.775403167823e-03 1.000000000000e-03 1.047197551197e-05 3.362308657764e-11 4.423486056843e-11 5.781114241260e-10
181 2 2.776017222520e-03 8.287611532074e-03 1.442990057198e-02 -3.004796261020e-08 2.899472325188e-07 3.118840323172e-07 2.785389588526e-04 3.598424933893e-05 -1.316040509461e-04 1.000000000000e-03 1.047197551197e-05 3.282872703955e-11 -6.227283015639e-11 -4.487462757493e-10
182 2 7.625851497815e-04 1.247100805946e-02 9.881320675090e-04 -3.919486463622e-07 -2.593545830520e-07 3.276511014467e-07 2.130801631412e-04 -5.407421514561e-04 -4.194930918471e-04 1.000000000000e-03 1.047197551197e-05 1.291005095232e-09 3.382710799598e-10 -3.834185527103e-10
183 2 8.030118923535e-03 1.416103954727e-02 4.699622622895e-03 2.932720029049e-06 -1.759646194991e-08 7.114797683046e-07 9.376010554045e-04 2.589778477123e-03 -2.514791446758e-04 1.000000000000e-03 1.047197551197e-05 -5.728085635051e-10 4.011008038034e-10 -3.889545214200e-10
184 2 1.083699126676e-02 2.388337560562e-03 9.789245671690e-04 8.323587994643e-08 1.820858752922e-07 2.448750037531e-08 -1.453753541088e-04 1.340696331391e-04 -2.685905389952e-04 1.000000000000e-03 1.047197551197e-05 2.879558710222e-10 -2.932317805519e-11 -1.640870762267e-10
185 2 1.305138668384e-02 3.158213973294e-03 1.214243579257e-03 -2.934114523355e-07 1.572374871822e-07 -2.787945218879e-09 -4.031667656308e-05 -6.207450265868e-05 3.824706120843e-04 1.000000000000e-03 1.047197551197e-05 6.366727041951e-10 -2.079059134901e-11 -3.937734963961e-11
186 2 2.268829713181e-03 2.005370121161e-03 2.632434601119e-03 -1.124286791380e-07 8.687736830052e-07 2.456010265526e-08 -8.721779968884e-05 -5.362986732490e-05 -3.978830212391e-05 1.000000000000e-03 1.047197551197e-05 1.039947665272e-09 -2.420632644249e-10 -5.014685984132e-10
187 2 1.434588021274e-02 1.300416480987e-02 1.866247369102e-03 9.763853679979e-07 -2.351964029646e-08 -1.207063044719e-07 1.604843349263e-04 9.019745609635e-04 1.043457514000e-03 1.000000000000e-03 1.047197551197e-05 -6.730758460561e-11 7.830290779520e-10 -6.414736410524e-10
188 2 1.139452342466e-02 9.181133145323e-03 1.108805581618e-02 -3.154779765391e-07 6.454429654741e-07 -4.967519489062e-07 2.403534364922e-04 1.056966681473e-03 2.828894098831e-04 1.000000000000e-03 1.047197551197e-05 1.997517712681e-10 6.719324756615e-10 1.600625939399e-09
189 2 3.400578691624e-03 2.078267919933e-03 8.908179741079e-03 -3.268403197590e-07 1.328355986933e-06 -1.700487078798e-09 3.928366236571e-04 -6.423230843062e-05 -7.680854963409e-05 1.000000000000e-03 1.047197551197e-05 8.929930657551e-10 -7.959133380114e-10 -1.300854550809e-10
190 2 5.105582995169e-03 3.747974531459e-03 3.140207228489e-03 -1.579664225117e-07 6.208612795125e-07 2.477122890030e-07 1.258648060363e-05 -5.314031006694e-05 -6.976113061173e-04 1.000000000000e-03 1.047197551197e-05 1.434730753993e-09 -2.838222030335e-10 -5.220078431129e-10
191 2 1.528495487117e-02 1.113388162703e-02 1.285449023782e-02 -1.270863491175e-07 7.717748142983e-07 -9.328190707135e-09 1.921223015902e-06 -2.788724209582e-04 2.913580711328e-04 1.000000000000e-03 1.047197551197e-05 1.682549218996e-10 -2.858249933839e-10 -3.233311186084e-10
192 2 5.067814596866e-03 1.130703868136e-02 9.811623205008e-04 7.919247978620e-08 1.932271968686e-07 1.678202993890e-07 -6.431399434907e-05 -1.419739976998e-06 -3.393459827079e-04 1.000000000000e-03 1.047197551197e-05 1.932703110494e-10 -3.782206059693e-11 -1.090286989500e-10
193 2 4.584953282425e-03 1.214721166198e-02 8.326947177404e-03 -1.577241381447e-06 -2.778277182742e-07 9.049229973005e-07 -4.104131209914e+03 2.631437262069e+03 3.102648486401e+03 1.000000000000e-03 1.047197551197e-05 1.552937601666e-09 2.735400757952e-10 -8.909784625599e-10
194 2 9.733887300649e-03 1.180802239268e-02 1.290426751829e-02 -1.983749600199e-07 4.645106578507e-07 1.104919308367e-07 -2.898344517383e-05 4.842809542020e-04 1.972099031015e-04 1.000000000000e-03 1.047197551197e-05 3.082600146145e-10 2.795852615239e-10 3.569498589216e-10
195 2 7.561068405490e-03 1.049830164257e-02 6.557000147456e-03 -1.490220816788e-06 3.524656160533e-07 6.851879939588e-07 2.550474748491e-04 6.971986551635e-04 -2.871085924985e-04 1.000000000000e-03 1.047197551197e-05 2.019274225926e-09 4.354741228100e-10 -5.990925304693e-10
196 2 1.424626709161e-02 9.314529792083e-03 6.795027521814e-03 6.353617298836e-03 5.487903799763e-03 1.807889185642e-03 -8.210664410596e+01 1.073713306047e+02 -3.737636375539e+01 1.000000000000e-03 1.047197551197e-05 -3.642514964416e-06 -5.463242933497e-06 -7.702551194041e-06
197 2 1.355916744820e-02 1.394280951316e-02 1.400305256512e-02 -2.898869681398e-07 8.185823382623e-07 -1.175475169240e-07 -2.694740608883e-04 1.796180838353e-04 3.465736622425e-04 1.000000000000e-03 1.047197551197e-05 7.057341687643e-10 -7.527590636035e-10 1.709842806842e-10
198 2 1.269627437041e-02 9.556618928365e-03 3.007462803056e-03 1.840150428800e-06 1.809675004060e-07 3.541782733140e-06 5.610410730616e-04 -2.486243814231e-04 3.264088276932e-04 1.000000000000e-03 1.047197551197e-05 -4.794464529409e-11 3.749906114466e-10 -4.721792481223e-09
199 2 1.428429548126e-02 1.118525031073e-02 7.708817308742e-03 4.743731636370e-06 1.810529604077e-05 -1.319823243853e-06 1.760828310679e-02 -9.480635492935e-03 -8.141522140192e-03 1.000000000000e-03 1.047197551197e-05 -5.293295659801e-10 -1.854174577118e-08 -6.723815364228e-10
200 2 4.819861657932e-03 1.455869943492e-02 8.512401924735e-03 -4.492337740707e-07 1.011796727290e-06 -2.411432636312e-07 1.613513195501e-04 4.494490603735e-05 3.575546801014e-04 1.000000000000e-03 1.047197551197e-05 9.517261732384e-10 -4.453623546027e-10 2.653892242996e-10
201 2 8.326510109962e-03 1.204246589856e-02 1.158000802994e-02 -5.301810193171e-07 1.942882009110e-07 7.522878942451e-07 -1.666398123706e-05 2.592447839405e-05 3.831113265359e-04 1.000000000000e-03 1.047197551197e-05 6.449620761639e-10 2.796713056131e-10 -2.327029601955e-11
202 2 9.722243458378e-04 8.815620934664e-03 5.816306425501e-03 -6.638676363302e-07 3.276928498468e-06 7.036900580398e-06 3.382317371291e-03 6.788276208336e-03 -1.230602601159e-03 1.000000000000e-03 1.047197551197e-05 1.693924614470e-09 -5.239191133484e-09 -6.387632163566e-09
203 2 1.422948655014e-02 1.159923161586e-02 3.447446283609e-03 1.699781526821e-06 1.330457511291e-06 4.304420910063e-07 -4.458604501804e-03 1.278076761302e-03 -3.207011041835e-03 1.000000000000e-03 1.047197551197e-05 2.814185824008e-09 1.620799797368e-10 -8.117087131384e-09
204 2 2.359430783227e-03 5.775913799508e-05 1.303097967808e-02 -4.094567709901e-07 8.797419751671e-07 -5.006331089800e-08 -1.741435210983e-04 -1.578457732187e-04 -2.354654468327e-04 1.000000000000e-03 1.047197551197e-05 5.378465338749e-10 -3.191355258711e-10 3.035990828115e-12
205 2 9.411136209899e-03 1.855805823390e-03 9.886351563691e-03 -2.854528565977e-07 3.052907829841e-07 1.537304525890e-07 8.285517216417e-05 1.011201536956e-04 2.888813311649e-04 1.000000000000e-03 1.047197551197e-05 8.385567629645e-10 8.813625205477e-11 -2.610296056787e-11
206 2 1.042283303051e-02 1.017626588180e-04 4.625892176247e-03 -5.210694962164e-07 -1.034798487518e-06 8.989213385237e-07 -1.661698539173e-03 2.020469339026e-04 -6.426349481649e-04 1.000000000000e-03 1.047197551197e-05 1.315049053387e-09 1.271335469306e-10 -7.803250886416e-10
207 2 1.352288619926e-02 7.024711176680e-03 1.010265474827e-02 -1.961231805688e-06 1.068925556272e-06 -6.751454622208e-07 6.148506140235e-04 2.329545931353e-03 1.687083520220e-03 1.000000000000e-03 1.047197551197e-05 3.229357652636e-09 5.966027830051e-10 -1.117598938161e-09
208 2 1.129570441807e-02 5.896018249876e-03 1.265439520913e-02 -2.620670959162e-07 5.225048972757e-07 2.627664687870e-07 -1.313805904912e-04 -3.047736348867e-04 1.408743439289e-04 1.000000000000e-03 1.047197551197e-05 5.119280354772e-10 -2.145291001116e-10 -6.957590697832e-10
209 2 4.936399262895e-03 7.569636133811e-03 1.444057607554e-02 -7.541234280255e-08 1.812487042232e-07 1.853957643766e-08 9.021906694318e-05 -1.229929024092e-05 -5.902225812261e-05 1.000000000000e-03 1.047197551197e-05 1.330108214862e-10 3.802439716727e-11 -4.279143336474e-11
210 2 1.362048594999e-02 7.314203839927e-03 6.858295843713e-03 8.702138559133e-07 1.131705463867e-05 4.804703388442e-06 -4.056374533999e-03 -2.132200425002e-03 1.293906625496e-02 1.000000000000e-03 1.047197551197e-05 2.406453263218e-10 -1.099767543889e-08 -1.190141237084e-08
211 2 1.124416771079e-02 1.512305229841e-02 9.364303797036e-03 -3.984688719825e-07 6.145711646626e-07 3.085749162064e-07 7.686880574498e-06 -6.300812703088e-04 2.091218150889e-04 1.000000000000e-03 1.047197551197e-05 9.021090050970e-10 -4.144554105035e-10 -6.557262609168e-10
212 2 9.047811037859e-03 4.348449027695e-03 6.753619275561e-03 -3.854521971872e-07 5.696188170729e-07 -8.500013662149e-08 4.765120756627e-04 -4.569230043816e-06 -3.001078569001e-05 1.000000000000e-03 1.047197551197e-05 1.205511826243e-09 5.913389638140e-11 2.911108729606e-10
213 2 1.350023944587e-02 1.496741631805e-02 1.208010995419e-02 -3.054191600027e-07 7.970107336767e-07 -1.940253892587e-07 -2.564725723136e-04 2.408863070085e-04 2.179204225645e-04 1.000000000000e-03 1.047197551197e-05 8.733353823119e-10 -2.663650366320e-10 -1.372286932916e-10
214 2 5.224614980149e-03 8.736841637960e-03 2.372627598066e-03 4.698670278924e-08 2.711527828202e-08 -1.378894557900e-07 -6.226863550475e-05 -5.984827640567e-04 7.431649717925e-05 1.000000000000e-03 1.047197551197e-05 1.421037148424e-10 2.663329263225e-10 5.084681993276e-11
215 2 1.491297491855e-02 1.044446865336e-02 1.112228123116e-02 -4.105494608867e-07 1.775210526048e-06 -3.403964869820e-07 1.573801698684e-03 6.901065386224e-04 2.644997165214e-04 1.000000000000e-03 1.047197551197e-05 5.330798815963e-10 -1.605640089893e-09 -1.642210944158e-10
216 2 7.351150898518e-03 3.068127571543e-03 2.340906592676e-03 -2.912695311776e-08 1.535293673859e-07 1.428870371583e-07 -1.313566800166e-04 -6.419262692578e-05 -2.640283316577e-05 1.000000000000e-03 1.047197551197e-05 1.037865276679e-09 7.993361427397e-11 -5.103544572154e-11
217 2 7.857136803821e-03 7.100095563201e-03 1.318738641053e-02 -1.867478292427e-08 2.197231880333e-07 2.389569934806e-07 -3.325739870232e-05 -1.320407087935e-04 1.027812575440e-04 1.000000000000e-03 1.047197551197e-05 3.123831994527e-11 -7.844783169369e-12 -1.448864987034e-10
218 2 1.052150471666e-02 2.015984751306e-03 1.150623722796e-02 -2.010025700517e-07 3.955523911577e-07 -1.881460066926e-08 2.457289003627e-05 3.298364286647e-05 7.862195320758e-05 1.000000000000e-03 1.047197551197e-05 6.941640695609e-10 1.177852054091e-10 1.698714855834e-10
219 2 9.516053357917e-03 1.821870397294e-03 5.396545174796e-03 -4.626678757940e-07 5.546131049056e-07 -2.457560615800e-07 4.069655155476e-04 -6.442396324285e-05 -3.997240321527e-04 1.000000000000e-03 1.047197551197e-05 1.307348096047e-09 -3.759855716002e-10 2.833562203165e-10
220 2 1.092427910672e-02 4.592424501565e-03 3.682633929796e-03 -2.006742128396e-07 4.763805177480e-07 -1.329510797352e-07 7.263241178050e-06 -2.754567843517e-04 1.498817942240e-04 1.000000000000e-03 1.047197551197e-05 1.603698488650e-09 8.816879646553e-11 3.995244176471e-10
221 2 6.815803120967e-03 2.470595780157e-03 1.305536552225e-02 -3.391637656791e-07 6.209262415538e-07 1.894477542645e-08 -4.742363450743e-04 2.602158265573e-05 -1.962112134344e-04 1.000000000000e-03 1.047197551197e-05 5.913618697401e-10 7.287543368423e-11 9.812298410144e-11
222 2 9.832094744149e-03 7.063450221689e-04 8.378249686001e-03 -4.549036088568e-07 6.629010373213e-07 -7.830128440399e-08 3.143476806695e-04 5.998214677649e-04 -7.999580124040e-06 1.000000000000e-03 1.047197551197e-05 1.069119659359e-09 -1.219003706090e-10 2.134677591008e-10
223 2 6.912046069276e-03 1.927736930095e-03 6.311372043466e-03 -4.135709602854e-07 8.440326492340e-07 1.990720807116e-07 5.204510121003e-04 2.077702082263e-04 -3.803041288645e-05 1.000000000000e-03 1.047197551197e-05 1.270708893756e-09 -2.548343544632e-10 -2.567608531009e-10
224 2 1.577966588527e-03 1.179640034319e-02 2.655481040742e-03 4.602903644602e-07 2.053386664511e-07 9.776743329325e-07 -1.118185254694e-03 1.274197680616e-03 6.892726512223e-04 1.000000000000e-03 1.047197551197e-05 1.180628939259e-09 1.147067749590e-10 -1.137535734128e-09
225 2 1.075878961073e-02 1.185146998319e-02 8.128036306746e-03 -1.765658402305e-06 6.736351553842e-07 5.770551547060e-07 -1.357947709281e-03 5.600840591633e-04 1.075756250828e-03 1.000000000000e-03 1.047197551197e-05 1.370054092714e-09 -3.510621265432e-10 3.395041154608e-10
226 2 1.214953566374e-02 9.591941661052e-03 1.448509037289e-02 -5.292427952421e-08 2.213132072405e-07 -1.035188367400e-07 1.427915121984e-04 2.736355180110e-05 4.777205225166e-05 1.000000000000e-03 1.047197551197e-05 -1.065564780687e-11 3.446878252279e-11 2.638145309053e-10
227 2 1.484632443749e-02 1.300096934212e-02 1.289493537424e-02 -5.542546694263e-07 9.953677708492e-07 -1.142009932841e-07 -1.078046353937e-04 3.345275882205e-04 -1.142855646956e-04 1.000000000000e-03 1.047197551197e-05 7.417727216667e-10 -6.421819677112e-10 -1.897756003363e-10
228 2 9.507287778203e-03 5.318235368855e-03 2.743101621456e-03 -5.633624460515e-08 2.868653126014e-07 -1.447635706943e-07 2.187494993503e-04 1.340738000879e-05 1.118034604758e-04 1.000000000000e-03 1.047197551197e-05 1.118907637352e-09 2.443151154683e-10 2.751360382523e-10
229 2 1.929504839277e-03 8.805344254861e-03 9.121143961305e-04 -2.292195420893e-07 3.174813693691e-07 3.280121902824e-08 -2.648405171290e-04 -2.892370235218e-04 -3.527421120437e-04 1.000000000000e-03 1.047197551197e-05 5.130819668990e-10 -1.261771395876e-10 -2.191007483300e-10
230 2 5.700294274958e-03 4.299938142604e-03 9.914196342520e-03 -3.728575214198e-07 7.443107478224e-07 -2.578827545980e-07 -3.359383454307e-04 1.968965569143e-04 -2.510592945498e-04 1.000000000000e-03 1.047197551197e-05 7.954072006951e-10 1.911127617413e-11 3.704071453949e-10
231 2 1.080483057092e-02 1.772013997556e-03 1.446557579036e-02 -2.411797396750e-07 2.696874314785e-07 -2.459066684093e-08 1.710998016610e-04 2.762485058368e-04 1.015733512616e-04 1.000000000000e-03 1.047197551197e-05 1.853365261428e-10 -3.516780415623e-11 5.127794392526e-11
232 2 9.223039264628e-03 7.227636376032e-03 1.600111362146e-03 4.089797753339e-07 3.360110800048e-07 9.922843278388e-08 8.789404503534e-04 -8.816196665946e-04 2.514858674825e-04 1.000000000000e-03 1.047197551197e-05 1.500166180153e-10 3.435369144535e-11 -2.091191960442e-10
233 2 3.640196023702e-03 1.411242855781e-02 6.920169576186e-03 2.282368524390e-07 1.137212727429e-06 -5.590771259042e-07 -5.022354817923e-04 -3.427423636851e-04 4.585782244095e-04 1.000000000000e-03 1.047197551197e-05 8.476125135963e-10 -4.573416983337e-10 3.822118927564e-10
234 2 1.406458982901e-02 3.050271727212e-03 1.059956972290e-02 -2.806494004199e-07 1.139410722107e-06 -2.021753548914e-07 -3.591735277607e-04 -1.759407101565e-04 -2.505550368483e-04 1.000000000000e-03 1.047197551197e-05 9.110686485522e-10 1.051663740337e-10 -2.937512145274e-11
235 2 8.274796401849e-03 7.931431487744e-03 1.157843483503e-02 -5.495014566172e-08 1.574240901425e-07 4.084644163300e-07 -1.037914122936e-05 -5.787034021982e-05 2.322732281777e-04 1.000000000000e-03 1.047197551197e-05 6.889918309726e-12 2.383981100028e-10 -2.387743215661e-10
236 2 3.470827468911e-03 5.945385762247e-03 7.340514214771e-03 -4.821447591617e-07 1.189468833990e-06 3.987854844575e-07 -9.599556343183e-05 9.063691547378e-04 5.869815985718e-04 1.000000000000e-03 1.047197551197e-05 2.194328940046e-09 -8.959073394717e-10 -4.336280312829e-10
237 2 8.250014680764e-03 1.049692979132e-02 1.270878397414e-02 -1.748745002435e-07 1.284829359828e-07 4.733692010700e-07 1.763209232878e-04 -3.126269274154e-04 1.893315381626e-04 1.000000000000e-03 1.047197551197e-05 3.572556882756e-10 1.851996492373e-10 -5.607976169675e-11
238 2 1.562428073670e-03 1.364216428491e-02 1.043320008475e-02 -2.259077066370e-07 6.028923326469e-07 -3.382120370321e-07 -4.555976905961e-04 -4.220687908940e-05 4.271648711235e-04 1.000000000000e-03 1.047197551197e-05 4.550701876154e-10 -1.568285197819e-11 -1.025430804481e-10
239 2 1.505891280380e-02 1.126139544749e-02 5.913230799102e-03 7.422197730635e-06 1.126737493306e-05 -1.967502763243e-06 -1.014842633555e-02 4.405643562577e-03 -9.851977865756e-03 1.000000000000e-03 1.047197551197e-05 -2.182167851418e-09 -5.672469218793e-09 4.073349007665e-10
240 2 9.562665929106e-03 1.058864248091e-02 1.125710025529e-02 -3.237320315237e-07 4.611723593881e-07 5.355518106526e-07 9.311124326270e-05 4.775773854364e-04 1.274921854057e-05 1.000000000000e-03 1.047197551197e-05 3.419272705808e-10 1.192358320311e-10 5.923167372203e-11
241 2 3.054341386082e-03 1.188048312087e-02 9.103129746158e-04 1.044860836436e-07 2.460346472615e-07 1.822102544705e-07 -1.123651871323e-04 2.996675318221e-04 -4.361233215823e-04 1.000000000000e-03 1.047197551197e-05 3.783947674472e-10 6.933372883597e-11 -1.671951369696e-10
242 2 7.461835634737e-03 1.361685781965e-03 1.446746601892e-02 -3.322080107125e-07 4.563691541329e-07 -2.626746820924e-08 4.406172129715e-04 3.209901734990e-04 -2.212856741245e-04 1.000000000000e-03 1.047197551197e-05 4.556584420096e-10 -4.796128365503e-11 6.519926848229e-11
243 2 1.522930470158e-02 1.407326375678e-02 1.127908096735e-02 -3.708755533686e-07 1.169898856876e-06 -4.331329386553e-07 4.876277609368e-05 -2.151124105054e-04 -6.230510546646e-04 1.000000000000e-03 1.047197551197e-05 7.826075689977e-10 -5.959610369570e-10 -4.708730998317e-11
244 2 1.302878405215e-02 1.429065533759e-02 1.275776722678e-03 2.372055060870e-07 -5.643605646230e-07 2.067899072549e-07 -5.299318924155e-05 2.781971509572e-04 3.363013340475e-04 1.000000000000e-03 1.047197551197e-05 2.270120072951e-10 7.519966941448e-10 -5.211001307830e-10
245 2 8.107371671417e-03 3.199202300412e-03 5.499277512198e-03 -3.964644520128e-07 7.914840190682e-07 -8.198902746828e-09 -3.288972701119e-04 9.115574646028e-05 -5.483690421926e-05 1.000000000000e-03 1.047197551197e-05 1.431266587463e-09 -2.490158095494e-10 1.524787465898e-10
246 2 1.604142963668e-03 2.709425176860e-03 9.255661963640e-04 -8.479280209666e-09 3.528483602615e-07 -2.297513304564e-08 -2.309211300950e-04 -2.445760154954e-05 2.511135503571e-04 1.000000000000e-03 1.047197551197e-05 4.927557750777e-10 1.559109446066e-11 -6.312481950541e-11
247 2 9.161207104373e-03 1.316056353327e-02 5.834963131492e-03 2.728700130772e-06 -2.300863238600e-06 2.056517518423e-06 -1.643495351322e-03 -2.956556946094e-03 -3.079638048432e-03 1.000000000000e-03 1.047197551197e-05 -3.893345857836e-10 1.922324610769e-09 -4.885043674658e-10
248 2 3.303245830746e-03 1.404458616691e-02 3.211840439989e-03 4.928525056459e-07 1.243657945773e-06 -3.573267763962e-07 -2.754920199695e-04 -3.935538438695e-04 1.743705175958e-04 1.000000000000e-03 1.047197551197e-05 4.052974518511e-10 -4.916835767397e-10 1.184093445926e-10
249 2 9.761171285127e-03 5.559042286923e-03 8.826145732629e-04 1.012498255301e-07 2.712835997319e-07 -1.215329039283e-07 -2.404189861251e-04 2.621284452495e-05 -7.493877699600e-04 1.000000000000e-03 1.047197551197e-05 4.143786830903e-10 -4.712592253646e-11 1.261049962822e-10
250 2 2.713731930987e-03 1.206336135104e-02 9.671469233718e-03 -5.105377994949e-07 1.362403576088e-06 -1.916987203811e-07 -6.398544384238e-04 -5.079885944822e-04 1.491929590767e-03 1.000000000000e-03 1.047197551197e-05 5.587123355792e-10 -5.018875732941e-10 -3.597369994615e-11
251 2 3.408221881902e-03 6.433066234705e-03 1.444357798927e-02 -2.804091010650e-07 2.001126525749e-07 -3.146385890751e-08 1.594523289691e-04 2.744770993130e-04 -4.950881374526e-05 1.000000000000e-03 1.047197551197e-05 3.767691626690e-10 2.151729481076e-11 -1.337323319940e-11
252 2 8.300385771299e-04 4.554962930947e-03 9.747365723243e-04 -9.078599342653e-08 1.164368964439e-07 -6.796570522082e-09 -1.128582510977e-04 -4.790451437506e-05 6.933630130543e-04 1.000000000000e-03 1.047197551197e-05 4.097119951795e-10 9.824178986931e-11 -9.150897780723e-11
253 2 1.442663982510e-02 7.974571087355e-03 8.755732805347e-03 1.329936221597e-07 2.418062423392e-06 1.932919144761e-06 9.665524240455e-04 -6.081702255026e-03 -2.027736614004e-03 1.000000000000e-03 1.047197551197e-05 -4.024099485618e-09 1.106954159676e-09 -7.183716687644e-09
254 2 4.384494575686e-03 3.999007546145e-03 1.013162475791e-03 2.623963621038e-82 5.341123267256e-82 3.712510610432e-83 -3.047898820710e+02 2.142112697329e+03 -1.076830197655e+02 1.000000000000e-03 1.047197551197e-05 -2.626471716778e-83 -5.346228539450e-83 -3.716059185562e-84
255 2 4.712166180571e-03 1.860067351314e-04 1.014384047135e-02 -3.673658852994e-07 9.118642177397e-07 -5.801432380899e-09 1.123961247792e-04 2.823098085721e-04 -4.673883406440e-05 1.000000000000e-03 1.047197551197e-05 8.184781645106e-10 -3.501251413525e-10 4.681273150482e-11
256 2 1.320157379019e-02 7.786056351016e-03 1.178595146801e-02 -2.816554774842e-07 3.880687215975e-07 -1.813976143158e-07 -3.511984700876e-04 1.791592819439e-04 1.281404593038e-04 1.000000000000e-03 1.047197551197e-05 2.764125795278e-10 1.073237796586e-09 -1.150844619053e-09
257 2 6.590620391016e-03 9.565949289541e-03 4.789947081986e-03 -1.842283457051e-07 5.135431235434e-07 3.199683143224e-08 -2.415909481576e-04 -5.345719559967e-04 -1.727580881731e-04 1.000000000000e-03 1.047197551197e-05 1.180531544844e-09 1.484836896086e-10 -4.204670124803e-10
258 2 2.491266578432e-03 1.819764647678e-03 1.227813864804e-02 -6.661437125925e-07 1.015452091597e-06 1.647533495580e-07 4.770298312859e-04 1.182900037738e-04 4.595192272939e-04 1.000000000000e-03 1.047197551197e-05 9.376908657516e-10 -3.004539164478e-10 -5.742602733749e-11
259 2 1.534031410183e-02 6.250078435918e-03 1.010096861246e-02 -4.395036034467e-07 1.387581856884e-06 -7.145478948307e-07 -4.425140653859e-04 -2.073038349721e-03 -6.244271077333e-04 1.000000000000e-03 1.047197551197e-05 3.958090401394e-10 7.542563039775e-10 -8.435778450605e-10
260 2 7.126184640083e-03 1.123869931282e-02 1.570602745373e-03 5.820094401374e-07 2.337476216773e-07 5.345124685733e-07 2.610484414992e-04 1.687266505800e-04 -2.038145646984e-04 1.000000000000e-03 1.047197551197e-05 5.137126122535e-11 1.296513769579e-10 -4.146461012498e-11
261 2 1.393592496539e-02 4.788809352530e-03 7.400675979674e-03 -1.236869051035e-06 9.821922686492e-07 -1.384298234282e-07 -4.668769219284e-04 -1.590398429178e-04 1.621756040283e-03 1.000000000000e-03 1.047197551197e-05 2.222290176836e-09 -5.134987708331e-10 -4.124581132464e-10
262 2 1.743032882657e-03 1.440799182645e-02 1.449964703700e-02 -3.903416273992e-07 7.195828496307e-07 -5.706732839486e-08 6.313429057321e-04 3.973948049377e-04 -1.605029795971e-04 1.000000000000e-03 1.047197551197e-05 5.511326356904e-10 -3.431195823347e-10 -3.155516234458e-11
263 2 1.024373512115e-02 7.037202719787e-03 3.275571202832e-03 -3.368379707724e-07 3.167305979817e-07 -2.209056243671e-08 -5.182976624755e-05 9.971236050470e-05 1.973051095640e-04 1.000000000000e-03 1.047197551197e-05 1.338881666039e-09 5.024375334969e-10 -2.172632609545e-10
264 2 1.210034951787e-02 1.258431464594e-02 1.084553891974e-03 6.012697639022e-07 -1.109513875004e-06 6.306163707895e-07 -1.605027593142e-04 1.965275291293e-04 1.824629009216e-04 1.000000000000e-03 1.047197551197e-05 -1.128378322617e-09 1.804141465453e-09 -1.191693470997e-09
265 2 1.497473924147e-02 1.196198826409e-02 1.456302878101e-02 -2.636654052763e-07 4.284257096498e-07 -3.759173194035e-08 3.292639586351e-04 3.574526915259e-04 5.491880359564e-04 1.000000000000e-03 1.047197551197e-05 3.775585858627e-10 -1.456087676154e-10 -1.218272009323e-10
266 2 8.092447496713e-03 1.257855064181e-02 1.333839681657e-02 -2.617104287075e-07 1.967583048236e-07 6.803775640564e-07 -1.239149661462e-04 3.866689513242e-04 1.594126325949e-04 1.000000000000e-03 1.047197551197e-05 4.075410231553e-10 1.688626762349e-10 -1.022231229574e-10
267 2 4.880231700467e-03 5.357098966303e-03 5.730516130824e-03 -7.914186993356e-07 1.005566703768e-06 -5.406501734282e-08 3.344520212053e-04 5.544344844185e-04 3.726990950701e-04 1.000000000000e-03 1.047197551197e-05 2.083524516232e-09 -7.330095162966e-10 -1.819067654593e-10
268 2 5.039062076588e-03 9.728518529118e-03 1.330842295226e-02 -2.803588497036e-07 3.778131575164e-07 2.312078200452e-07 6.143870910381e-04 1.364114452480e-04 5.403085337399e-04 1.000000000000e-03 1.047197551197e-05 1.629588738591e-10 7.978996896591e-11 -8.917017214351e-11
269 2 5.473461700937e-03 1.051246869119e-02 3.048888167858e-03 1.006199547576e-07 2.852434170140e-07 -6.502497775204e-07 -6.184475652691e-04 2.393537472894e-04 -1.412998994456e-04 1.000000000000e-03 1.047197551197e-05 3.937196488204e-10 7.522646129463e-11 4.286150067071e-10
270 2 4.976084422918e-03 3.012589964865e-03 1.448941830103e-02 -1.085490834304e-07 2.688492750433e-07 -6.013728445530e-08 2.207089838136e-04 1.199611790083e-04 2.580923910725e-05 1.000000000000e-03 1.047197551197e-05 2.933821006181e-10 2.483427350980e-11 -8.087789077331e-11
271 2 5.952179350922e-03 7.662619862777e-03 9.325614579835e-04 3.284697008078e-07 9.565124155476e-08 -4.525654845719e-08 -3.812419825152e-05 3.606476071940e-04 1.934101304618e-04 1.000000000000e-03 1.047197551197e-05 -1.594128946532e-10 -3.238655641541e-11 7.887139224890e-11
272 2 1.085688482235e-02 8.009653890424e-03 1.362378739061e-02 4.268949439923e-08 4.790584589678e-07 1.043912858002e-07 -1.587742532996e-04 -2.777773606145e-04 7.413646351837e-05 1.000000000000e-03 1.047197551197e-05 1.710902391648e-10 -1.137228219012e-10 -1.213849273503e-10
273 2 1.081479582146e-02 5.083379860066e-03 6.299714919634e-03 -6.125654993347e-07 6.325676133457e-07 -2.284919962489e-07 4.257954483870e-05 8.750853923348e-05 4.747761615200e-05 1.000000000000e-03 1.047197551197e-05 1.306626364656e-09 -1.228034409908e-10 3.213803226374e-10
274 2 1.965760947348e-04 3.412927144209e-03 1.174529810346e-02 -3.552668754845e-07 1.320516850670e-06 -3.449807503564e-07 -4.094273323743e-04 -1.156337752128e-05 5.518999363227e-05 1.000000000000e-03 1.047197551197e-05 8.906114706059e-10 -1.108960452305e-09 6.678526746451e-10
275 2 6.477815739325e-03 1.170682619608e-02 7.854592904158e-03 -1.054210476715e-06 6.707804430554e-07 1.202962821650e-06 -3.010800777604e-04 5.860555892085e-04 -3.330399231719e-04 1.000000000000e-03 1.047197551197e-05 1.217207294980e-09 -1.556929397596e-10 -6.188993614697e-10
276 2 3.067358060911e-04 1.224183094673e-02 1.129971415739e-02 -5.052856909914e-07 1.119501329110e-06 -1.894497045854e-07 -4.462642574324e-04 3.576935471976e-04 5.542784075951e-04 1.000000000000e-03 1.047197551197e-05 6.592897984606e-10 -7.354227113914e-10 -3.554924556121e-10
277 2 6.266843972989e-03 1.287395669583e-02 9.321309283438e-04 2.929931865259e-07 1.815168115979e-07 1.484443911949e-07 -2.479626025451e-04 5.557240389011e-05 1.038560841170e-04 1.000000000000e-03 1.047197551197e-05 1.003874357017e-11 5.647821299171e-11 -2.831207414597e-11
278 2 8.011857429650e-03 7.088200769159e-03 7.534457786516e-03 -6.960457142895e-07 4.299776295706e-07 2.216185120517e-07 4.447366795349e-04 -5.133993292728e-04 4.153024588875e-04 1.000000000000e-03 1.047197551197e-05 1.502833317126e-09 2.742140535783e-10 -3.079512669472e-10
279 2 8.851401779184e-03 1.038622719306e-02 8.897207849544e-03 -1.330858276508e-06 1.330515200736e-07 9.926973230092e-07 -5.249785053533e-05 1.101488427573e-04 -8.639900133789e-05 1.000000000000e-03 1.047197551197e-05 1.372920772208e-09 1.547603585614e-10 -4.227564442442e-10
280 2 6.447445977459e-03 4.143806148015e-03 9.235183961340e-04 -7.232252137670e-08 1.015496825822e-07 4.729187071408e-08 -5.063628312770e-05 -3.326251535496e-05 1.070685617895e-04 1.000000000000e-03 1.047197551197e-05 7.725031921030e-10 6.062991388612e-11 -1.706124275047e-11
281 2 4.377075720335e-03 1.326267619063e-02 8.253988051831e-04 2.249501890430e-07 1.896355933894e-07 4.517060519618e-09 -1.555200112242e-04 7.646197631080e-05 1.506732660676e-04 1.000000000000e-03 1.047197551197e-05 1.640283839431e-10 3.010207308617e-11 -1.324173402197e-10
282 2 1.219245379661e-02 1.304284916710e-02 9.093288541992e-03 -6.184209513076e-07 1.002671365533e-06 -7.624153978670e-07 4.038382880012e-04 2.598573088117e-05 -3.611238393029e-04 1.000000000000e-03 1.047197551197e-05 6.264460769593e-10 -8.268892139348e-10 1.701702137225e-10
283 2 8.180497391484e-03 9.300757329163e-03 1.449999760361e-02 -5.080845375107e-08 1.518591764144e-07 7.190022418274e-08 8.863072978012e-05 4.021037115490e-05 1.530635791287e-04 1.000000000000e-03 1.047197551197e-05 1.495934988083e-11 -1.037460570150e-10 9.113578852433e-12
284 2 1.009505949229e-04 6.152161490756e-03 2.087887815798e-03 -1.844554992657e-07 3.939591186039e-07 -4.366935118319e-07 4.019694485929e-04 5.778533753718e-04 -1.557984962649e-03 1.000000000000e-03 1.047197551197e-05 5.984233162312e-10 3.207829459177e-10 6.759735813517e-10
285 2 1.052430554077e-03 1.275635853324e-02 1.382455156789e-02 -5.708640070984e-07 9.921961569832e-07 -2.163974260056e-07 -2.925164948563e-04 -1.496315046400e-04 -1.848979429840e-05 1.000000000000e-03 1.047197551197e-05 7.605213245003e-10 -5.419043684977e-10 5.172352905499e-12
286 2 1.246487534701e-02 2.883810981392e-03 4.436764595510e-03 -2.866310702912e-07 5.684606593168e-07 -2.616956879091e-07 -5.873064581991e-05 -1.142315211136e-04 6.155121881960e-05 1.000000000000e-03 1.047197551197e-05 9.630367151283e-10 -1.962368684797e-10 3.811067574564e-10
287 2 9.634642287291e-03 6.967601283183e-03 1.260393613498e-02 3.859894213322e-09 3.924413974096e-07 1.734270021444e-07 9.873589184335e-05 2.084333041428e-04 7.645816567921e-06 1.000000000000e-03 1.047197551197e-05 4.920426173029e-11 5.413924164662e-11 -1.226801602994e-10
288 2 7.215669424011e-03 1.273839857338e-02 2.808792779539e-03 8.444991084489e-07 5.822979343343e-07 7.417374229184e-07 -8.871481478768e-04 -2.684267609201e-04 6.230912250101e-04 1.000000000000e-03 1.047197551197e-05 -3.951832852038e-10 4.854780407262e-10 -8.587646556351e-11
289 2 1.141423956931e-03 9.186550861624e-03 3.038036279823e-03 5.702468939120e-07 -4.070142055119e-07 2.543510715584e-06 -2.884066551561e-03 2.300948458441e-03 6.702739322423e-04 1.000000000000e-03 1.047197551197e-05 -4.224105000349e-10 2.872780995229e-09 -4.294496962984e-10
290 2 8.877062290567e-03 8.581193598867e-03 8.326929306748e-03 -1.472333284599e-06 4.294233171228e-08 8.618314101357e-07 1.734888665661e-04 7.215654025389e-05 -4.147570764315e-05 1.000000000000e-03 1.047197551197e-05 1.403167413792e-09 2.173875019302e-10 -4.913632659534e-10
291 2 5.924894973364e-03 5.297714071947e-04 1.902098051987e-03 2.466095517929e-07 3.056058432820e-07 9.479763237913e-08 8.813676688592e-05 -4.087476361031e-04 5.125904834934e-08 1.000000000000e-03 1.047197551197e-05 2.755045713030e-10 1.586531160163e-10 -9.103030499448e-11
292 2 1.374086867999e-02 3.365550098912e-03 1.249532720090e-02 -1.800273318062e-07 9.564825696659e-07 -1.312605090668e-07 5.026819569880e-04 3.289414332884e-04 8.194646931626e-05 1.000000000000e-03 1.047197551197e-05 2.363964930675e-10 -5.758784781514e-10 -8.178057899691e-11
293 2 9.513259469292e-03 9.895284198915e-03 3.998159598636e-03 -1.468963599576e-06 -1.635186672823e-06 5.006630231748e-07 -1.338450897505e-03 -9.795007968215e-04 -4.665016179089e-04 1.000000000000e-03 1.047197551197e-05 1.948404410757e-09 2.806130262681e-09 -1.477301897738e-09
294 2 5.576782571509e-03 1.107656661707e-02 4.868705059048e-03 3.425506843416e-07 1.071324962442e-06 -6.622821670484e-07 7.187798617319e-05 -2.898260071068e-04 -5.470198852811e-04 1.000000000000e-03 1.047197551197e-05 9.108898816057e-10 -2.231048987231e-10 4.423297680253e-10
295 2 1.299431220183e-03 8.380512066847e-03 1.315202834946e-02 1.299107400990e-07 9.603811172332e-07 2.841088794633e-07 -2.230782417815e-07 -4.593517549707e-04 -5.023643101180e-04 1.000000000000e-03 1.047197551197e-05 -4.650579883922e-10 -6.701450417409e-10 -7.264896962026e-10
296 2 1.072856589229e-02 1.173644077080e-02 2.694579795003e-03 7.853721071543e-08 -9.414977109165e-07 1.995494769723e-06 5.276430173087e-04 -1.547403702583e-03 3.294014991298e-04 1.000000000000e-03 1.047197551197e-05 -1.909367832374e-09 3.877671467294e-09 3.886596893150e-11
297 2 1.312632300034e-02 1.082185274625e-02 6.154561718904e-03 1.075986507132e-05 9.392605219967e-06 6.747355396597e-06 -2.608238723862e-02 1.588969763400e-02 3.664696280983e-02 1.000000000000e-03 1.047197551197e-05 -4.181173913816e-09 -4.614455022692e-09 -1.485471724612e-08
298 2 3.632126543146e-03 1.490467145626e-02 1.444710548334e-02 -3.364805582436e-07 5.053317252014e-07 -9.537580891333e-08 3.103332078468e-04 3.662518063228e-04 1.013408471860e-04 1.000000000000e-03 1.047197551197e-05 4.908656077077e-10 -1.784908727716e-10 3.147518047068e-11
299 2 1.452550894068e-03 8.257557702079e-03 9.345620120213e-03 2.101559163499e-06 2.392155599818e-06 2.152408428765e-06 3.065021949611e-03 -4.062964616994e-03 -1.038741597390e-03 1.000000000000e-03 1.047197551197e-05 -1.596248782877e-09 -2.433904654815e-09 -3.125439708111e-09
300 2 4.221435505218e-03 4.944106335290e-03 1.124669305939e-02 -1.929837659456e-07 1.002054272927e-06 -1.770898268477e-07 1.814872325769e-04 4.402174870809e-07 1.657854098159e-04 1.000000000000e-03 1.047197551197e-05 2.285849725937e-10 -3.520035873628e-10 -4.615320174610e-11
301 2 1.382643825956e-02 3.486043401929e-03 1.442648977285e-02 1.384862367863e-07 2.347540670477e-07 -5.242673006189e-08 1.268108993394e-04 -8.651845458030e-05 -9.095857015723e-04 1.000000000000e-03 1.047197551197e-05 -3.511918326314e-10 -4.499622769149e-10 -4.080814116840e-12
302 2 1.396519044840e-02 1.154901720209e-02 9.614420151162e-03 -4.662246453100e-07 1.836275223411e-06 -1.206481786355e-07 1.121537641901e-03 1.671098476767e-03 -8.229986934483e-04 1.000000000000e-03 1.047197551197e-05 5.842778253021e-10 -1.337087398349e-09 -1.314451461377e-10
303 2 1.854084436798e-03 1.274520197782e-02 7.422549395112e-03 -3.868977429820e-07 1.226021997249e-06 -6.058842187112e-07 -1.676730133581e-04 1.558118764739e-04 1.479430839608e-03 1.000000000000e-03 1.047197551197e-05 1.376296530515e-09 -4.804287274058e-10 2.914114309498e-10
304 2 1.783075278369e-03 6.757908129150e-03 1.038621599423e-02 -7.451488371252e-07 6.850944612326e-07 3.270252478313e-07 4.631912276368e-04 8.927508847371e-04 -1.701485259307e-04 1.000000000000e-03 1.047197551197e-05 1.520023677321e-09 1.058191436619e-10 -5.200902238296e-10
305 2 1.639773213741e-03 1.114005670571e-02 5.664539726326e-03 2.875914790252e-06 1.844485078213e-06 -9.200481876757e-07 2.237820830944e-03 -1.901200064220e-03 9.009688835477e-04 1.000000000000e-03 1.047197551197e-05 2.824545780479e-10 9.369174089706e-11 8.640075959138e-10
306 2 1.413643276421e-02 4.208084346898e-03 5.551020769732e-03 -5.618197495182e-07 3.528925908611e-07 1.864034857906e-09 8.518941239047e-04 -2.759218834852e-04 -8.044266952750e-04 1.000000000000e-03 1.047197551197e-05 1.169875007266e-09 4.875035369857e-10 -4.984453502421e-10
307 2 1.378853571140e-02 1.004450741250e-02 4.521919925675e-03 3.542094367854e-06 1.625996561557e-06 4.298885140758e-06 1.930093226789e-03 4.194550823296e-03 2.091014229474e-03 1.000000000000e-03 1.047197551197e-05 -1.168162816309e-09 8.006391817825e-09 -1.066646483750e-08
308 2 1.127505179456e-02 7.497999475368e-03 1.178238433304e-02 -9.549194484127e-08 3.890525704281e-07 -6.714552808517e-08 -3.241732388139e-04 -7.746024476755e-06 -2.010383264233e-04 1.000000000000e-03 1.047197551197e-05 2.540610701243e-10 5.141162547496e-10 2.178319528174e-10
309 2 3.605699523853e-03 1.002846760625e-02 9.622757233167e-04 -1.476095964880e-07 2.325909915339e-07 1.107455722134e-07 -9.399490636989e-05 -1.812070215724e-04 1.396695132728e-04 1.000000000000e-03 1.047197551197e-05 3.787692600044e-10 -1.108950211063e-10 -2.496882900445e-10
310 2 6.905130551672e-03 9.125104505161e-03 3.035316075776e-03 -2.638166274734e-07 1.184089548735e-07 -1.128592524259e-07 -2.235921305063e-04 4.986160876703e-04 -3.212887391585e-06 1.000000000000e-03 1.047197551197e-05 4.355787458201e-10 1.674104108955e-10 -3.408700234687e-10
311 2 1.278914979031e-02 1.241047613766e-02 7.280804563035e-03 -2.347783887370e-06 1.392558472592e-05 -1.026035762809e-06 7.463123438600e-04 5.800780318228e-03 9.211339427843e-03 1.000000000000e-03 1.047197551197e-05 3.137706949559e-09 -1.878543651493e-08 -4.465890542522e-10
312 2 1.245251530625e-02 1.088092895129e-02 8.510068705067e-03 1.410888834693e-06 4.933307801003e-06 -1.714465868204e-06 4.128400059149e-03 -2.900848194065e-03 1.553337183612e-03 1.000000000000e-03 1.047197551197e-05 -3.658493802044e-10 -2.249899632228e-09 4.675401633466e-09
313 2 8.325336557616e-03 1.005355228962e-02 2.549699001806e-03 -8.676194850665e-08 -5.756391704941e-07 -2.362300908264e-07 8.653675631504e-04 -1.594182517620e-04 -9.503960465309e-04 1.000000000000e-03 1.047197551197e-05 2.548413974685e-10 4.788537326756e-10 -7.569603566424e-11
314 2 5.034673693996e-03 1.358167533705e-02 1.261191555478e-02 -4.177242586031e-07 9.809728269219e-07 1.945908454704e-07 5.983686382848e-05 -2.241872330602e-04 5.713442232357e-04 1.000000000000e-03 1.047197551197e-05 5.040747537752e-10 -5.753267675400e-10 -2.396555082202e-10
315 2 4.099959975623e-03 1.011428903524e-02 8.018692786714e-03 -1.798001125459e-07 -8.389707891890e-08 -3.730758931382e-08 -4.712361563013e+01 -7.650486479115e+00 -3.087375410892e+01 1.000000000000e-03 1.047197551197e-05 7.505291088356e-10 3.398876199228e-10 1.492621929957e-10
316 2 7.659474479589e-03 5.487171632823e-03 6.073897975631e-03 -3.726470017396e-07 4.957707196485e-07 2.763894618955e-07 7.751362309376e-05 -1.161488039428e-04 2.978960596398e-04 1.000000000000e-03 1.047197551197e-05 1.201948694604e-09 9.640484648234e-12 -1.854910987744e-10
317 2 1.382953637383e-02 4.289464256937e-04 1.447366751973e-02 -1.855326079684e-07 6.617614751746e-07 2.329337544976e-08 5.873960433764e-04 1.492388922624e-04 -1.860414517771e-04 1.000000000000e-03 1.047197551197e-05 3.072960719307e-10 -7.788483651332e-10 -1.252277287919e-11
318 2 1.397203664338e-02 2.849106014165e-03 7.402446969869e-03 5.287378528230e-08 1.367513163029e-06 -1.013866995373e-07 1.436618816436e-04 -5.242598134918e-04 1.051164515161e-04 1.000000000000e-03 1.047197551197e-05 4.373131298115e-10 -1.430287614815e-09 -1.370427291104e-09
319 2 3.185814392652e-03 1.213418413304e-02 1.152474083759e-02 -7.828578918346e-07 1.192066223366e-06 -1.091217679012e-07 6.917053953124e-04 1.948350776167e-04 -5.630364815650e-04 1.000000000000e-03 1.047197551197e-05 9.114879871496e-10 -7.215042677595e-10 -2.183755159731e-11
320 2 6.784566848654e-03 9.085401261670e-03 1.009888426498e-02 -6.713729235883e-07 3.321641478952e-07 6.251120686011e-07 -8.828222007662e-05 -5.508352419928e-04 1.046973308950e-03 1.000000000000e-03 1.047197551197e-05 9.313679406079e-10 1.355543897946e-10 -7.104628781177e-10
321 2 6.696217960952e-03 1.289903659796e-02 1.197626982250e-02 -4.783080746899e-07 7.218336688568e-07 5.191573562767e-07 -7.831344215607e-04 1.965582932143e-04 -6.460334315982e-04 1.000000000000e-03 1.047197551197e-05 6.640749625321e-10 -2.018525631437e-10 -2.120773476369e-11
322 2 1.492821615660e-02 6.198528725593e-03 8.222239753015e-03 -2.287247446396e-06 2.664527079923e-06 -1.270982520743e-06 1.831248310889e-03 4.871570904849e-03 2.209516136724e-03 1.000000000000e-03 1.047197551197e-05 3.783773543329e-10 8.107076943695e-10 -1.301476310010e-09
323 2 1.013960455038e-02 9.611589621177e-03 1.442332919575e-02 -6.536637116627e-08 3.321600350376e-07 -1.778887770677e-08 2.327402818471e-04 8.080027255395e-05 7.396292979425e-06 1.000000000000e-03 1.047197551197e-05 1.397211502920e-10 -8.228109572493e-11 2.102292601100e-10
324 2 1.360741767597e-03 9.113854201703e-03 7.673809671542e-03 4.213049621359e-06 9.187677288665e-07 3.563184267871e-06 -4.933480177419e-03 8.970146584666e-04 8.333905579192e-03 1.000000000000e-03 1.047197551197e-05 -3.824267338046e-09 -1.101935241275e-09 -4.342739185622e-09
325 2 7.239073877108e-04 7.115344563510e-03 1.447830589778e-02 8.536648366889e-09 5.203415138895e-07 2.024082089510e-08 3.138534121941e-04 -6.160357638745e-05 7.057611899254e-04 1.000000000000e-03 1.047197551197e-05 -2.512719234205e-10 -2.709939907422e-10 -4.363513830138e-10
326 2 7.438852138387e-04 6.978763766259e-03 1.189415527728e-02 -1.880906334780e-07 1.071384660972e-06 1.939587461243e-07 4.337199335320e-05 -6.735432156090e-04 -1.054098595556e-03 1.000000000000e-03 1.047197551197e-05 1.446061435708e-10 -5.284624869404e-10 -1.337795477888e-09
327 2 6.078530653252e-03 1.448623613163e-02 1.110445098365e-02 -2.742056804255e-07 6.660789744267e-07 -7.259808994625e-08 3.790183315826e-05 -1.010232722497e-04 2.089043372079e-05 1.000000000000e-03 1.047197551197e-05 6.803653223099e-10 -1.336691786568e-10 3.400852734520e-10
328 2 9.537323565433e-03 1.423880907575e-02 9.070107059960e-03 -8.699933914327e-07 4.705444655654e-07 -6.005072569214e-08 -3.985338525920e-04 -3.404936619712e-05 -4.751313467229e-04 1.000000000000e-03 1.047197551197e-05 9.043712623304e-10 2.292861666519e-10 6.740663280332e-10
329 2 1.789441814228e-03 7.325941037673e-04 9.310265818215e-04 -7.192171681240e-09 2.225476029662e-07 -5.663438355011e-08 -5.969134840060e-05 -7.686357606706e-06 -2.423731880394e-04 1.000000000000e-03 1.047197551197e-05 3.954406780862e-10 1.022493673981e-10 -1.358776409058e-10
330 2 2.483771727519e-03 6.845498609755e-03 1.279290291601e-02 -1.536847218349e-10 8.069747835718e-07 -1.272893965392e-07 4.521933273534e-04 -7.857469366151e-04 -2.252715022771e-04 1.000000000000e-03 1.047197551197e-05 -8.236134203672e-11 -3.277157079398e-10 -1.180413586685e-10
331 2 5.411111804272e-03 1.139323670532e-02 1.431948502247e-02 -4.278385264672e-07 3.366383874184e-07 2.072261252817e-07 -6.322565314290e-04 -1.628869258004e-04 -2.715116401372e-04 1.000000000000e-03 1.047197551197e-05 2.303320107764e-10 -6.223711614746e-11 -2.918752097505e-10
332 2 1.291895902608e-02 7.879529803823e-03 4.413460835016e-03 -1.600052121234e-07 6.768877427539e-07 1.595524166031e-06 -7.705745024839e-05 -2.730870514146e-03 2.372207799409e-04 1.000000000000e-03 1.047197551197e-05 6.771037811004e-10 1.650817246292e-09 -1.577977580410e-09
333 2 5.224879768689e-03 6.625641772966e-04 1.189266608146e-02 -3.946079255823e-07 5.765703872776e-07 -1.502089765777e-08 1.716579039178e-04 -2.871641358478e-04 -2.116505228761e-05 1.000000000000e-03 1.047197551197e-05 7.715142194256e-10 -7.843602505481e-11 4.729823670779e-11
334 2 1.631590522320e-03 7.151322139026e-03 6.484511983037e-03 -2.929306004785e-06 1.144734531458e-06 -1.695080827281e-07 2.168293035896e-03 -2.466191601677e-03 1.134207536457e-04 1.000000000000e-03 1.047197551197e-05 7.160771569911e-09 -3.468850905138e-09 2.619403445733e-09
335 2 1.150769988435e-02 1.597307914416e-03 8.866289587418e-03 -4.564338591811e-07 1.031693344577e-06 5.123901890313e-07 3.057272268738e-04 -5.828610613593e-04 4.603595266113e-04 1.000000000000e-03 1.047197551197e-05 1.267877963763e-09 -8.999876344935e-10 -9.274255684972e-10
336 2 3.446871941999e-03 1.242052720795e-02 4.173198528528e-03 5.782491266353e-07 1.806301487317e-06 8.872537609778e-08 -4.391185490829e-04 5.610457340274e-04 -9.880986143510e-04 1.000000000000e-03 1.047197551197e-05 5.034518149417e-10 -9.519767443252e-10 -8.395879707190e-12
337 2 5.757565046943e-03 1.038349974641e-02 9.104909947771e-03 -7.949812454878e-07 5.648000853829e-07 1.126155455281e-06 8.446782480991e-04 3.768559046664e-04 -4.940607012753e-04 1.000000000000e-03 1.047197551197e-05 8.636112734224e-10 5.357836692341e-11 -5.354130438800e-10
338 2 1.200224547001e-02 1.119797885517e-02 4.034249421908e-03 2.202971611962e-06 -1.758033474886e-06 1.354528310937e-06 2.643804384798e-03 3.022112064689e-03 2.299650157326e-03 1.000000000000e-03 1.047197551197e-05 -4.250472861770e-09 1.347661320439e-09 -2.279279644478e-09
339 2 1.147299996786e-02 1.512057652912e-03 5.289039055567e-03 -3.643925548932e-07 2.931756277865e-07 -2.522420771390e-07 -4.165136658320e-04 -3.843837695330e-04 3.606060877786e-04 1.000000000000e-03 1.047197551197e-05 9.579317382849e-10 -4.818809390550e-10 5.725027069433e-11
340 2 1.378814858566e-03 6.971690638828e-03 9.453448138167e-04 -1.246098656035e-08 8.457434181967e-08 -2.027880500771e-07 1.553249962494e-04 -1.377511404443e-04 6.145076815792e-04 1.000000000000e-03 1.047197551197e-05 -1.943147267496e-10 3.403773793475e-10 2.693444410935e-10
341 2 3.084730992492e-03 5.646109523654e-03 9.185140433173e-04 -9.414149506562e-09 2.635919187280e-07 -5.390440431422e-09 -2.165611121003e-04 -2.181439497369e-06 -4.151561303349e-05 1.000000000000e-03 1.047197551197e-05 9.680434837637e-11 3.104089496755e-10 -2.109089542158e-10
342 2 1.218802979761e-02 2.351015867848e-03 6.878221822217e-03 -2.067101075470e-07 9.986209985569e-07 -2.692702364904e-07 -1.486649147716e-04 5.576307087433e-04 7.131934880418e-05 1.000000000000e-03 1.047197551197e-05 5.460232980009e-10 -9.384108096421e-10 4.104224723301e-10
343 2 3.774078047292e-03 6.831646787324e-03 1.110360546286e-02 -1.057496119620e-07 1.070551752645e-06 -1.367673508517e-07 -1.190053357119e-04 3.056192031973e-04 -3.658887778895e-04 1.000000000000e-03 1.047197551197e-05 6.029795805422e-10 -5.553775753519e-10 9.496749551182e-11
344 2 1.141733185898e-03 2.729854222954e-03 1.328107190123e-02 -1.120827526724e-06 8.149823090879e-07 1.171491538123e-07 -8.111726766342e-04 -4.257275684786e-05 1.723277145104e-04 1.000000000000e-03 1.047197551197e-05 1.515943185900e-09 -5.368068111699e-10 3.577128241728e-10
345 2 8.011874080808e-03 1.430653231528e-02 1.428080125750e-02 -1.344830148989e-07 2.658285472313e-07 5.056697887536e-07 -1.145667077410e-04 3.986208260813e-04 3.018430662387e-05 1.000000000000e-03 1.047197551197e-05 3.752161617120e-10 2.168284155043e-10 -2.942485873121e-10
346 2 9.260575710675e-03 8.470979808084e-04 3.408093518492e-03 2.882293765013e-07 -1.509322331591e-07 -4.513428009613e-08 6.100956141306e-04 -7.180712519781e-04 -3.005552111219e-04 1.000000000000e-03 1.047197551197e-05 7.420859859078e-10 9.016424575919e-11 -1.326561753013e-10
347 2 9.882111424459e-03 8.869364417471e-03 1.213694606247e-02 8.392835206419e-08 3.493432275037e-07 2.247340562286e-07 7.596664261407e-05 1.478143761411e-04 -2.749266109727e-05 1.000000000000e-03 1.047197551197e-05 -2.727200198702e-10 1.667604775244e-10 2.273565032648e-10
348 2 1.130980806590e-04 1.059706043615e-02 2.284047086262e-03 -1.666336664177e-07 -1.272368873439e-06 1.201224016372e-06 1.099947121088e-03 -1.258413207736e-03 1.789233033192e-04 1.000000000000e-03 1.047197551197e-05 1.595104108322e-09 3.124188402014e-09 -2.183238236178e-09
349 2 1.514583997952e-02 2.237037666761e-04 5.857514583075e-03 1.261347597818e-06 2.244265759043e-06 -9.670984476274e-08 -7.580707891385e-04 1.307727099679e-03 2.319389595084e-03 1.000000000000e-03 1.047197551197e-05 2.649855919930e-10 -7.044958248135e-10 -1.928518564976e-10
350 2 8.202552427132e-03 1.298826415184e-02 9.463925711589e-04 2.620095249238e-07 -2.396552899601e-08 2.477094000739e-07 -1.024872698001e-04 -7.334555388027e-05 -1.811346469887e-04 1.000000000000e-03 1.047197551197e-05 -2.140797517726e-11 3.187145638778e-10 -2.752710889180e-10
351 2 6.540925231047e-03 1.305100312609e-02 1.406369476967e-02 -3.058938064900e-07 3.712448285812e-07 3.816820042865e-07 2.171714602193e-05 -6.767557272035e-04 -2.468909303536e-04 1.000000000000e-03 1.047197551197e-05 3.328248556371e-10 2.365434776143e-10 8.154413811913e-11
352 2 4.128308241675e-03 4.670645909656e-03 1.413496263983e-02 -2.335957526279e-07 2.740881992222e-07 -8.101741661572e-08 -9.305596850856e-05 -2.014493776425e-04 3.973464039672e-05 1.000000000000e-03 1.047197551197e-05 4.599223559086e-10 -5.625183754457e-13 2.397211831239e-11
353 2 1.044147744898e-02 4.307256791394e-03 1.235364215743e-02 -1.570340818009e-07 3.830469393631e-07 -1.353130393289e-07 2.653558304656e-04 -2.844247280540e-04 -6.184255379794e-05 1.000000000000e-03 1.047197551197e-05 3.923878699219e-10 1.469772301626e-10 -1.220546576720e-10
354 2 2.635776585003e-03 7.624980685073e-03 8.010986443005e-03 1.335306932333e-06 4.772084818495e-07 1.048104743152e-06 3.159562447147e-05 3.168834978076e-03 -3.607115853363e-03 1.000000000000e-03 1.047197551197e-05 1.153757330739e-09 3.172120577826e-10 -7.054948039806e-10
355 2 6.190179413038e-03 9.639933632528e-03 9.484897606907e-04 2.566175108405e-07 1.138276213245e-07 9.744264589923e-08 9.243465372937e-05 1.537075143085e-04 2.594675789524e-05 1.000000000000e-03 1.047197551197e-05 -8.228614005434e-12 1.719443297107e-10 -1.463641058807e-10
356 2 4.467897743277e-03 6.065564818332e-03 3.874057241256e-03 -2.408932568703e-07 5.363079460276e-07 4.744431681990e-07 -2.570612419451e-04 -3.361687971685e-05 -3.822885129960e-04 1.000000000000e-03 1.047197551197e-05 1.636469187101e-09 -3.042357457427e-10 -6.723436632184e-10
357 2 7.247545888989e-03 9.546151863141e-03 8.322462138701e-03 -1.059859676519e-06 3.141305255058e-07 7.105147030293e-07 -5.984575275052e-05 -1.359839505925e-04 -1.141969173334e-04 1.000000000000e-03 1.047197551197e-05 1.099814196914e-09 2.610500517865e-10 -7.141915164421e-10
358 2 3.158796459686e-03 1.222484526227e-03 1.060548419673e-02 -4.660888985145e-07 1.152806709113e-06 2.989269835499e-08 -3.602693822576e-04 -1.013654351928e-04 4.432030814457e-05 1.000000000000e-03 1.047197551197e-05 7.783336970014e-10 -4.221633873035e-10 -7.284535141794e-11
359 2 1.820517817454e-03 3.171372436327e-03 8.357470128686e-03 -1.585078117729e-07 2.056326302255e-06 1.451500762649e-07 5.249817612742e-04 -9.168589466431e-05 -4.582105954361e-04 1.000000000000e-03 1.047197551197e-05 3.098257254181e-10 -2.186145226669e-09 -3.322668566339e-10
360 2 4.480009303824e-03 1.468131768272e-02 1.939320698983e-03 3.197237819269e-07 6.676384320671e-07 -1.762985443377e-07 -2.869642281648e-04 2.619416543142e-05 -1.709495429031e-04 1.000000000000e-03 1.047197551197e-05 4.132884883942e-10 -2.117081763564e-10 -6.107004471176e-11
361 2 9.310120250803e-03 1.006578671730e-02 5.893308028870e-03 -2.978225362628e-06 6.161013128464e-07 4.192133845420e-07 -5.567169040915e-04 -5.413283547869e-04 1.005114868149e-03 1.000000000000e-03 1.047197551197e-05 3.190073457011e-09 3.730015946489e-10 -7.155389065106e-10
362 2 4.319476975288e-03 9.618465751788e-03 4.344368329198e-03 3.045111880465e-07 8.857420558916e-07 -2.506313271587e-07 -1.191261864651e-03 -4.533104004353e-04 7.913977651027e-04 1.000000000000e-03 1.047197551197e-05 2.684811196856e-10 -1.972209525735e-10 1.950560317627e-10
363 2 4.856287102110e-03 1.327841342352e-02 1.453099980862e-02 -3.331124350997e-07 4.135810939511e-07 -9.636910014631e-09 4.183216481093e-04 2.571696136848e-04 4.875796314267e-05 1.000000000000e-03 1.047197551197e-05 5.008500447511e-10 3.996649014766e-11 2.060686230353e-11
364 2 7.519071128277e-03 6.465909335166e-03 9.757926068802e-04 3.756177012355e-07 2.783039845075e-07 -2.644049661469e-07 -3.419511786272e-04 3.830551051732e-04 -2.063589123047e-04 1.000000000000e-03 1.047197551197e-05 7.794962400541e-11 -2.211081583926e-10 2.511797003878e-10
365 2 5.944342735947e-03 1.351865940025e-02 7.377917819364e-03 2.539655736344e-08 8.348396404498e-07 3.301981265845e-07 -3.971159683517e-04 -1.060361325043e-03 -5.415631663831e-04 1.000000000000e-03 1.047197551197e-05 9.298942159858e-10 -9.170642222036e-11 -9.591260412705e-11
366 2 8.716607439350e-03 8.276267556304e-03 3.086599218051e-03 -8.136771228556e-07 -2.111926779697e-07 -2.587018856284e-07 -7.381552501879e-04 -2.558622057388e-04 3.658826573298e-04 1.000000000000e-03 1.047197551197e-05 1.382882637994e-09 4.067795512374e-10 4.270233459217e-11
367 2 1.498403114160e-03 1.383296309796e-02 1.231684119630e-02 -3.973777987767e-07 8.666556465391e-07 -2.519071940586e-07 1.450864459774e-04 -5.738958890721e-05 1.630821712553e-04 1.000000000000e-03 1.047197551197e-05 6.343703809108e-10 -4.697929451124e-10 -5.198718905679e-11
368 2 9.810074924656e-03 5.761099730892e-03 4.723619034587e-03 -5.805238611894e-07 4.878004342604e-07 -1.508216369262e-07 1.478182873005e-04 -8.212653007989e-05 4.594699912620e-05 1.000000000000e-03 1.047197551197e-05 1.625483821505e-09 -6.630752839270e-11 1.650652768246e-10
369 2 3.940169257183e-03 7.380577461710e-03 1.110697357165e-03 5.211254143859e-09 1.861648907861e-07 6.857828606781e-08 1.803396635385e-04 -2.515703784711e-04 -3.493873525662e-05 1.000000000000e-03 1.047197551197e-05 1.098828733637e-10 2.610909434788e-10 -1.326338380058e-10
370 2 3.947461645527e-03 8.153870932140e-03 1.286634065936e-02 -1.398380048432e-07 4.814429882634e-07 2.076822979243e-07 5.503349207145e-05 3.619257221422e-04 -1.680210981981e-04 1.000000000000e-03 1.047197551197e-05 1.983533349528e-10 -2.305314764966e-11 -2.574629575949e-10
371 2 1.415541554253e-02 1.325234503442e-02 8.793296595124e-03 -8.914848787932e-08 1.400238513828e-06 -5.797233874142e-07 -1.205782267550e-03 -6.092463140973e-04 2.966645616110e-04 1.000000000000e-03 1.047197551197e-05 4.758084373356e-10 -1.536637907527e-09 -7.456880986338e-10
372 2 9.554105199009e-03 1.305388322808e-02 1.438981247155e-02 -2.406082588943e-09 2.726105833057e-07 1.787066951302e-07 1.936303320389e-04 1.309828391871e-04 6.295649877267e-05 1.000000000000e-03 1.047197551197e-05 1.398487398675e-10 1.237235339180e-10 -3.738268382913e-11
373 2 1.019840883992e-02 4.749266867979e-03 9.340720833641e-03 -3.258406061548e-07 7.731730816149e-07 -2.441120997101e-07 5.952675388043e-04 -7.785388307167e-05 1.061737062737e-04 1.000000000000e-03 1.047197551197e-05 9.693559462851e-10 -1.826955097157e-10 5.401559499754e-10
374 2 1.218356721659e-04 1.306186077365e-02 3.357982890981e-03 1.597726492552e-06 5.585173549633e-07 -5.399003637429e-07 2.307975879871e-03 -8.313150915903e-04 2.500012507775e-03 1.000000000000e-03 1.047197551197e-05 2.345082475239e-10 1.342603524898e-09 -5.463539888590e-10
375 2 2.609433092422e-05 8.737995558290e-03 1.173121734803e-02 5.933632960438e-07 1.155685069442e-06 -6.813321559930e-07 -5.047612118091e-04 -5.933643686337e-04 5.493082098417e-04 1.000000000000e-03 1.047197551197e-05 -1.189783803114e-09 -5.484787171614e-10 1.672918677953e-10
376 2 9.737173760126e-03 7.012887945320e-03 1.061636632713e-02 -2.869822083277e-07 2.918624164231e-07 2.967263350444e-07 -1.566929022739e-04 2.517840651103e-04 -8.664157468574e-05 1.000000000000e-03 1.047197551197e-05 2.732129542605e-10 -1.721349500258e-10 -1.838284415792e-11
377 2 1.053153303282e-02 9.937728060215e-03 9.690839655143e-03 -1.130626389063e-06 2.358326838281e-07 4.229384277040e-07 -5.250055435400e-04 2.703254565475e-04 -1.112424402278e-04 1.000000000000e-03 1.047197551197e-05 9.102568404814e-10 1.136538821394e-10 3.638885094727e-10
378 2 9.618379256546e-03 1.336592948006e-02 1.148775851719e-02 -5.065301596432e-07 3.708195683014e-07 5.627881755610e-07 7.571650817288e-05 3.053536315260e-04 -2.629877152342e-04 1.000000000000e-03 1.047197551197e-05 8.377960803813e-10 2.368360129149e-10 -4.897824620682e-11
379 2 2.280322480327e-03 9.751536300198e-03 4.484679443337e-03 2.233113151511e-06 1.433858068461e-06 -1.264174830096e-07 -1.619450270169e-03 -5.784249781340e-04 -3.207082204094e-03 1.000000000000e-03 1.047197551197e-05 3.364846065609e-11 1.112325905791e-09 -4.036174573778e-10
380 2 1.023406131584e-02 8.182735382927e-03 4.863692805229e-03 -1.084816082918e-06 3.543674670651e-07 -1.389710020407e-07 -1.002105327774e-03 -4.540554597693e-04 -3.212039680748e-04 1.000000000000e-03 1.047197551197e-05 1.827570843265e-09 1.713800577857e-09 -7.234566340975e-10
381 2 2.154485511720e-03 1.308270238289e-03 1.447982148155e-02 -2.400898287677e-07 5.697820404407e-07 7.251076776644e-08 5.354776797597e-04 2.010706162642e-04 -2.803722144063e-05 1.000000000000e-03 1.047197551197e-05 3.870484512924e-10 -2.641715408133e-10 -1.117153291211e-10
382 2 1.306967961003e-02 1.501103787393e-03 1.231027491505e-02 -2.053171650529e-07 7.331931190407e-07 -3.458263174353e-08 3.258294475752e-04 2.170279423967e-04 -1.584007600400e-04 1.000000000000e-03 1.047197551197e-05 6.374020399317e-10 -3.195825517830e-10 -1.988952068616e-10
383 2 1.460515762696e-02 1.523659919546e-03 9.815527372035e-04 -2.049717243748e-07 4.557046938470e-08 1.026375681225e-08 -8.272719162259e-05 3.131353657944e-06 3.156636191820e-04 1.000000000000e-03 1.047197551197e-05 4.828752668044e-10 1.578994886132e-10 -1.163497657631e-10
384 2 1.422601460206e-02 4.724820720919e-03 9.848762909516e-04 -4.377870033718e-08 8.451570918063e-08 6.917279594442e-08 6.598537207055e-05 4.832594695498e-05 -6.702483721306e-04 1.000000000000e-03 1.047197551197e-05 2.537477763760e-10 3.766403431170e-12 3.667753483703e-11
385 2 1.031301256408e-02 1.420904369956e-02 1.301714915408e-02 -2.070923427834e-07 3.408142490887e-07 2.713946117111e-07 -2.119796303973e-04 -1.513295961997e-05 5.382060717448e-05 1.000000000000e-03 1.047197551197e-05 6.967607119507e-10 1.594767271757e-10 -1.656821909777e-10
386 2 7.976420833952e-03 1.417812000940e-02 1.097857723356e-02 -3.689398306707e-07 5.308924933124e-07 4.724620539925e-07 -5.620570887138e-04 -1.830804053972e-04 -1.182213872691e-04 1.000000000000e-03 1.047197551197e-05 7.629782746350e-10 4.062243788816e-11 1.207950601851e-10
387 2 4.686402802997e-03 1.985327978733e-03 7.098522080899e-03 -4.853867157304e-07 9.983893264125e-07 -7.557358171963e-08 2.468426169034e-04 -1.965803460785e-04 6.776491892303e-04 1.000000000000e-03 1.047197551197e-05 1.432835776209e-09 -2.355966093128e-10 -7.127944872727e-11
388 2 1.302348593958e-02 1.479313499758e-02 8.691473063015e-03 -4.615991087402e-07 1.185119384340e-06 -1.560325900327e-07 9.882229055652e-04 1.351516153436e-03 -8.913667174452e-06 1.000000000000e-03 1.047197551197e-05 8.532674617453e-10 -1.486976195752e-09 -5.644888759989e-10
389 2 8.086174720110e-04 4.518014551703e-03 1.320180849849e-02 -5.765827694682e-07 9.827809494891e-07 -3.080801341357e-07 4.269357825920e-04 -5.954061732904e-04 -6.464540680369e-04 1.000000000000e-03 1.047197551197e-05 9.948066501164e-10 -6.067959223499e-10 5.637225322693e-10
390 2 6.772041651250e-03 4.870740723270e-03 1.203589310407e-02 -2.607952773079e-07 2.899524681196e-07 2.262518023885e-08 -1.015730073153e-04 3.856264090987e-05 8.604316121535e-05 1.000000000000e-03 1.047197551197e-05 6.260262690470e-10 2.414651172431e-10 -1.371252061689e-12
391 2 1.352259498472e-02 3.905231418112e-03 3.187618879253e-03 -1.295332870077e-07 4.617299198299e-07 -2.613279574731e-07 2.507753408892e-04 1.755754006185e-04 -4.200780831055e-04 1.000000000000e-03 1.047197551197e-05 1.074805942657e-09 3.932197984109e-10 4.720778307186e-10
392 2 7.781834818949e-03 4.892669271204e-03 2.170959457214e-03 -7.092684456140e-08 2.247143487635e-07 -6.226957035508e-08 -4.116599687124e-05 2.247808541866e-05 -4.958810342768e-05 1.000000000000e-03 1.047197551197e-05 1.167656631871e-09 2.060282374571e-11 1.018687320189e-10
393 2 6.695364337517e-03 3.311261520605e-03 4.029173496128e-03 2.604300719943e-08 4.007376300549e-07 2.405239429993e-07 -4.048963767200e-04 1.748277715423e-04 4.336903103480e-04 1.000000000000e-03 1.047197551197e-05 1.090933524532e-09 -6.514748832609e-11 -3.058378590284e-10
394 2 6.185244014718e-03 1.203559123722e-02 1.005685688611e-02 -5.415600568123e-07 6.075124780797e-07 9.537943867202e-07 -6.754279068482e-04 -1.812434189164e-04 3.543628708098e-04 1.000000000000e-03 1.047197551197e-05 7.270107037506e-10 -2.628550915905e-11 -4.491204400253e-10
395 2 7.362277682898e-03 1.110354940439e-02 1.440118583968e-02 -2.928409940831e-07 9.459494292858e-08 1.901936084641e-07 9.356098743195e-05 2.629487605866e-04 6.535190681509e-05 1.000000000000e-03 1.047197551197e-05 7.986903795807e-11 -5.923187357440e-11 -1.620318064332e-10
396 2 2.956630338955e-03 3.102103488833e-03 1.438699293455e-02 -1.708794336467e-07 4.322994339264e-07 9.519048541125e-08 -1.728058744567e-04 2.582180388540e-04 -1.563304521317e-05 1.000000000000e-03 1.047197551197e-05 3.710743945651e-10 -6.506437533937e-11 -1.062377771608e-10
397 2 3.999609618331e-04 4.284534413594e-03 9.654839742120e-03 -7.170242650426e-07 1.516606771381e-06 -8.296686809658e-07 -8.927974681827e-04 1.717446643621e-04 3.564962781185e-04 1.000000000000e-03 1.047197551197e-05 1.040049356441e-09 2.509135205925e-10 3.709543678745e-10
398 2 1.512141360594e-02 1.006396927579e-03 7.659408600566e-03 2.656199921672e-07 1.714393730388e-06 -2.672139503642e-07 6.846917395623e-04 -7.924295215032e-04 2.566650864344e-04 1.000000000000e-03 1.047197551197e-05 3.810486429242e-10 -1.409566859074e-09 4.260379587119e-10
399 2 1.402535700548e-02 1.398355919402e-02 7.034477068865e-03 -2.133681899577e-07 2.098913575229e-06 -2.059171145865e-07 2.863510497447e-03 3.962400088339e-04 2.633020120427e-03 1.000000000000e-03 1.047197551197e-05 1.408804364735e-09 -1.551169864047e-09 -1.492971002413e-09
400 2 6.655529998332e-03 6.648185388408e-03 1.448291903688e-02 -6.261007044837e-08 1.114781684167e-07 5.611560018667e-08 7.706827885116e-05 -7.035163005347e-06 1.284782525469e-05 1.000000000000e-03 1.047197551197e-05 1.381984711822e-10 1.029155615477e-11 -1.973832121553e-11
401 3 4.125997042540e-03 1.376648309409e-03 1.355109256087e-02 -4.271926612054e-07 5.779998109579e-07 -1.075772930273e-07 3.642110173286e-05 1.098630728036e-04 -2.532781146731e-04 1.250000000000e-03 2.045307717181e-05 1.304492373474e-09 -4.531317729879e-10 8.376098874591e-11
402 3 1.078260261465e-02 8.719849622380e-03 1.126186874427e-03 5.636930432670e-07 1.198965697013e-06 6.658500755906e-07 -1.003970484257e-03 3.899260091396e-04 2.291349840197e-04 1.250000000000e-03 2.045307717181e-05 -9.880230310121e-11 -1.578594936163e-09 -2.236606467860e-09
403 3 8.627376821677e-03 1.209401519905e-02 7.546439652146e-03 -1.232455845154e-06 5.407596586843e-08 1.090193781116e-06 6.201772332035e-05 -3.237538452541e-04 -1.326674806685e-04 1.250000000000e-03 2.045307717181e-05 2.560569125954e-09 1.204629012248e-09 -1.772036300709e-10
404 3 1.369991408054e-02 4.903112127515e-03 9.571658206674e-03 -5.475552954474e-07 1.075073365697e-06 -7.047858452103e-07 -1.788524885912e-04 4.831917461828e-04 3.519372374445e-04 1.250000000000e-03 2.045307717181e-05 2.407754733338e-09 1.007322864478e-09 3.656481203714e-10
405 3 5.149686929582e-04 1.352193522222e-02 5.952133259438e-03 6.988341256132e-07 3.734059672484e-06 -7.433625090729e-07 1.601972338226e-03 -1.418422868296e-03 -3.188258177660e-03 1.250000000000e-03 2.045307717181e-05 1.713589667536e-09 -3.760698576403e-09 -1.014175464696e-09
406 3 1.470248423960e-02 8.184916694454e-03 1.238013155574e-03 -6.829651836014e-07 1.635432165088e-07 -1.149185728182e-07 1.025194188257e-04 -5.788232440806e-04 -1.203981419955e-03 1.250000000000e-03 2.045307717181e-05 7.083536845262e-10 3.306005851109e-10 2.260613162003e-10
407 3 2.027798830090e-03 4.985284994779e-03 1.151584556699e-02 -1.937587295880e-07 8.198004741255e-07 -8.507995141977e-09 -2.056355863007e-04 1.866771828609e-04 4.951616632257e-05 1.250000000000e-03 2.045307717181e-05 1.705053156283e-10 -3.210168562612e-10 1.582016122695e-10
408 3 1.843860604487e-03 2.873205066593e-03 1.047117111430e-02 -3.496655194567e-07 1.195814009895e-06 -1.035911097539e-07 3.113777737378e-04 -1.234681485665e-04 -1.433128737438e-04 1.250000000000e-03 2.045307717181e-05 1.737870838755e-09 -7.903120688849e-10 -3.389392072863e-10
409 3 1.297906123880e-02 1.160377807665e-02 1.407910043936e-02 5.096299670746e-09 2.726802565716e-07 -2.103732851499e-08 3.105254992394e-05 -2.319049774754e-04 -1.580320946078e-04 1.250000000000e-03 2.045307717181e-05 5.034462080315e-10 1.637568864960e-10 2.273221370482e-13
410 3 1.320498493148e-02 9.604676962268e-03 1.018581074483e-02 -4.179758638819e-07 1.909768011421e-06 -1.276563174006e-06 4.742376544353e-04 -5.629646310604e-04 2.595359705797e-04 1.250000000000e-03 2.045307717181e-05 -9.592086271445e-10 -6.849019258221e-10 3.702450672502e-09
411 3 1.534720425641e-02 1.501736295894e-02 1.326766250671e-02 -3.066796520581e-07 8.360772016581e-07 -2.391618589608e-07 1.236150559992e-04 -1.197013609382e-04 -2.017103795588e-04 1.250000000000e-03 2.045307717181e-05 1.215235805879e-09 -1.149545589616e-09 9.083998261828e-11
412 3 2.415698818803e-03 6.487190084963e-03 2.847840616421e-03 -7.071142552988e-08 6.135882068972e-07 -1.866559667750e-07 -3.481276472055e-04 -1.418312197525e-04 -1.817424811335e-04 1.250000000000e-03 2.045307717181e-05 1.182308292933e-09 -2.615269345409e-10 4.963164383872e-10
413 3 1.452692506184e-03 1.467403091406e-02 4.091714827210e-03 9.554709472266e-07 1.989811318224e-06 -2.986649433946e-07 -8.485339463376e-04 1.453819283958e-03 9.046195711036e-05 1.250000000000e-03 2.045307717181e-05 1.313213848722e-09 -8.523144091118e-10 -2.698989958991e-10
414 3 3.813027542139e-03 2.315316190622e-03 4.197770643672e-03 7.284422805148e-08 9.063655022041e-07 -4.475642768151e-08 3.170314955443e-04 2.084367827145e-04 2.044842775605e-04 1.250000000000e-03 2.045307717181e-05 2.081492355001e-09 -8.270600686838e-10 -1.147630631752e-09
415 3 1.209882943576e-03 1.026167422241e-02 1.426442584090e-02 -3.371368007461e-08 5.497846342462e-07 1.097790481534e-07 3.067780070753e-04 3.858101597082e-05 1.821897305161e-04 1.250000000000e-03 2.045307717181e-05 -2.417192168617e-10 -6.627176346247e-10 -5.288619645114e-10
416 3 5.236902252405e-03 6.614460067117e-05 6.515734756538e-03 4.153856600823e-07 9.257746063702e-07 -1.352705469292e-07 -5.635561561293e-05 -6.602684705176e-04 -3.075120114336e-04 1.250000000000e-03 2.045307717181e-05 1.093859170884e-09 -4.934267912163e-10 1.539700875586e-10
417 3 5.166188326287e-03 1.136348578483e-02 1.190591962244e-02 -8.130552690050e-07 8.706143061519e-07 6.368575645451e-07 -1.439730805283e-04 -6.622672359899e-04 3.530538101641e-04 1.250000000000e-03 2.045307717181e-05 1.921862654797e-09 -7.315125632972e-10 -9.551288016057e-10
418 3 8.964876506312e-03 3.483706153341e-03 1.091916816002e-03 1.097518816640e-08 1.852072656550e-07 5.923739422381e-08 -1.037956742555e-04 2.293511769476e-05 2.508608848521e-04 1.250000000000e-03 2.045307717181e-05 1.067867577266e-09 -1.399803154851e-10 -1.840545334461e-10
419 3 2.423726783508e-03 8.470462934677e-03 1.131193865331e-02 -3.130077122551e-07 8.182647186848e-07 3.150010642199e-07 -3.753721540571e-04 9.189520479354e-04 6.286457137471e-04 1.250000000000e-03 2.045307717181e-05 1.456019841084e-09 -5.590706216967e-10 -8.482371011449e-10
420 3 4.718749894098e-03 9.131079880761e-03 1.106485129632e-02 -3.287423038216e-07 9.771252644142e-07 2.631311176191e-07 3.133704744295e-04 -6.912874951193e-04 -4.991251429989e-04 1.250000000000e-03 2.045307717181e-05 1.396867063294e-09 -5.609719933576e-10 3.588933583019e-11
421 3 4.696872171138e-03 1.269702015253e-02 5.856777443839e-03 9.176810625148e-07 1.160207333528e-06 -2.924149696811e-07 1.640197631639e-04 -5.949797514645e-05 -1.359226325895e-04 1.250000000000e-03 2.045307717181e-05 1.112848709358e-09 -6.543867796435e-10 2.819423043716e-10
422 3 8.030002382548e-03 1.917147928558e-03 8.133682888784e-03 -2.999140799607e-07 7.468101535936e-07 1.418961288124e-07 -5.948707924670e-04 1.124384585046e-04 -3.228575390510e-04 1.250000000000e-03 2.045307717181e-05 1.826270048431e-09 -4.162662187088e-10 -2.379221154974e-10
423 3 1.351187131910e-02 1.195185060214e-02 1.170163529781e-02 -4.838684964434e-07 1.080606817677e-06 -2.475916308247e-07 -4.096708899384e-04 -9.447950321931e-04 -5.399569287669e-05 1.250000000000e-03 2.045307717181e-05 1.695508266645e-09 -9.321582026958e-10 -2.918676770165e-10
424 3 3.038029157534e-03 8.910252441309e-03 6.332790548340e-03 1.015837329081e-06 1.472504795659e-06 3.039015354567e-07 -1.227468951672e-04 1.323728489316e-03 -7.701369545658e-04 1.250000000000e-03 2.045307717181e-05 2.188971940925e-10 -1.455096966721e-09 -1.543331567738e-09
425 3 1.459158148763e-02 5.357961890626e-03 1.193653084366e-02 -8.956054862653e-07 1.360669104703e-06 -3.179989956285e-07 9.040353678733e-05 6.769190386564e-04 5.332399286919e-04 1.250000000000e-03 2.045307717181e-05 4.075026465192e-09 -3.168781751163e-09 -1.154259940720e-09
426 3 1.201837571745e-02 6.012177635644e-03 4.748307432022e-03 -6.907858421143e-07 6.714416827795e-07 6.108272705339e-08 -2.447158823717e-05 -1.820575275385e-04 8.936608281766e-06 1.250000000000e-03 2.045307717181e-05 2.856558188969e-09 2.087733173633e-09 1.697437510186e-09
427 3 1.258490012349e-02 1.310233463529e-02 3.088909360722e-03 5.163997925815e-07 1.034846736114e-07 1.095749550110e-07 -7.547965086054e-04 -5.654042529449e-04 -7.961599088663e-04 1.250000000000e-03 2.045307717181e-05 1.082893463353e-09 -5.015842072184e-10 -1.374907818654e-09
428 3 1.256855954093e-02 1.756039514421e-04 6.645292791884e-03 -1.348628026298e-06 9.782832749125e-07 1.047890821841e-06 -1.178298010722e-03 -2.827913026642e-04 -9.963747409820e-04 1.250000000000e-03 2.045307717181e-05 4.164714558860e-09 -2.210295363348e-09 -3.048673709256e-09
429 3 4.636020767606e-04 9.120145488121e-04 2.638567409029e-03 -1.181385046337e-07 6.559544607200e-07 -6.411088603491e-08 -2.075722848419e-04 4.527336327531e-05 1.655296019024e-04 1.250000000000e-03 2.045307717181e-05 1.799126364143e-09 3.780759050386e-10 -4.215790020683e-10
430 3 8.485353023896e-03 1.445635609259e-02 2.597234722699e-03 4.137093966758e-07 3.312838786426e-07 -1.185247071916e-07 -4.004712843928e-04 -1.090155278875e-05 -6.017454187030e-05 1.250000000000e-03 2.045307717181e-05 -1.311514242844e-10 2.909039799732e-10 -3.704420034394e-10
431 3 9.288155151834e-03 5.858643292378e-04 1.354752101811e-02 -2.784543292211e-07 3.946628007395e-07 1.482181668666e-07 8.093382334672e-05 5.984371508456e-05 6.185790901388e-07 1.250000000000e-03 2.045307717181e-05 1.072769424888e-09 2.619110421600e-10 -9.074500485485e-11
432 3 1.085898866155e-02 1.339670940557e-02 4.629707477514e-03 3.612143061260e-06 -2.149324663404e-06 1.844462358630e-06 3.256939716388e-04 3.383037657055e-03 3.822862880869e-03 1.250000000000e-03 2.045307717181e-05 -6.051157097675e-10 1.435179079300e-09 -8.565347590887e-10
433 3 1.145696517954e-02 1.164084857521e-02 1.066248243315e-02 -4.477366779678e-07 6.752762902498e-07 -4.657687951674e-07 -2.287775981494e-05 6.794181926491e-04 4.260732011188e-05 1.250000000000e-03 2.045307717181e-05 1.054186535350e-09 1.957823753317e-10 1.077584796706e-09
434 3 2.913370201898e-03 6.175308306890e-03 5.239421228367e-03 -8.068429289366e-07 1.545369280279e-06 2.120083852930e-07 -7.738706591460e-05 -4.231758995686e-04 -5.659064849282e-04 1.250000000000e-03 2.045307717181e-05 4.367036208351e-09 -3.076488692377e-09 -1.179664149490e-09
435 3 7.359194925831e-03 1.353955296614e-02 9.008743502884e-03 -7.217344506021e-07 4.250129837588e-07 7.989981822823e-07 1.605806541219e-04 2.349544611750e-04 -3.443462706894e-04 1.250000000000e-03 2.045307717181e-05 1.875488753510e-09 -5.244854901025e-11 5.312549989834e-12
436 3 1.103825743261e-02 1.145542812147e-02 6.015116317820e-03 2.380324198451e-06 -4.844910663239e-06 2.516591463237e-06 -4.240775544460e-04 -3.916612120523e-03 -8.928688558608e-03 1.250000000000e-03 2.045307717181e-05 5.879163216440e-10 5.017348311754e-09 8.888945502078e-10
437 3 7.181986565361e-03 1.274377870070e-03 3.480709467369e-03 5.294022744130e-07 1.403515389736e-07 1.782114258952e-07 2.525573581045e-04 7.449484681870e-04 1.276313429154e-04 1.250000000000e-03 2.045307717181e-05 9.736972170244e-10 2.070110658701e-10 -3.893858615902e-10
438 3 9.385195006694e-03 1.220619824474e-02 9.753616152361e-03 -1.119261225199e-06 3.949529525862e-07 7.319007226777e-07 -1.096442591619e-04 3.964183551595e-04 2.443733898242e-04 1.250000000000e-03 2.045307717181e-05 2.053033362063e-09 5.852919827208e-10 6.358754016031e-11
439 3 1.544276880775e-03 1.025557185971e-03 8.932725101806e-03 -1.064944416345e-07 1.339420702123e-06 -1.643842551790e-07 -1.222596352455e-04 1.820015863227e-05 1.242503827675e-04 1.250000000000e-03 2.045307717181e-05 1.238255194067e-09 -1.955166942679e-09 2.190219239923e-10
440 3 1.050759902410e-02 2.533173754465e-03 3.519566255081e-03 9.139883497213e-09 2.522589119279e-07 1.622227327944e-07 -3.633471379745e-04 1.006021173563e-04 1.889214059167e-04 1.250000000000e-03 2.045307717181e-05 1.847581436480e-09 3.501873216030e-12 1.036477187181e-10
441 3 2.534394725547e-03 4.103946031376e-03 2.313672887363e-03 -1.112206643774e-07 6.706229455913e-07 5.649871863403e-08 4.406202252770e-05 -5.987323550379e-05 -3.360233252237e-05 1.250000000000e-03 2.045307717181e-05 1.597025741460e-09 3.850647600721e-11 -7.600837649824e-10
442 3 6.880778366779e-03 6.824462043411e-04 9.846397968574e-03 -3.410381011602e-07 1.026984382356e-06 1.877844447279e-07 2.665725462469e-04 -1.426459729297e-04 2.430642456894e-04 1.250000000000e-03 2.045307717181e-05 1.635615758834e-09 -9.963527905648e-10 -1.789120473783e-10
443 3 1.645891367855e-03 1.063117632769e-02 1.082912807801e-02 -5.466227197421e-07 1.256913178529e-06 -1.339679518497e-07 3.606723987626e-04 -3.945864530641e-04 -8.201991380283e-04 1.250000000000e-03 2.045307717181e-05 1.480205843670e-09 -1.859822389949e-09 -5.315847102253e-10
444 3 5.071661028312e-03 1.261073864495e-02 2.753884987834e-03 4.605583337423e-07 4.489547416573e-07 1.054883115589e-07 -8.235398956220e-05 -9.322233702747e-05 -2.582486990564e-04 1.250000000000e-03 2.045307717181e-05 4.932022498044e-10 9.346575303260e-11 -2.805481529018e-10
445 3 1.058314101967e-02 9.736245456541e-03 7.654189343748e-03 -2.984926638293e-06 1.162766051120e-07 7.818065392571e-07 4.838225581028e-04 1.357488749393e-03 3.294214840130e-04 1.250000000000e-03 2.045307717181e-05 4.407535989331e-09 6.633385111200e-10 3.536595109584e-10
446 3 9.684991306121e-03 1.237386747311e-04 1.123586023452e-02 -2.865073143659e-07 3.557373979253e-07 1.852291147078e-07 -1.848518057640e-04 -7.423830124415e-05 -1.577038039773e-04 1.250000000000e-03 2.045307717181e-05 1.646942549880e-09 3.901578664028e-10 -1.005015495440e-11
447 3 1.025898246944e-02 1.345966715982e-02 1.442912487597e-03 5.199126720953e-07 -6.534789448429e-07 5.416508345745e-07 -5.376004832100e-04 -1.324376762610e-04 -3.201711531347e-04 1.250000000000e-03 2.045307717181e-05 -1.315767321303e-09 3.393116035199e-09 -2.149916936919e-09
448 3 1.898439626660e-03 4.409566977914e-03 6.575955851011e-03 -1.470209275578e-06 2.315649132821e-06 -1.927752882129e-07 8.495088507616e-04 1.533412039461e-03 -1.232322226890e-03 1.250000000000e-03 2.045307717181e-05 5.747406468941e-09 -3.777313907044e-09 1.830912562739e-09
449 3 2.399535956878e-03 1.397785095371e-02 1.246717162343e-03 1.043046663908e-07 1.679855966325e-07 5.231035939222e-08 -5.820269504663e-04 4.645693015074e-04 1.451552255484e-04 1.250000000000e-03 2.045307717181e-05 6.920304590194e-10 4.960710562767e-10 -3.490817825350e-10
450 3 1.254413900335e-02 1.519157424139e-02 4.234976935727e-03 8.253763401341e-09 -5.136040561120e-08 5.283871092216e-07 7.814948046519e-04 -5.025820810131e-04 5.721519815441e-04 1.250000000000e-03 2.045307717181e-05 2.273605421056e-09 5.780468068235e-11 -1.313468771558e-09
451 3 1.018823866079e-02 2.794122655251e-03 7.675807964182e-03 -4.050985043447e-07 6.644963388757e-07 -6.023609838424e-08 -1.731101194945e-04 -3.207606744680e-04 3.611667936667e-04 1.250000000000e-03 2.045307717181e-05 2.183259835225e-09 -5.218543885869e-11 7.507920299116e-10
452 3 8.283536955514e-03 7.272226110549e-03 4.968348245034e-03 -8.037847999460e-07 4.463702885890e-07 1.510468925103e-07 -1.028927774208e-04 1.773175937257e-04 8.928444700103e-05 1.250000000000e-03 2.045307717181e-05 3.910254811555e-09 -1.821823824037e-11 -3.996077437697e-10
453 3 5.216898677413e-03 6.301488736247e-03 1.268476153185e-02 -2.079009145627e-07 4.293888948101e-07 -4.952019471144e-09 1.760467522190e-04 -2.597945441898e-04 -3.930021440356e-04 1.250000000000e-03 2.045307717181e-05 9.416731694236e-10 -2.596536096285e-11 -2.080203346680e-10
454 3 6.435401441665e-04 1.218250277651e-02 9.130700990035e-03 -5.743558696798e-07 9.644947970869e-07 -9.970887048757e-07 9.264735618490e-04 -3.299865551739e-05 -7.343456950286e-04 1.250000000000e-03 2.045307717181e-05 2.116933601915e-09 -1.355351303054e-09 8.909814894605e-10
455 3 5.235288772991e-04 1.435981092657e-02 8.171147331919e-03 8.149543129843e-09 1.426174546187e-06 -1.539939441648e-07 1.110026451692e-04 -1.329634353706e-04 -2.720915982677e-04 1.250000000000e-03 2.045307717181e-05 1.065014078763e-09 -2.404244037220e-09 -1.075700117323e-09
456 3 6.963979651912e-03 8.481986250429e-03 6.524042929004e-03 -6.939657202950e-07 3.981691449380e-07 3.994275741095e-07 1.589382858098e-04 -7.955530468995e-05 2.058977537200e-04 1.250000000000e-03 2.045307717181e-05 3.185217038834e-09 5.616226083189e-10 -1.466262662858e-09
457 3 1.539477362732e-03 3.165797012283e-03 4.329216019908e-03 1.044859312105e-07 1.273676639860e-06 5.502123929327e-07 -5.507825920799e-04 4.945722000339e-04 1.456064583708e-04 1.250000000000e-03 2.045307717181e-05 2.212085568995e-09 -1.326404697328e-09 -2.090751447882e-09
458 3 1.369236876455e-02 9.674775415107e-03 1.280745755246e-02 2.581808114325e-08 4.573166340517e-07 -4.456861810610e-07 3.463789909936e-04 1.878756848097e-04 -1.535523127109e-05 1.250000000000e-03 2.045307717181e-05 3.245207329181e-11 7.337732927476e-11 1.013197844737e-09
459 3 6.471947058909e-03 4.464493955371e-03 1.416931013775e-02 -1.195320301447e-07 2.132860241034e-07 -2.734835136235e-08 9.914017097989e-05 8.750773049211e-05 -3.937644016135e-05 1.250000000000e-03 2.045307717181e-05 5.824348204784e-10 7.180147548612e-13 6.755257368731e-11
460 3 8.925214105858e-03 1.198053218749e-02 4.005564990295e-03 1.520418500139e-06 -1.136032498111e-06 1.325041973560e-06 2.036822076676e-03 -1.708174835147e-04 -2.485391107646e-03 1.250000000000e-03 2.045307717181e-05 -2.166225583516e-09 3.393724072676e-09 -3.960475062700e-10
461 3 1.125820289816e-03 4.607920495410e-04 1.126062752977e-02 -1.173318066526e-07 1.077979096317e-06 -1.378183468094e-07 1.802471347962e-04 -3.880188523891e-05 1.126193449012e-04 1.250000000000e-03 2.045307717181e-05 7.141907423876e-10 -9.348373233626e-10 9.040481642035e-11
462 3 5.928228406812e-03 1.517781590719e-02 1.412060982597e-02 -4.376587893806e-07 4.797511592523e-07 3.034809983112e-08 -2.087372703709e-04 -9.826188054951e-05 1.330967052925e-04 1.250000000000e-03 2.045307717181e-05 1.249734749634e-09 2.132044273845e-10 1.736651599937e-10
463 3 1.428488492219e-02 5.906836583518e-03 3.979718694367e-03 -9.506948665528e-07 1.377357454179e-07 -7.097032541071e-07 2.324116521924e-03 9.718424216622e-05 -1.159974853219e-03 1.250000000000e-03 2.045307717181e-05 4.759194711870e-09 4.153933074296e-09 2.730332191733e-09
464 3 1.368029863658e-02 1.703075374497e-03 3.168994594372e-03 -2.355269030098e-07 3.854874600710e-07 -2.142149119851e-08 -3.774780216546e-04 1.230182992996e-04 1.044794006495e-04 1.250000000000e-03 2.045307717181e-05 2.051489417074e-09 4.262112505170e-10 -9.054265994081e-11
465 3 1.768171643505e-03 1.156191169001e-03 5.580123648886e-03 2.269649610737e-07 1.813281063193e-06 3.395493539212e-08 8.750293840859e-04 -1.284366844147e-03 -2.143182161414e-05 1.250000000000e-03 2.045307717181e-05 2.615244830154e-09 -1.225473598981e-09 -1.013585053441e-09
466 3 8.978917760523e-03 2.812067678755e-03 1.287462597200e-02 -2.670534249544e-07 3.433233418168e-07 -1.479945888718e-07 -2.989832261740e-04 -2.406260540305e-06 2.289240420643e-05 1.250000000000e-03 2.045307717181e-05 1.052299822624e-09 2.681308452403e-10 4.233136633449e-10
467 3 3.111491005988e-03 1.306219396214e-02 1.350045266234e-02 -4.817067728127e-07 7.384246209037e-07 -5.112629559302e-08 -1.008548305379e-04 -1.311318300545e-04 -2.075211247769e-04 1.250000000000e-03 2.045307717181e-05 1.113816908139e-09 -6.831539785610e-10 -2.020291208501e-10
468 3 3.559879425103e-03 4.166601220337e-03 9.309644864349e-03 -3.172862398269e-07 1.179790507760e-06 2.992439410178e-08 -9.630159382869e-05 2.769168528244e-04 -1.695600937463e-05 1.250000000000e-03 2.045307717181e-05 1.538313534445e-09 -1.053221558833e-09 -9.872749642264e-10
469 3 1.151833678587e-02 3.762269049246e-03 1.414732705448e-02 -3.581533204442e-07 3.991420499554e-07 8.660301186036e-08 2.668676117971e-04 3.059859044460e-04 -1.069794746938e-04 1.250000000000e-03 2.045307717181e-05 1.550700610098e-09 -5.622456280295e-10 -8.418351507482e-10
470 3 7.711884483050e-03 7.209447056381e-03 9.625060300727e-03 -5.803430398082e-07 2.757015950538e-07 4.951006724461e-07 5.805282581881e-05 5.334091914713e-04 -4.058092273987e-04 1.250000000000e-03 2.045307717181e-05 1.686778645826e-09 3.287557599948e-10 -8.432539488617e-10
471 3 1.243042928302e-02 7.521092798218e-03 2.342077123211e-03 9.743395812929e-07 9.607926463310e-07 7.935341161883e-07 8.694866357205e-04 4.771270964841e-04 -5.760503884327e-04 1.250000000000e-03 2.045307717181e-05 -1.641512870265e-09 -1.196192681545e-10 -1.889357716431e-09
472 3 1.176564813790e-04 1.460086054666e-02 1.086137110701e-03 -1.016622479520e-08 2.447268273852e-07 1.659455319396e-08 -9.969780538336e-05 -1.991077899388e-04 -1.650678331196e-04 1.250000000000e-03 2.045307717181e-05 6.388653714997e-10 4.528046108277e-10 -4.960651118115e-10
473 3 1.103168655470e-02 1.376212626324e-02 7.145984793566e-03 -3.390309595892e-06 2.133005252013e-06 4.903659949124e-07 2.548480767369e-04 -2.321159497394e-03 6.120208240852e-04 1.250000000000e-03 2.045307717181e-05 8.418777129019e-09 -5.618163889687e-09 -2.414682276049e-09
474 3 8.274354754446e-03 1.118100583158e-03 1.217358463952e-03 3.189105172930e-07 1.428853243324e-08 -1.815496455887e-08 4.629281716623e-05 3.820190280476e-05 6.634612067109e-05 1.250000000000e-03 2.045307717181e-05 2.222694494130e-10 6.036949640258e-10 -1.346100704446e-10
475 3 4.442703512963e-03 1.333030530633e-02 1.029630404402e-02 -4.967405756024e-07 8.691144633532e-07 -6.806921177381e-08 -2.202470703286e-04 -3.163362689677e-05 -2.778569129810e-04 1.250000000000e-03 2.045307717181e-05 1.592199695337e-09 -7.864410470081e-10 3.917941560562e-10
476 3 7.130247490756e-03 1.236071145620e-02 5.653067398135e-03 6.719808059647e-07 4.501496688545e-07 2.922612237559e-07 -3.150315237302e-04 -9.371765408651e-04 -8.597696348752e-04 1.250000000000e-03 2.045307717181e-05 9.990893508991e-10 8.222702613625e-10 2.447437953534e-10
477 3 8.411020282056e-03 5.144220403090e-03 1.062626437818e-02 -4.013353348693e-07 3.146112694399e-07 -4.650799687724e-08 5.796919113976e-05 1.153604569197e-04 1.942422023665e-04 1.250000000000e-03 2.045307717181e-05 1.840620845237e-09 2.575076105695e-10 1.170260938055e-10
478 3 3.164010316523e-03 8.800355240680e-03 2.687529845153e-03 2.216756932278e-07 -6.593458687586e-08 -5.073354752778e-08 5.265061563735e-04 6.343995771490e-04 -5.579210885823e-05 1.250000000000e-03 2.045307717181e-05 -4.731737351865e-11 1.166411549222e-09 3.172905961743e-12
479 3 5.827580004509e-03 7.649575722826e-03 4.227235139398e-03 -4.956007747696e-08 3.360873580275e-07 2.056859551290e-07 -8.529850893766e-05 -3.211360060331e-05 7.417605066116e-05 1.250000000000e-03 2.045307717181e-05 1.867404734765e-09 3.183379624096e-10 -8.621972191492e-10
480 3 1.165395620655e-02 5.900373449790e-03 1.037222463204e-02 -5.086741595958e-07 2.033230335527e-07 1.255117066905e-07 2.329055237735e-04 -3.636840268986e-05 -8.219135553841e-05 1.250000000000e-03 2.045307717181e-05 2.052480786439e-09 1.963423475549e-09 -4.456491258767e-10
481 3 1.226380739185e-02 8.132874713534e-03 8.566277988174e-03 -5.484681120846e-07 1.794039951596e-06 -8.621632626245e-07 -2.268221611792e-04 2.444684708516e-03 1.325927405002e-03 1.250000000000e-03 2.045307717181e-05 -4.705240225323e-09 2.010042726292e-10 6.093011951782e-09
482 3 1.367090620558e-02 1.281198529936e-02 5.217297622615e-03 3.258719975508e-06 3.609201714014e-06 -1.480137941424e-06 1.032303315289e-03 2.810771470197e-03 7.755393196598e-03 1.250000000000e-03 2.045307717181e-05 7.184337995115e-10 -7.156472003304e-09 -2.377086528456e-09
483 3 1.249204280383e-02 9.929499125307e-04 1.149568600891e-03 -1.406695603519e-07 -1.148533347615e-07 1.223391806147e-07 -5.856189409627e-05 -7.533769309534e-05 -9.273098988041e-05 1.250000000000e-03 2.045307717181e-05 9.374949278304e-10 4.681138790865e-10 -3.147806335622e-10
484 3 5.439861726896e-03 3.305295961253e-03 5.659621671715e-03 -2.984876756267e-07 9.872808076122e-07 7.327048816447e-08 -3.992904256725e-04 -3.943034857201e-04 -5.241092897520e-05 1.250000000000e-03 2.045307717181e-05 2.378686446681e-09 -9.582116501560e-10 -6.691746683756e-10
485 3 4.818859210165e-03 7.373921928018e-03 6.413494683120e-03 -5.020512758417e-07 8.155850960843e-07 -1.019950460139e-08 -2.824316106739e-04 -4.852115317186e-04 -4.402615822595e-04 1.250000000000e-03 2.045307717181e-05 3.358940137804e-09 -5.714216222186e-10 -1.055058849336e-09
486 3 9.306296341497e-03 1.111706893427e-02 1.165004497020e-03 4.230307377544e-07 -2.138781192874e-07 2.580786750556e-07 2.055204599710e-04 2.239749134588e-04 -1.108176474440e-04 1.250000000000e-03 2.045307717181e-05 2.618366637172e-10 2.727335289546e-10 -4.416591489083e-10
487 3 1.196841480098e-02 8.559519465763e-03 6.168413764809e-03 -3.573147956942e-06 5.936373049560e-07 2.729562238998e-07 1.055574284869e-04 -8.544839466751e-04 -2.926971197214e-04 1.250000000000e-03 2.045307717181e-05 8.588530882486e-09 4.041572232902e-09 4.934682667480e-10
488 3 5.380342722368e-03 8.233175685983e-03 8.638333370041e-03 3.675704428142e-07 7.965884894516e-07 5.499680063051e-07 7.550965737458e-05 4.182637217413e-04 -1.455701323816e-03 1.250000000000e-03 2.045307717181e-05 2.093812037482e-10 -5.643473211272e-10 -1.658585995496e-09
489 3 1.535911014644e-02 9.888205796065e-03 9.132329561288e-03 -2.048480035990e-07 1.694822925513e-06 -1.696923976870e-07 -2.666539161614e-03 -4.375430781051e-04 9.537692972890e-04 1.250000000000e-03 2.045307717181e-05 4.694807451820e-11 -2.411043996544e-09 -1.906852215381e-09
490 3 5.812359513733e-03 5.633545683606e-03 2.359062073815e-03 -1.791215771162e-07 1.734522140734e-07 1.431329398636e-07 -6.595061033971e-05 2.543147038300e-04 1.933648082027e-04 1.250000000000e-03 2.045307717181e-05 2.654805206728e-09 2.808745629921e-10 -3.979585101155e-10
491 3 1.161987203055e-02 1.411829684704e-02 1.127124650152e-02 -3.971171368341e-07 3.037457615534e-07 2.430373523780e-07 1.082805316434e-04 1.335659411768e-04 8.529892666074e-05 1.250000000000e-03 2.045307717181e-05 1.855533599987e-09 6.635350237128e-10 -8.462735813439e-10
492 3 1.535066350341e-02 5.877803079445e-03 6.117671289964e-03 -3.265430524018e-06 2.090336480518e-06 -1.569598239377e-06 -4.176610964937e-03 -1.995774228414e-03 2.481644899383e-03 1.250000000000e-03 2.045307717181e-05 1.080500887724e-08 -4.445681100759e-09 3.958684612681e-09
493 3 1.393694605725e-02 8.712538106694e-04 1.033867734933e-02 -1.777698227321e-07 1.046297042593e-06 -1.322311720889e-07 2.650527038434e-04 -4.410357008070e-04 1.312368354789e-04 1.250000000000e-03 2.045307717181e-05 1.283725570570e-09 -3.627579786725e-10 -2.808172115514e-10
494 3 8.602792681922e-03 5.126524029950e-03 1.326431906867e-02 -1.214846690452e-07 2.538765845429e-07 -8.641534004971e-08 3.183017152889e-04 8.246644177461e-05 -1.115768242573e-04 1.250000000000e-03 2.045307717181e-05 7.555764328807e-10 2.428280982869e-10 2.456374433131e-10
495 3 5.310522846670e-03 4.902248130373e-03 7.854404548163e-03 -5.594571638413e-07 7.640702072564e-07 -4.497272217530e-07 1.886395459689e-04 1.313752292484e-04 -7.690384994267e-04 1.250000000000e-03 2.045307717181e-05 3.752922547794e-09 -5.948215957105e-10 1.154528030162e-09
496 3 1.702555389918e-03 5.674678231827e-03 8.579043943653e-03 -6.112125093524e-07 1.486469824828e-06 -2.173872504077e-07 1.507269169053e-04 -1.721344143141e-03 -3.522519095408e-04 1.250000000000e-03 2.045307717181e-05 3.398354092271e-09 4.296560341606e-10 4.093629866124e-10
497 3 1.194566133744e-02 4.369109023937e-03 8.028442687563e-03 -5.620429192782e-07 8.719686461487e-07 -3.725381399965e-07 -4.606710616916e-04 6.985501376826e-05 -4.990783606864e-04 1.250000000000e-03 2.045307717181e-05 2.765928062520e-09 2.446640651778e-10 7.399932891811e-10
498 3 7.345424993619e-03 5.028024606471e-04 1.222065653837e-02 -4.104680275487e-07 5.825975751757e-07 1.800611952866e-07 2.278495262278e-04 2.968972840661e-05 7.599110925641e-05 1.250000000000e-03 2.045307717181e-05 1.400664832008e-09 1.162444782543e-10 -1.154259567097e-10
499 3 1.496172083176e-02 8.201653343198e-03 4.035170228535e-03 1.508550121311e-06 4.729829642743e-07 4.909670121542e-06 1.632113289284e-03 -9.369204401949e-05 -8.689907534519e-04 1.250000000000e-03 2.045307717181e-05 -2.333072991638e-09 5.514423949219e-09 -4.584075618434e-09
500 3 1.134473083138e-02 1.044970981031e-02 1.275228228167e-02 7.651002769866e-08 4.900518520426e-07 -2.041056327995e-07 1.658417987328e-05 -1.311815365891e-04 -3.110779601756e-05 1.250000000000e-03 2.045307717181e-05 -1.335294639951e-10 5.174947483473e-10 1.365445374677e-09
