ITEM: TIMESTEP
300000
ITEM: NUMBER OF ATOMS
500
ITEM: BOX BOUNDS pp pp ff
0.0000000000000000e+00 1.5370634520482899e-02
0.0000000000000000e+00 1.5370634520482899e-02
0.0000000000000000e+00 1.5370634520482899e-02
ITEM: ATOMS id type x y z vx vy vz omegax omegay omegaz radius mass fx fy fz
1 1 6.059677797873e-03 8.739354221007e-03 1.333452058231e-02 -1.537812109986e+01 -1.588550144599e+01 -4.045347062569e+00 -4.368418310406e+03 9.303535473546e+02 -3.912799165525e+03 7.500000000000e-04 4.417864669111e-06 1.537846919720e-02 1.588586102833e-02 4.045438632568e-03
2 1 1.171320436131e-02 9.567261012656e-03 1.373561061772e-02 2.556820312038e+01 -2.390990335831e+01 2.712091828068e+01 8.768266153945e+03 4.512951911685e+03 -9.372403046441e+02 7.500000000000e-04 4.417864669111e-06 -2.556878187921e-02 2.391044458006e-02 -2.712153218658e-02
3 1 4.653342433904e-03 1.174258380336e-02 2.321281871141e-03 -8.459926989619e+00 -8.203346298716e-01 1.970942605074e+01 -1.528873929467e+04 8.880313549799e+03 -6.120756957886e+03 7.500000000000e-04 4.417864669111e-06 7.652045212438e+00 -5.744005671672e+00 5.283808062271e+00
4 1 2.277513151132e-03 6.251196625086e-03 3.959806891863e-03 -6.703479461199e+01 1.809544401789e+01 -5.138552537976e+00 2.673747343549e+04 -1.300119488235e+04 -3.952202692976e+03 7.500000000000e-04 4.417864669111e-06 6.703631200370e-02 -1.809585362423e-02 5.138668853645e-03
5 1 1.446396913196e-02 1.082671559054e-02 2.679283663176e-03 -2.303415545732e+01 -9.576562692444e+00 1.844834946468e+01 -5.274253060980e+03 -1.723894006564e+03 3.066049227590e+03 7.500000000000e-04 4.417864669111e-06 2.303467685574e-02 9.576779466388e-03 -1.844876705934e-02
6 1 1.525098961556e-02 2.671486326211e-03 1.459133727300e-02 8.659918688080e+00 1.844877107054e-01 -1.746162197995e+00 -1.579621173688e+03 -7.622290588760e+03 2.424305827379e+03 7.500000000000e-04 4.417864669111e-06 -5.086965209887e+00 -6.833085752929e+00 2.625426926882e+00
7 1 8.739095735333e-03 1.273899205454e-02 6.532846510403e-03 -2.707257852348e+01 2.151704773209e+00 1.904320662632e+01 -7.165007313994e+03 -1.749401351280e+04 6.216512948174e+02 7.500000000000e-04 4.417864669111e-06 2.707319133518e-02 -2.151753478944e-03 -1.904363768610e-02
8 1 8.042010647086e-03 6.366854714444e-03 5.495656156267e-03 -2.725286871231e+01 -1.129820534471e+01 -3.217454178785e+00 -4.185470726499e+03 -1.723972264075e+04 2.927273956320e+04 7.500000000000e-04 4.417864669111e-06 2.725348560504e-02 1.129846108956e-02 3.217527008698e-03
9 1 3.721554779303e-03 3.003631791106e-03 1.421154185011e-03 1.788090061792e+01 7.283656637312e+00 2.454671150657e+00 4.941743113664e+03 1.495600859703e+04 1.166160819456e+04 7.500000000000e-04 4.417864669111e-06 -1.788130536788e-02 -7.283821509304e-03 -2.454726714304e-03
10 1 6.916527666371e-03 1.421539254992e-02 4.601869902076e-03 -1.252899430749e+01 5.876452676124e+00 -1.386548941371e+01 2.232270237356e+04 1.106148408716e+04 -7.804575027541e+03 7.500000000000e-04 4.417864669111e-06 4.319234989320e-01 2.957462277477e+01 1.048818833613e+00
11 1 8.021902062646e-03 2.362119788951e-03 1.026232422924e-02 -9.676281914655e+00 -2.368139248048e+00 -8.057352511683e+00 1.743779882709e+04 8.641741007313e+02 1.470707309077e+04 7.500000000000e-04 4.417864669111e-06 9.676500945831e-03 2.368192852968e-03 8.057534896965e-03
12 1 4.267771897841e-03 8.833173877430e-03 1.033873710105e-03 -6.087450932788e+00 1.771358354608e+00 -2.431383118583e+01 8.015239594211e+03 3.324319503470e+03 9.529425205582e+03 7.500000000000e-04 4.417864669111e-06 6.087588727609e-03 -1.771398450867e-03 2.431438155084e-02
13 1 8.427686405327e-03 8.117305887764e-03 1.419136984277e-02 4.623969497066e+01 3.452399984904e+01 9.213805469024e-01 6.098525137482e+03 -9.839585671449e+03 2.150253465546e+02 7.500000000000e-04 4.417864669111e-06 -4.624074164694e-02 -3.452478133023e-02 -9.214014031638e-04
14 1 1.418372940791e-02 6.412457881717e-03 6.762402108830e-04 2.231480404222e+00 1.776093446272e+01 -2.404517104001e+01 -2.289488136794e+04 1.260100638005e+03 -2.065975550508e+04 7.500000000000e-04 4.417864669111e-06 -2.837327295487e-01 -1.471182189465e-01 4.910781267571e+00
15 1 3.895314247499e-03 1.707302951324e-04 1.696566587497e-03 -1.876758756404e+01 3.619639525512e+00 -1.703390079495e+00 -4.507020649886e+03 -5.518190449468e+03 -2.385504769491e+03 7.500000000000e-04 4.417864669111e-06 1.876801238494e-02 -3.619721459245e-03 1.703428637232e-03
16 1 1.457442696603e-02 6.736995254982e-03 1.648747672889e-03 -2.807972666013e+00 -5.106784943779e+00 -1.610489105140e+01 -5.176475142430e+03 -9.474015397753e+03 -8.857558852557e+03 7.500000000000e-04 4.417864669111e-06 2.808036226952e-03 5.106900540361e-03 1.610525559982e-02
17 1 1.452832393635e-03 3.477743731359e-03 4.133243589511e-03 -1.495382412430e+01 2.835591854060e+01 1.256797733024e+01 2.574174397734e+04 2.710983482083e+03 -1.776924300415e+04 7.500000000000e-04 4.417864669111e-06 1.495416261730e-02 -2.835656040183e-02 -1.256826181750e-02
18 1 4.753698422835e-03 7.032976205254e-03 2.132408877889e-03 1.820547886210e+01 1.781687330436e+01 -3.409851279521e+00 -7.635927029167e+03 1.465725076055e+04 9.858474363104e+03 7.500000000000e-04 4.417864669111e-06 -1.820589095917e-02 -1.781727660500e-02 3.409928464513e-03
19 1 1.046159524845e-02 1.042625122450e-02 1.350070991517e-02 -1.764282888461e+01 -3.720535376865e+01 -1.541120319697e+01 7.778473364723e+03 -5.965095861538e+03 1.121792868404e+04 7.500000000000e-04 4.417864669111e-06 1.764322824560e-02 3.720619594465e-02 1.541155204314e-02
20 1 9.197938684172e-03 5.520414931720e-03 1.452390659802e-02 1.946384037868e+01 -9.599708663005e+00 8.512665768716e-01 1.808217709901e+04 -1.665475283988e+04 1.835588171043e+03 7.500000000000e-04 4.417864669111e-06 -1.946428095988e-02 9.599925960878e-03 -8.512858460415e-04
21 1 5.712912770034e-03 1.431450989793e-02 2.671096712292e-03 -1.599219277810e+00 -1.158557008517e+01 7.399314992976e+00 1.078864115802e+04 1.434487248859e+03 -3.440226186497e+03 7.500000000000e-04 4.417864669111e-06 1.599255477549e-03 1.158583233477e-02 -7.399482482998e-03
22 1 9.957669528556e-04 8.329651756623e-03 1.026909282861e-02 3.040532396906e+01 -2.220959522255e+01 2.098105318399e+01 -9.220961324406e+02 1.297261977039e+04 -6.206719313598e+03 7.500000000000e-04 4.417864669111e-06 -3.040601222038e-02 2.221009795633e-02 -2.098152810864e-02
23 1 3.800977671313e-03 5.328558161048e-03 1.065917904709e-02 -4.818200829443e+01 -1.203609248637e+01 9.541949104921e+00 -1.153897513525e+04 -5.621406302266e+03 5.829823227366e+03 7.500000000000e-04 4.417864669111e-06 4.818309893669e-02 1.203636493394e-02 -9.542165095355e-03
24 1 1.143439819473e-02 3.112277634559e-03 1.227451331061e-02 1.472934936319e+01 5.682201022442e+00 7.855613256959e+00 -5.124720125061e+03 -5.974182231168e+03 -2.226050738996e+04 7.500000000000e-04 4.417864669111e-06 -3.270237488980e+01 2.212252926061e+01 8.212181878407e+00
25 1 1.207701608510e-02 7.891526789074e-03 8.153696789826e-03 -9.006746987997e+00 -5.526702315271e+01 -3.983797314641e+00 1.862451297522e+04 -1.235075222548e+04 -7.324670451749e+03 7.500000000000e-04 4.417864669111e-06 9.006950863660e-03 5.526827417053e-02 3.983887491407e-03
26 1 1.232328819001e-02 4.531907352932e-03 7.501733763150e-03 2.891861012033e+01 2.061694732293e+01 -8.616864420270e-01 1.196523376223e+03 -1.775920178066e+04 -1.251444806276e+04 7.500000000000e-04 4.417864669111e-06 -2.891926471857e-02 -2.061741400572e-02 8.617059470597e-04
27 1 5.140577207911e-03 2.710463008505e-03 1.339626300469e-02 -2.724371651161e+01 4.834842356019e+00 1.292478277668e+01 -1.216765937526e+03 7.582990364346e+03 -1.145743641660e+04 7.500000000000e-04 4.417864669111e-06 2.724433319716e-02 -4.834951796940e-03 -1.292507534054e-02
28 1 6.381656759846e-03 7.230612619057e-03 1.728751898951e-03 3.079208147559e+01 4.627416227566e+01 -6.713076774909e+01 1.329613101993e+04 2.798269848204e+04 9.607609740297e+03 7.500000000000e-04 4.417864669111e-06 -3.079277848152e-02 -4.627520973214e-02 6.713228731323e-02
29 1 1.453544983810e-02 2.660923481247e-03 8.703769477404e-04 3.300616812596e+00 1.503837824714e+01 5.242384901707e+00 -2.042769303702e+04 4.455861151144e+03 -5.329154171164e+03 7.500000000000e-04 4.417864669111e-06 -3.300691524969e-03 -1.503871865409e-02 -5.242503567713e-03
30 1 5.289789562244e-03 2.757541031023e-03 7.495741370714e-03 8.865982194189e+00 -1.797577245225e+01 -8.370752619625e+00 -7.450299538886e+03 -9.600719443368e+02 7.287990370256e+03 7.500000000000e-04 4.417864669111e-06 -8.866182883516e-03 1.797617934972e-02 8.370942098994e-03
31 1 7.460254711379e-03 7.559229641247e-03 1.262223863645e-02 -3.048722240133e+01 1.175892502106e+01 -1.195178957855e+01 1.503056226488e+03 8.559562277424e+03 -1.946564944895e+04 7.500000000000e-04 4.417864669111e-06 3.048791250650e-02 -1.175919119470e-02 1.195206011785e-02
32 1 1.594314921479e-03 7.455164061242e-03 1.415714502006e-02 1.251458239327e+01 9.768991684468e+00 -4.585218683410e+00 1.338337605114e+04 -1.717729962912e+04 1.661654318665e+04 7.500000000000e-04 4.417864669111e-06 -1.251486567188e-02 -9.769212814212e-03 4.585322473879e-03
33 1 7.665293536456e-03 4.520506133015e-04 9.943106630718e-03 6.171942824206e+00 -5.101136741787e+00 -1.284416829524e+01 -2.303397415144e+04 -1.473130826435e+04 3.211006986176e+03 7.500000000000e-04 4.417864669111e-06 -6.172082531576e-03 5.101252210517e-03 1.284445903432e-02
34 1 1.094646406989e-02 1.486716221481e-02 6.289616595005e-04 6.167868337524e+00 1.249756485125e-02 4.987975882774e+00 -1.144356137720e+02 8.024645143963e+03 6.405463053555e+03 7.500000000000e-04 4.417864669111e-06 -3.134281843033e-02 1.307709612014e-02 3.388631065540e-01
35 1 1.051057678690e-02 6.744208679316e-03 1.679925807217e-03 -1.760493941827e+01 -2.299603619042e+01 5.542553666615e+00 1.688716191067e+04 2.511534040353e+04 1.306416912223e+04 7.500000000000e-04 4.417864669111e-06 1.760533792161e-02 2.299655672598e-02 -5.542679127206e-03
36 1 9.936010766397e-05 3.244915838682e-03 1.407747930505e-02 6.039883397779e+00 3.348946878412e+01 -9.988198853649e+00 3.432582269179e+04 2.297085660945e+03 3.593353722229e+03 7.500000000000e-04 4.417864669111e-06 5.072265075058e+00 6.799411034195e+00 -2.613692300213e+00
37 1 8.437350062134e-03 1.512968413050e-02 6.501634589787e-03 1.266847777008e+01 -1.124510056687e+01 -1.505027676059e+01 1.569238132943e+04 1.567985175576e+04 3.800298351576e+03 7.500000000000e-04 4.417864669111e-06 -1.266876453225e-02 1.124535510964e-02 1.505061743688e-02
38 1 4.777544804115e-03 2.431642499594e-03 1.424306643269e-03 1.471392636821e+01 9.989204105083e+00 6.433826480168e+00 -1.363813072144e+04 2.015103332013e+04 -1.203210579691e+04 7.500000000000e-04 4.417864669111e-06 -1.471425943091e-02 -9.989430219529e-03 -6.433972115506e-03
39 1 5.520289001967e-03 3.919512191719e-03 4.349303725796e-03 2.331107207469e+01 -1.332190832408e+00 2.917650158281e+01 2.646853170535e+04 -1.033243245732e+04 -3.931671097620e+03 7.500000000000e-04 4.417864669111e-06 3.150421925533e+01 -8.925739319966e+00 -1.922834840120e+01
40 1 1.343908001447e-02 1.994984300807e-04 5.489122004288e-03 2.182961196167e+01 6.840616991318e+00 -2.139633937271e+01 7.089051378293e+01 -1.126732957932e+04 3.830281067829e+03 7.500000000000e-04 4.417864669111e-06 -2.183010609420e-02 -6.840771834717e-03 2.139682369772e-02
41 1 1.464022103452e-02 8.969747969609e-03 5.419982442425e-03 1.106769888798e+01 -1.027385256360e+01 -1.243259566400e+01 -1.800695054110e+04 -2.463068892200e+04 -1.330243889967e+03 7.500000000000e-04 4.417864669111e-06 -1.106794941511e-02 1.027408512131e-02 1.243287708677e-02
42 1 1.341832175914e-02 4.339024138075e-03 1.303001715684e-02 -1.352080490325e+01 -1.013183717185e+01 -6.000481017300e+00 -1.444938502911e+04 1.924256670372e+04 -8.537031857502e+03 7.500000000000e-04 4.417864669111e-06 1.352111095859e-02 1.013206651493e-02 6.000616843480e-03
43 1 6.021372794075e-03 7.306429415924e-04 1.203052184581e-02 -5.920044453500e+00 2.878726036973e+01 2.520464588962e+00 4.672800001209e+03 1.646957798366e+03 7.812228400750e+03 7.500000000000e-04 4.417864669111e-06 5.920178458928e-03 -2.878791199476e-02 -2.520521641902e-03
44 1 8.841165980160e-03 2.677419035544e-04 1.469770834960e-02 1.341295228768e+01 2.521974223830e+01 2.445239433353e+01 2.938862960756e+04 9.312818131602e+03 2.145337197080e+04 7.500000000000e-04 4.417864669111e-06 -9.232821153010e-01 -1.650141465338e-01 -5.074581429983e+00
45 1 8.605628283357e-03 3.360251967410e-03 1.923805595214e-03 -3.438358138765e+01 2.673347637517e+00 -1.549571805222e+01 -5.274943601089e+03 2.582597709845e+04 7.812367852174e+03 7.500000000000e-04 4.417864669111e-06 3.438435969034e-02 -2.673408151099e-03 1.549606881147e-02
46 1 1.027545902146e-02 9.438402265898e-03 4.410580963608e-03 -1.027844278738e+01 5.810194861876e+00 4.733248312416e+01 -2.532435650190e+04 8.403770505103e+03 2.003812926581e+04 7.500000000000e-04 4.417864669111e-06 1.027867544900e-02 -5.810326380762e-03 -4.733355453666e-02
47 1 9.107760359922e-04 1.527572088495e-02 1.115195180118e-02 2.597844118549e+01 1.378786435310e+01 -9.347140423278e+00 -3.014290531679e+04 -1.714062225412e+04 -6.747035162107e+03 7.500000000000e-04 4.417864669111e-06 -2.597902923042e-02 -1.378817645357e-02 9.347352004046e-03
48 1 9.140341700110e-04 2.444706196491e-03 1.045624982511e-02 -1.451884762999e+01 2.669701129346e+01 6.417535225936e+00 -1.313594824085e+04 -4.162255038740e+02 1.004858058170e+03 7.500000000000e-04 4.417864669111e-06 1.451917627691e-02 -2.669761560386e-02 -6.417680492506e-03
49 1 1.365659321007e-02 6.005574503299e-03 1.452054973793e-02 -3.487860409948e+01 1.626371076393e+00 -1.560795278583e+00 6.382704250930e+03 3.439144098349e+04 1.400839855741e+01 7.500000000000e-04 4.417864669111e-06 3.487939360745e-02 -1.626407890736e-03 1.560830608561e-03
50 1 4.328238705490e-03 3.541385215816e-03 1.274275870036e-02 -3.747251744279e+00 7.147721206185e+00 -7.228384760423e+00 1.041367792299e+04 5.764086029423e+03 1.130756238782e+03 7.500000000000e-04 4.417864669111e-06 3.747336566627e-03 -7.147883001160e-03 7.228548381288e-03
51 1 8.808422260591e-03 3.797184445908e-03 1.462636799249e-02 -2.304553778282e+00 -1.130522488154e+01 -3.899090600801e+00 -1.517044521641e+04 2.943341111000e+03 -1.885353057141e+04 7.500000000000e-04 4.417864669111e-06 1.215577252028e-02 3.731736400789e-03 3.531948649180e-01
52 1 1.701021351005e-03 1.434563207703e-02 1.295871637614e-02 1.366006220871e+01 3.491068838385e-01 -9.776032724314e+00 -9.552677815058e+03 8.302924772606e+03 1.204613440239e+04 7.500000000000e-04 4.417864669111e-06 2.569700259843e+01 9.349173510776e+00 -4.817400529172e+00
53 1 3.208801038040e-03 5.134416397493e-03 1.338555214390e-02 -5.133252781629e+00 -1.944295663017e+01 1.071427921260e+01 -1.496116789450e+04 2.744756005050e+04 -5.295659937976e+03 7.500000000000e-04 4.417864669111e-06 5.133368977334e-03 1.944339673865e-02 -1.071452173976e-02
54 1 1.277791962288e-02 7.099726483414e-03 1.369382912195e-02 -1.523295645337e+01 -2.266917595539e+01 -1.118921361870e+01 -3.094853819661e+04 2.083868547627e+04 9.788746356155e+03 7.500000000000e-04 4.417864669111e-06 1.523330126478e-02 2.266968909218e-02 1.118946689642e-02
55 1 8.182288060544e-03 3.264405295049e-03 1.299566105877e-02 9.432042252228e+00 9.302028875574e+00 3.017442231122e+01 1.865239310131e+04 2.299977962606e+03 7.419544197178e+03 7.500000000000e-04 4.417864669111e-06 -9.432255754824e-03 -9.302239435203e-03 -3.017510533589e-02
56 1 1.279332193358e-02 8.921747897560e-03 1.468719682333e-02 -8.264345344244e+00 -1.351693132669e+01 8.853114900256e+00 1.210498880826e+04 -2.635028276802e+04 -1.363408785854e+04 7.500000000000e-04 4.417864669111e-06 -4.853315357186e-01 -3.857681769487e-01 -2.080275451303e+00
57 1 6.171388984649e-03 1.148266536201e-02 6.820836330266e-03 -1.424854388147e+01 -9.048538675390e+00 -1.439837037397e+01 1.306468132719e+04 -1.302131032250e+04 3.255731009592e+02 7.500000000000e-04 4.417864669111e-06 1.424886640983e-02 9.048743497044e-03 1.439869629378e-02
58 1 7.412287936105e-03 1.085544900412e-02 3.288043675954e-03 1.705286178737e+01 3.881415029261e+00 -1.094495404484e+01 -1.856680061096e+04 -6.805548160008e+03 -1.219763168999e+04 7.500000000000e-04 4.417864669111e-06 -1.705324779393e-02 -3.881502888514e-03 1.094520179353e-02
59 1 9.409985687641e-03 1.495278410889e-02 8.061518584652e-04 -4.276544928726e+00 -1.901792519331e+00 9.243765265955e-01 6.567607329732e+03 6.353352376351e+03 -1.877703868944e+04 7.500000000000e-04 4.417864669111e-06 4.276641732092e-03 1.901835568083e-03 -9.243974506735e-04
60 1 4.479511507249e-03 4.136490510849e-03 1.331284312717e-02 -3.217383945567e+01 -4.642584098325e+01 4.633075815802e+00 -1.768555743301e+04 -5.505493444477e+03 1.886555738869e+04 7.500000000000e-04 4.417864669111e-06 3.217456773890e-02 4.642689187311e-02 -4.633180689559e-03
61 1 1.182597853031e-02 3.075032240826e-03 2.317655573923e-03 -1.586264378917e+01 -3.457244795101e+00 -6.938436505982e+00 6.439415072210e+03 -1.368122871492e+04 9.688328861977e+02 7.500000000000e-04 4.417864669111e-06 1.586300285411e-02 3.457323052886e-03 6.938593563612e-03
62 1 9.676503142121e-03 6.129878791668e-03 7.145823907013e-03 5.998660037354e+00 9.914197495311e+00 7.291107945188e+00 -1.618052258212e+04 9.732719947379e+03 -5.111739385119e+03 7.500000000000e-04 4.417864669111e-06 -5.998795822315e-03 -9.914421911917e-03 -7.291272985848e-03
63 1 4.162489000739e-03 1.215142289862e-02 1.976000242063e-03 -2.199364001793e+01 1.011673056846e+01 2.316242621353e+00 8.560859321879e+02 -9.846228480254e+03 2.558837247244e+03 7.500000000000e-04 4.417864669111e-06 -7.621590956087e+00 5.734709065301e+00 -5.305834229513e+00
64 1 1.282007388229e-02 1.511848958720e-02 7.858212350468e-03 -2.825838141548e+01 2.002841976715e+01 3.726177809258e+01 -1.494162324047e+04 1.089576604583e+04 9.474242368071e+03 7.500000000000e-04 4.417864669111e-06 2.825902106887e-02 -2.002887312810e-02 -3.726262154580e-02
65 1 1.294253644043e-02 6.552443788207e-03 1.326575035484e-02 9.696408414683e+00 1.014812482160e+01 6.789224108706e+00 1.323890844574e+04 1.707321206321e+04 -3.715734660719e+03 7.500000000000e-04 4.417864669111e-06 -9.696627901440e-03 -1.014835453336e-02 -6.789377788783e-03
66 1 7.821360481929e-03 3.654846597209e-03 1.436099863502e-02 -5.446008037081e+01 1.370612171993e+01 2.418241657938e+01 -1.089841795698e+04 1.698170376957e+04 -1.628064584718e+02 7.500000000000e-04 4.417864669111e-06 5.446131312277e-02 -1.370643197009e-02 -2.418296396971e-02
67 1 1.302459052451e-02 4.487291536895e-03 5.707158556191e-03 9.955635864221e+00 7.796561842739e+00 2.070002947375e+01 -1.257255156438e+04 5.607314001244e+03 -5.497029219027e+03 7.500000000000e-04 4.417864669111e-06 -9.955861218820e-03 -7.796738324794e-03 -2.070049803717e-02
68 1 4.445103483530e-03 2.741894031514e-03 7.747396071451e-03 -3.463248980889e+00 -1.966829071027e+01 2.882012253786e+01 -2.523697039718e+04 -8.659633567134e+03 1.463757865254e+04 7.500000000000e-04 4.417864669111e-06 3.463327374585e-03 1.966873591938e-02 -2.882077490676e-02
69 1 6.622373465167e-03 6.382945337910e-03 9.393847127780e-04 -1.101299914504e+01 1.767653247634e+01 7.696096794716e+00 -1.191885129832e+04 -1.820537661913e+04 1.457139058610e+04 7.500000000000e-04 4.417864669111e-06 2.023920201378e+01 7.466652687730e+00 9.895283988599e+00
70 1 1.035277047125e-02 1.134536967407e-02 1.041746890819e-03 2.121264193832e+00 1.353073628833e+01 -5.531611105357e+00 1.425066745691e+04 -2.020295671122e+04 -1.076649102984e+04 7.500000000000e-04 4.417864669111e-06 -2.121312210519e-03 -1.353104256848e-02 5.531736318253e-03
71 1 1.115317191930e-02 1.379030756183e-02 1.359417906913e-02 -2.642835009521e+01 1.087911965936e+01 3.063549444756e+01 -2.979574423379e+04 -7.139391643370e+03 -1.410712172448e+04 7.500000000000e-04 4.417864669111e-06 2.642894832423e-02 -1.087936591782e-02 -3.063618790900e-02
72 1 2.665792596426e-03 1.477266068550e-02 5.695176122615e-03 -2.215045668247e+01 -9.184398264926e+00 -1.529805647065e+01 -7.302017336630e+02 -1.497460956049e+04 -1.209380390903e+02 7.500000000000e-04 4.417864669111e-06 2.215095807759e-02 9.184606161882e-03 1.529840275565e-02
73 1 1.113291242043e-02 4.370247387732e-03 1.459995078174e-02 -2.112573076475e+00 1.950612894956e+01 -1.414243046222e+00 2.615377956806e+04 2.863683059403e+03 1.056209957119e+03 7.500000000000e-04 4.417864669111e-06 2.112620896430e-03 -1.950657048800e-02 1.414275058861e-03
74 1 1.537587888792e-02 1.605272967850e-03 7.734331906413e-03 2.459810870663e+01 -4.746113064842e+00 -1.375333666039e+01 -2.158072926463e+02 2.575138969203e+02 -1.396240180061e+04 7.500000000000e-04 4.417864669111e-06 -2.459866550652e-02 4.746220497298e-03 1.375364797930e-02
75 1 4.296508427763e-03 7.286092531617e-03 4.822450299481e-03 2.647101541803e+00 -9.958351768586e+00 -3.013886345155e+01 -2.233648347864e+03 3.198693100723e+03 2.247212221136e+04 7.500000000000e-04 4.417864669111e-06 -2.647161461282e-03 9.958577184662e-03 3.013954567131e-02
76 1 4.201516251489e-03 1.408291918454e-02 1.331630648008e-02 8.796945558763e+00 1.193928665417e+01 2.344363887954e+01 -3.609496454188e+03 -2.790092396469e+04 5.366411605163e+03 7.500000000000e-04 4.417864669111e-06 -8.797144685385e-03 -1.193955691045e-02 -2.344416954698e-02
77 1 5.421582220142e-04 9.411000775957e-03 4.085258344362e-04 -1.392110281469e+01 1.659132014430e+01 4.303957719216e+00 -1.965519766946e+04 -1.892394914051e+04 1.796083856600e+04 7.500000000000e-04 4.417864669111e-06 -7.084687386376e-02 -5.602018603620e-01 5.245443950335e+00
78 1 9.414064480513e-03 7.901457239033e-03 9.563226710255e-03 3.215913216884e+00 1.560352096381e+01 -2.638337813830e+01 -1.042997089764e+04 -3.400308504472e+03 1.086627362625e+04 7.500000000000e-04 4.417864669111e-06 -3.215986011916e-03 -1.560387416327e-02 2.638397534934e-02
79 1 5.906869297856e-03 2.414221225885e-03 1.768904595855e-03 7.868108372018e+00 1.886823976215e+00 4.807159311921e+00 -2.545092708485e+03 1.104309443356e+04 -6.437505970308e+03 7.500000000000e-04 4.417864669111e-06 -7.868286473591e-03 -1.886866686140e-03 -4.807268126212e-03
80 1 8.230128572727e-03 6.212686550870e-03 4.178016628902e-03 -1.268072380358e+01 7.326521430103e+00 8.109627651846e+00 -1.070262951322e+04 -1.853095021539e+04 1.430884718722e+03 7.500000000000e-04 4.417864669111e-06 1.268101084295e-02 -7.326687272378e-03 -8.109811220421e-03
81 1 1.360314113770e-02 1.243641081338e-02 8.047938967938e-04 -6.018242843208e+00 3.382880481542e+00 -2.196985250087e-02 2.116463060688e+04 -2.112273998614e+04 -6.210465920476e+03 7.500000000000e-04 4.417864669111e-06 6.018379071443e-03 -3.382957056026e-03 2.197034980786e-05
82 1 5.437153478243e-04 4.097875287782e-03 2.579994169565e-03 -1.189394813014e+01 3.443175779873e+01 4.863906792748e+00 3.693725979145e+03 -8.280543334493e+03 -8.734569410307e+03 7.500000000000e-04 4.417864669111e-06 1.189421736015e-02 -3.443253719194e-02 -4.864016891568e-03
83 1 3.999399395219e-03 1.459083940955e-02 4.717521644784e-03 -1.663032083100e+00 2.585152640540e+01 -3.641242784296e+00 -4.232330246370e+03 5.253743338839e+03 1.158190731077e+04 7.500000000000e-04 4.417864669111e-06 1.663069727298e-03 -2.585211157751e-02 3.641325207038e-03
84 1 6.904913272760e-03 2.569520003904e-03 6.684839244547e-03 7.595898558734e+00 -2.485522042027e+01 1.010817945873e+01 -1.711869818475e+03 -7.922876642547e+03 -7.065721126401e+03 7.500000000000e-04 4.417864669111e-06 -7.596070498597e-03 2.485578304011e-02 -1.010840826628e-02
85 1 1.135436018028e-02 1.285885026027e-02 1.446079330800e-02 -2.190336548121e+00 2.383955475421e+01 9.580257524015e+00 5.389763207992e+03 -1.339320273156e+04 -1.722962533323e+04 7.500000000000e-04 4.417864669111e-06 2.190386128320e-03 -2.384009438356e-02 -9.580474381594e-03
86 1 1.508020596424e-02 1.466806992241e-03 1.297736522721e-02 3.600755683830e+01 -9.538923920570e+00 2.111866418299e+01 -5.317137535960e+03 -1.586869828756e+04 -1.178707914641e+04 7.500000000000e-04 4.417864669111e-06 -3.600837190111e-02 9.539139842527e-03 -2.111914222258e-02
87 1 1.416126198318e-02 1.008747714921e-03 4.821840066271e-03 6.814354593032e-01 -1.072704062710e+01 -1.366825788032e+01 -9.276430122109e+03 -1.246014149463e+04 -3.335822216910e+03 7.500000000000e-04 4.417864669111e-06 -6.814508841959e-04 1.072728344313e-02 1.366856727339e-02
88 1 6.099301962185e-03 1.383113002759e-02 7.037098696783e-03 9.281162627039e+00 1.312540132483e+01 -3.594475367069e+01 1.054215665302e+04 -7.291176730000e+03 1.430198461080e+04 7.500000000000e-04 4.417864669111e-06 -9.281372714341e-03 -1.312569842987e-02 3.594556731189e-02
89 1 2.458733222158e-03 1.355691744850e-02 1.099673810767e-02 -6.520336638712e-01 -2.127996597267e-01 -8.563382000235e+00 2.706246155961e+03 8.012980225840e+03 1.938568800209e+04 7.500000000000e-04 4.417864669111e-06 6.520484232284e-04 2.128044766347e-04 8.563575839940e-03
90 1 6.418912732469e-03 7.705027959308e-03 6.541111248793e-03 8.962838968394e+00 -4.754662351999e+01 -1.452148031862e+01 4.808350627477e+03 -2.760926231851e+04 -7.370439034857e+03 7.500000000000e-04 4.417864669111e-06 -8.963041850160e-03 4.754769977975e-02 1.452180902513e-02
91 1 5.664391185485e-03 6.233140424205e-03 1.449947879820e-02 9.191867013102e+00 -4.652759864801e+00 -7.111479909047e-01 -2.251432169530e+04 -6.273221923409e+03 -2.109094925795e+03 7.500000000000e-04 4.417864669111e-06 -9.192075079120e-03 4.652865184125e-03 7.111640883668e-04
92 1 1.178902303347e-02 1.970012921934e-03 2.557070838788e-03 1.740469004984e+01 2.803562792076e+01 4.202672187922e+00 -2.696579358393e+03 -1.615913445339e+03 -3.543731420660e+03 7.500000000000e-04 4.417864669111e-06 -1.740508402035e-02 -2.803626253192e-02 -4.202767319114e-03
93 1 5.739861593397e-03 6.089952586294e-03 1.088693577969e-02 3.537464799495e+01 -2.686192564681e+01 -2.022088564568e+00 -1.221993449409e+04 -3.993230695165e+03 1.686705062283e+04 7.500000000000e-04 4.417864669111e-06 -3.537544873131e-02 2.686253369019e-02 2.022134336326e-03
94 1 5.863920867033e-03 1.470788189185e-02 6.747663355324e-04 -1.636481627587e+01 -7.093447625983e+00 4.017355789582e+00 -3.412549794725e+03 -9.430069916677e+03 -1.801207248436e+04 7.500000000000e-04 4.417864669111e-06 3.580320683042e-02 2.733488618356e-02 -6.014394531612e-02
95 1 1.210768833340e-02 1.006634487679e-02 3.652983078868e-03 6.691948839562e+00 2.296560448333e+01 2.205329670899e+01 -1.729885440988e+04 2.193839046443e+04 -2.680572944749e+04 7.500000000000e-04 4.417864669111e-06 -6.692100317727e-03 -2.296612433004e-02 -2.205379590481e-02
96 1 1.213233922375e-02 4.206931879359e-04 2.112612044375e-03 2.861170048935e+01 1.513938609976e+01 6.916569009589e+00 -1.465288084861e+04 -6.573983417489e+03 1.047682145024e+04 7.500000000000e-04 4.417864669111e-06 -2.861234814042e-02 -1.513972879311e-02 -6.916725572230e-03
97 1 1.405443100168e-02 1.093939573170e-03 3.060292410765e-03 -2.256903647129e+00 1.074696629246e+00 2.596386943117e+01 -1.758439882802e+04 -1.092796662624e+03 -1.054404341238e+03 7.500000000000e-04 4.417864669111e-06 2.256954734133e-03 -1.074720955952e-03 -2.596445714625e-02
98 1 1.249700016659e-02 1.269287263474e-02 1.404701395076e-02 -3.800947192633e+01 3.017727752064e+01 -1.225872571055e+01 -2.104007338089e+04 -8.756161434344e+02 -8.086805415891e+03 7.500000000000e-04 4.417864669111e-06 -1.531638010769e+01 1.874629356546e+01 -6.040515471053e+00
99 1 3.103442854819e-03 1.202306808889e-02 6.093958089103e-03 -9.170779278739e-01 -1.091395257892e+01 7.187434566200e+00 9.245207620818e+03 -3.051408855623e+04 4.432021728986e+03 7.500000000000e-04 4.417864669111e-06 9.170986867417e-04 1.091419962586e-02 -7.187597260121e-03
100 1 2.116162604777e-03 8.304640071020e-03 4.071589713310e-03 -2.112726568040e+01 8.302589179550e+00 -5.112318825446e+00 -2.111624585723e+04 5.067832581582e+03 8.180371843987e+03 7.500000000000e-04 4.417864669111e-06 2.112774391470e-02 -8.302777115979e-03 5.112434547292e-03
101 2 1.462710352702e-02 8.578172528682e-03 1.437980161914e-02 8.445452149069e+00 1.059014076918e+01 5.343306535656e+00 1.475786285767e+04 -6.675562709188e+03 -1.822110261044e+03 1.000000000000e-03 1.047197551197e-05 -5.962318020454e-02 1.106887612356e-01 -9.627935489961e-01
102 2 1.217235616696e-02 1.573719149995e-03 1.405342657151e-02 -1.148325465346e+01 4.128925527229e+00 -2.569773650232e+00 7.343117735930e+03 5.010492008581e+03 -3.504650364008e+03 1.000000000000e-03 1.047197551197e-05 1.148336431151e-02 -4.128964955940e-03 2.569798189997e-03
103 2 3.267938385074e-03 2.200761240918e-04 3.231484679767e-03 -1.511236450392e+01 -2.700140371409e+00 6.484927879966e+00 3.244646978339e+03 -1.560197991089e+04 -5.514356058898e+03 1.000000000000e-03 1.047197551197e-05 1.511250881775e-02 2.700166156097e-03 -6.484989807057e-03
104 2 5.639498032011e-03 8.594861735304e-03 1.382707848007e-02 -1.187557556180e+00 -1.683188733635e+01 -5.163289580262e+00 -1.659066003690e+04 1.456062418636e+03 4.618100892087e+03 1.000000000000e-03 1.047197551197e-05 1.187568896628e-03 1.683204807056e-02 5.163338886517e-03
105 2 1.627422407205e-03 3.844780779439e-03 1.525049896982e-03 -6.880963973182e+00 2.079896410068e+01 -5.057809826928e+00 -6.413387298576e+03 -5.541817885099e+02 3.016855969760e+03 1.000000000000e-03 1.047197551197e-05 6.881029682175e-03 -2.079916271806e-02 5.057858125915e-03
106 2 1.045389801926e-02 9.190622688839e-03 2.823135656647e-03 -2.877979449132e+00 -1.392600456920e+01 -1.635328456270e+01 -8.500829492920e+03 1.270130666423e+04 -1.013843512293e+04 1.000000000000e-03 1.047197551197e-05 4.166043006078e+01 -2.399860853317e+01 -2.045894454136e+01
107 2 4.479112565097e-03 4.349791282069e-03 2.180281257979e-03 1.120670567004e+01 9.866952799979e+00 2.953234581654e+01 -1.030635198496e+04 -2.152217529894e+04 -2.052477405335e+03 1.000000000000e-03 1.047197551197e-05 -1.120681268721e-02 -9.867047023337e-03 -2.953262783236e-02
108 2 9.007231143546e-04 9.559943915440e-03 3.320993554519e-03 1.956223857542e+01 1.705224012188e+01 8.844539225386e+00 1.493239668526e+04 4.358153147257e+03 -6.687501155680e+03 1.000000000000e-03 1.047197551197e-05 -1.956242538282e-02 -1.705240296033e-02 -8.844623685320e-03
109 2 4.807906466181e-03 2.588830782630e-03 1.002746546385e-02 -2.293051273357e+01 2.793105481365e+00 3.130751061322e+00 -9.320102974376e+02 1.139900195039e+03 1.389391834699e+03 1.000000000000e-03 1.047197551197e-05 2.293073170593e-02 -2.793132153812e-03 -3.130780958078e-03
110 2 1.164296971824e-02 1.220001680156e-02 1.374992538132e-02 7.616122861572e+00 -1.751374000590e+00 -1.784721342488e+01 -2.615469339248e+03 8.456394328218e+03 1.021875104766e+04 1.000000000000e-03 1.047197551197e-05 -7.616195590883e-03 1.751390725140e-03 1.784738385484e-02
111 2 3.196420318380e-03 1.342732919139e-02 8.667397815965e-03 -3.126479585280e+00 -2.589818285257e+00 2.377972254062e+00 -8.254567772912e+02 2.158322593969e+03 5.861689671142e+03 1.000000000000e-03 1.047197551197e-05 3.126509441246e-03 2.589843016436e-03 -2.377994962241e-03
112 2 1.144841530573e-02 6.620984159312e-03 1.408821242745e-02 -1.223445633576e+01 -1.443167824349e+01 1.982425404473e+00 8.482648237592e+03 1.911040477718e+03 -4.096810570834e+03 1.000000000000e-03 1.047197551197e-05 1.223457316733e-02 1.443181605719e-02 -1.982444335422e-03
113 2 1.186856849216e-02 1.035248532878e-02 2.182571672451e-03 1.260073893199e+01 -3.526902845536e+01 2.770468111097e-01 -1.395120496756e+03 8.620790543922e+03 7.979428377007e+02 1.000000000000e-03 1.047197551197e-05 -1.260085926133e-02 3.526936525299e-02 -2.770494567371e-04
114 2 4.471895385395e-03 1.324775960072e-02 4.479154482714e-03 6.929861693575e+00 2.104902349276e+01 -1.525575092219e+00 8.545000575549e+03 3.461322032194e+03 5.536873220188e+03 1.000000000000e-03 1.047197551197e-05 -6.929927869512e-03 -2.104922449805e-02 1.525589660528e-03
115 2 9.968947008770e-03 7.178693110878e-04 6.706069464561e-03 -6.120610871284e+00 7.012933227812e+00 -2.454267141523e+01 7.426782929700e+03 7.643272476105e+03 -6.148366893431e+02 1.000000000000e-03 1.047197551197e-05 6.120669319371e-03 -7.013000197031e-03 2.454290578272e-02
116 2 5.046297605942e-03 1.274116028994e-03 3.398123129936e-03 3.940366328275e+01 -1.786822481293e+01 -1.381814360980e+01 -2.366446473814e+02 -2.080913950521e+03 1.520554363963e+03 1.000000000000e-03 1.047197551197e-05 -3.940403956361e-02 1.786839544353e-02 1.381827556462e-02
117 2 6.880741897654e-03 1.368636955717e-02 4.802552446780e-03 -1.229856866747e+01 -3.828526789631e+00 2.627662213340e+00 -7.906182009270e+01 -3.989427713981e+03 9.009168957688e+03 1.000000000000e-03 1.047197551197e-05 -4.070900466326e-01 -2.957628370085e+01 -1.037567174047e+00
118 2 9.543808934736e-03 1.018669006249e-02 9.487428363638e-03 6.439511508120e+00 -7.514827699801e+00 -1.317084076330e+01 7.710065613053e+03 -1.803852447046e+04 4.392832782254e+03 1.000000000000e-03 1.047197551197e-05 -6.439573001512e-03 7.514899461805e-03 1.317096653677e-02
119 2 1.530655264391e-02 1.118809117174e-02 1.497841513018e-03 -1.166619160387e+01 5.365440313022e+00 -2.086065692766e+00 -4.166954762270e+02 2.312351326309e+03 1.007063394423e+04 1.000000000000e-03 1.047197551197e-05 1.166630300885e-02 -5.365491549692e-03 2.086085613417e-03
120 2 1.322334793806e-02 8.989202978405e-04 5.330365919099e-03 1.727777078505e+01 -1.475295873754e+00 5.011798399318e+00 6.629839733378e+03 -7.719293213893e+03 -7.266756170109e+03 1.000000000000e-03 1.047197551197e-05 -1.727793577718e-02 1.475309961926e-03 -5.011846258925e-03
121 2 1.191837655615e-02 2.881350634314e-03 1.215960063061e-02 -1.442776863848e+01 1.520274645929e+01 1.347043392450e+01 1.457994941553e+02 6.730721798892e+03 -5.166686504410e+03 1.000000000000e-03 1.047197551197e-05 3.270164535644e+01 -2.214312490773e+01 -8.233400663001e+00
122 2 1.493152897005e-02 1.498529882321e-02 3.940652865967e-03 -1.058596666130e+00 7.972112605795e+00 7.332257758627e+00 -1.337986031824e+04 -2.755891964325e+03 6.550068098198e+00 1.000000000000e-03 1.047197551197e-05 1.058606775080e-03 -7.972188734589e-03 -7.332327777200e-03
123 2 4.273270477369e-04 4.453733549917e-03 8.070849212109e-03 6.901300843807e+00 1.388018164138e-01 2.825678173398e+01 1.156702801557e+03 -2.271243240227e+04 -2.841062574634e+03 1.000000000000e-03 1.047197551197e-05 -6.901366747005e-03 -1.388031418862e-04 -2.825705156895e-02
124 2 1.214832810292e-02 4.781105776990e-03 1.375784365383e-02 -1.220602362741e+01 -2.290097246367e+00 -3.296914140575e-01 -5.899712527898e+03 -4.185048239479e+02 3.423927567886e+02 1.000000000000e-03 1.047197551197e-05 1.220614018747e-02 2.290119115394e-03 3.296945624087e-04
125 2 2.989105571439e-03 1.037709595920e-04 1.027671379859e-02 1.564188809993e+01 -7.335227916748e+00 -1.538798477646e+01 1.496950297635e+04 -6.571082600908e+03 3.467741594811e+03 1.000000000000e-03 1.047197551197e-05 -1.564203747039e-02 7.335297963684e-03 1.538813172230e-02
126 2 5.314824042210e-03 1.779905725721e-03 1.111939020278e-02 -3.576875962545e+00 1.553108650496e+01 9.291012540786e+00 5.941617366931e+03 6.352363560755e+03 4.221033265072e+02 1.000000000000e-03 1.047197551197e-05 3.576910119520e-03 -1.553123481733e-02 -9.291101264267e-03
127 2 1.137908946096e-02 3.908634490229e-04 1.437986158157e-02 -2.300265705238e+00 -5.691660626095e+00 -3.525556391085e+00 1.910733574510e+03 2.891453373054e+03 -4.008652021458e+03 1.000000000000e-03 1.047197551197e-05 -2.017855826002e-02 2.942986980905e-01 5.824877277344e-01
128 2 8.737551295292e-03 3.650241608060e-03 8.196445061812e-03 1.566310021786e+01 3.325121805722e+00 -8.152426711376e-01 -9.484150806993e+03 -4.014373016138e+03 -1.992362876365e+03 1.000000000000e-03 1.047197551197e-05 -1.566324979088e-02 -3.325153558600e-03 8.152504562060e-04
129 2 4.175799928185e-03 1.126210007366e-02 1.083968707431e-02 1.117662822456e+01 -9.345321566830e+00 -6.555236631746e+00 -4.151217097804e+03 3.276424236183e+03 1.798788717477e+03 1.000000000000e-03 1.047197551197e-05 -1.117673495452e-02 9.345410808930e-03 6.555299230242e-03
130 2 1.524848478197e-02 1.121543970150e-03 8.975449426562e-03 -3.761420345960e+01 -7.947812857941e+00 -1.237277627795e+01 -9.307778285166e+03 1.171233921147e+03 8.451149861128e+03 1.000000000000e-03 1.047197551197e-05 3.761456265222e-02 7.947888754687e-03 1.237289443039e-02
131 2 1.121797311876e-02 1.378057894950e-02 6.804930802285e-03 -3.439619836621e+01 1.297028202484e+01 2.004218521724e+01 -2.864932690895e+02 -1.090815922046e+04 -3.689121346453e+03 1.000000000000e-03 1.047197551197e-05 3.439652682885e-02 -1.297040588309e-02 -2.004237660784e-02
132 2 9.132963160018e-03 3.182586738029e-03 4.730582238084e-03 5.750241392736e+00 2.212404755387e+01 -1.595017599237e+01 -1.225845926707e+03 -3.153378016485e+03 3.230683086419e+03 1.000000000000e-03 1.047197551197e-05 -5.750296304021e-03 -2.212425882498e-02 1.595032830678e-02
133 2 7.245141489005e-03 2.652405513029e-03 1.034494529080e-03 -2.027594997978e+01 -6.745936247942e+00 4.197848149819e-01 3.501702251741e+03 1.181947684796e+04 -4.022977889847e+03 1.000000000000e-03 1.047197551197e-05 2.027614360269e-02 6.746000667503e-03 -4.197888236699e-04
134 2 1.485518622191e-03 2.761891624507e-03 8.759405486797e-03 -3.585062359675e+01 -2.226821870324e+01 5.973162462378e+00 -2.399353038281e+03 9.969999476639e+03 1.098011874480e+04 1.000000000000e-03 1.047197551197e-05 3.585096594826e-02 2.226843135109e-02 -5.973219502422e-03
135 2 3.032687825344e-03 2.410238732130e-03 8.368349148240e-03 3.017375989302e+01 2.455395151691e+01 -1.467865810545e+01 1.086002200935e+04 -6.626880508534e+03 4.118862462008e+03 1.000000000000e-03 1.047197551197e-05 -3.017404803396e-02 -2.455418599211e-02 1.467879827765e-02
136 2 2.434871221011e-03 1.004131808376e-02 1.524303578702e-03 3.141333449142e+00 1.139469479859e+01 1.173794170006e-03 -1.715928608193e+04 1.228823424519e+04 -2.758072377327e+03 1.000000000000e-03 1.047197551197e-05 -3.141363446953e-03 -1.139480361095e-02 -1.173805379022e-06
137 2 1.513158138901e-02 7.811647932694e-03 1.341121949666e-02 6.855715358949e+00 9.124580704546e+00 -4.518865420461e+00 5.229923539300e+03 -1.219618550177e+04 -8.418097670046e+03 1.000000000000e-03 1.047197551197e-05 -6.855780826834e-03 -9.124667838705e-03 4.518908572859e-03
138 2 8.604334489457e-03 7.129074275876e-03 3.130160921194e-03 4.586335042744e+00 -1.366608659424e+00 1.556454392328e+01 9.181083320874e+03 -1.043585745549e+04 2.046838800486e+03 1.000000000000e-03 1.047197551197e-05 -4.586378839436e-03 1.366621709700e-03 -1.556469255514e-02
139 2 1.091589332273e-03 7.269186467377e-03 7.741458849505e-03 1.664605874223e+01 -5.533716478636e+00 -3.304791887720e+00 -1.052842855956e+04 2.607053345285e+03 7.659021814286e+03 1.000000000000e-03 1.047197551197e-05 -1.664621770189e-02 5.533769322240e-03 3.304823446459e-03
140 2 1.262619901395e-02 6.801734093466e-03 1.434798714847e-02 -4.284955076018e-01 -1.197371593333e+01 -4.515353697918e+00 -1.172856941663e+04 3.591681592655e+02 -8.400747746291e+03 1.000000000000e-03 1.047197551197e-05 4.284995994716e-04 1.197383027499e-02 4.515396816781e-03
141 2 1.005736948757e-02 7.715595718931e-03 5.920489662659e-03 -2.047586223037e+01 8.979792111063e-01 2.260287638785e+00 -5.390687628925e+03 9.880358086596e+03 3.765235562674e+03 1.000000000000e-03 1.047197551197e-05 2.047605776232e-02 -8.979877862580e-04 -2.260309223148e-03
142 2 1.215439964595e-02 5.493872735385e-03 8.361573857741e-04 8.015050520022e+00 2.173260046555e+01 7.331477718054e+00 -1.856051897229e+04 6.167496172085e+03 5.886571870638e+03 1.000000000000e-03 1.047197551197e-05 -5.273093716417e-02 -9.826270829023e-02 -1.846034215504e-01
143 2 6.240981257386e-04 1.255818607019e-02 7.346662943958e-03 1.531740864245e+01 -1.585938872491e-01 1.731097699866e+00 -4.266548406397e+03 -8.107442158735e+02 -2.710349567370e+03 1.000000000000e-03 1.047197551197e-05 -1.531755491432e-02 1.585954017237e-04 -1.731114230789e-03
144 2 1.026508867538e-03 1.376264843917e-03 1.153961364709e-02 -2.314246154434e+01 1.598733330537e+01 8.988283171093e+00 -8.360077533676e+03 1.891640862141e+03 1.485183951532e+03 1.000000000000e-03 1.047197551197e-05 2.314268254068e-02 -1.598748597461e-02 -8.988369003694e-03
145 2 1.094294454075e-02 3.258259006131e-03 1.011717772094e-03 -8.958787006503e+00 1.897012134994e+01 -1.627593498581e+01 1.332052713161e+04 2.612116650127e+03 -5.511917552010e+03 1.000000000000e-03 1.047197551197e-05 8.958872557435e-03 -1.897030250299e-02 1.627609041103e-02
146 2 4.463979438002e-03 4.038148184482e-03 5.625879971012e-03 -1.294862925269e+01 -1.298741462244e+01 1.522668347933e+01 -1.244031515855e+04 2.043014310928e+03 1.673824822837e+03 1.000000000000e-03 1.047197551197e-05 1.294875290418e-02 1.298753864430e-02 -1.522682888484e-02
147 2 1.333139768777e-02 6.121414026454e-03 5.997300517543e-04 -2.488246966215e+01 1.065957643915e+00 9.772448029036e+00 -9.724801106726e+02 -2.157851289882e+04 7.312657292590e+03 1.000000000000e-03 1.047197551197e-05 1.650648287619e+00 -4.695414517509e-02 4.944734738344e+00
148 2 6.418135393245e-03 9.623416276383e-03 1.180386792310e-02 2.416480357527e+01 1.442760666368e+01 7.570095935197e+00 -3.719208068516e+02 -2.430813564834e+03 -2.131998067048e+03 1.000000000000e-03 1.047197551197e-05 -2.416503433435e-02 -1.442774443850e-02 -7.570168224978e-03
149 2 7.005306291091e-03 1.302348351336e-02 2.254197741325e-03 1.289747934585e+00 2.811114496222e+01 9.612184344777e+00 4.317649194569e+03 -7.499712758103e+03 1.489825622119e+03 1.000000000000e-03 1.047197551197e-05 -1.289760250888e-03 -2.811141340644e-02 -9.612276135252e-03
150 2 6.125984259267e-03 6.991449458029e-03 6.783837350719e-03 7.432606334066e-01 -4.427683361923e+00 2.088275487191e+01 -7.560859891020e+03 -1.715975181958e+04 -4.169664916951e+03 1.000000000000e-03 1.047197551197e-05 -7.432677310906e-04 4.427725643588e-03 -2.088295428943e-02
151 2 9.996492165408e-03 7.644210759729e-03 6.948087959899e-03 5.047013370581e+00 -1.301774542358e+01 2.855096585050e+01 -9.424232511958e+03 -5.059865629999e+03 6.338085977639e+03 1.000000000000e-03 1.047197551197e-05 -5.047061566469e-03 1.301786973508e-02 -2.855123849475e-02
152 2 1.348277635445e-02 6.303177339197e-03 1.375259681773e-02 1.395957481769e+01 -3.112512580689e+01 7.621187224594e+00 4.451949944900e+03 -7.239290457130e+03 1.035352422702e+04 1.000000000000e-03 1.047197551197e-05 -1.395970812308e-02 3.112542303279e-02 -7.621260002266e-03
153 2 2.225937196007e-03 1.193253872832e-02 3.692865296497e-03 1.390339310439e+01 -3.728739988687e+00 1.059982562025e+01 -1.116146140000e+04 -7.735147627243e+02 4.157687039799e+03 1.000000000000e-03 1.047197551197e-05 -1.390352587328e-02 3.728775595871e-03 -1.059992684210e-02
154 2 5.860824925573e-03 4.241194100723e-03 5.580726594523e-03 1.856683559586e+01 3.196264876968e+01 1.450562210505e+01 -1.501834095867e+03 9.264673528054e+02 1.572078205924e+03 1.000000000000e-03 1.047197551197e-05 -1.856701289777e-02 -3.196295399341e-02 -1.450576062486e-02
155 2 1.123105492672e-02 1.023666292022e-04 1.689332257194e-03 1.193681214667e+01 4.704513551394e+00 -3.490790793752e+00 -2.045238644983e+03 1.304277290417e+04 -7.759910989049e+01 1.000000000000e-03 1.047197551197e-05 -1.193692613592e-02 -4.704558476618e-03 3.490824128667e-03
156 2 5.551473696276e-03 8.006557861018e-03 1.122678454701e-02 3.481095118483e+00 -3.023626620595e+00 -2.338982599380e+00 2.534101354395e+03 6.003338113536e+02 -9.949683442587e+03 1.000000000000e-03 1.047197551197e-05 -3.481128360811e-03 3.023655494378e-03 2.339004935232e-03
157 2 1.487709112523e-03 1.199752301528e-02 1.379508219246e-02 -1.617749439441e+01 -3.748148694278e+00 -3.790868954860e+00 -2.865016252281e+03 -2.632620181531e+03 -2.105275929172e+03 1.000000000000e-03 1.047197551197e-05 1.617764887958e-02 3.748184486803e-03 3.790905155338e-03
158 2 8.982641691743e-03 5.960190773310e-03 7.812472374861e-03 1.072691405658e+00 1.898696120611e+00 -1.096203975449e+01 -3.676173846405e+02 4.273612255616e+03 -7.209754995413e+03 1.000000000000e-03 1.047197551197e-05 -1.072701649204e-03 -1.898714251996e-03 1.096214443526e-02
159 2 2.382253304616e-03 4.378303451018e-03 1.413512968779e-02 -7.308898241102e+00 -3.246373146940e-01 -2.256357604394e+00 3.099613978156e+03 -5.030224692325e+03 -3.318537160266e+03 1.000000000000e-03 1.047197551197e-05 7.308968036606e-03 3.246404147816e-04 2.256379151228e-03
160 2 6.833797761040e-03 4.931049506006e-05 8.464262632941e-03 2.491203449938e+01 5.944938812577e+00 -1.489176988056e-01 -2.853636100860e+02 4.323697747875e+03 -5.142263014966e+03 1.000000000000e-03 1.047197551197e-05 -2.491227239405e-02 -5.944995583103e-03 1.489191208785e-04
161 2 1.392017004970e-02 1.338925856720e-02 1.120564433882e-02 1.364289133082e+01 2.031905526074e+00 -3.174012323425e+00 5.338579934327e+03 3.498308528694e+03 -3.942191776367e+03 1.000000000000e-03 1.047197551197e-05 -1.364302161208e-02 -2.031924929528e-03 3.174042633300e-03
162 2 3.605129862179e-03 1.018816923413e-02 1.258098058686e-02 -8.202925604048e+00 -2.835015139998e+01 4.348210864137e+00 1.639597262997e+03 9.130601983948e+03 7.923859018877e+03 1.000000000000e-03 1.047197551197e-05 8.203003936966e-03 2.835042212657e-02 -4.348252386889e-03
163 2 8.127752378755e-03 8.309562212889e-03 9.396936091735e-04 9.076358511708e+00 1.454986903529e+01 -1.342710959693e+01 1.822104137592e+04 1.275912361243e+04 -1.213867844027e+03 1.000000000000e-03 1.047197551197e-05 -2.465144688661e-01 2.107822812850e+00 4.284653387615e+00
164 2 7.458188573994e-03 8.310579641980e-03 1.330843605813e-02 1.252844938049e+01 3.502747051458e+01 6.084264320507e+00 8.123616520639e+03 4.006059877396e+03 -4.433495098348e+03 1.000000000000e-03 1.047197551197e-05 -1.252856901951e-02 -3.502780500548e-02 -6.084322421507e-03
165 2 3.003925886757e-03 1.969790315934e-03 7.764364130418e-04 8.773794065085e+00 2.692735133527e+01 7.355498326442e+00 -1.211432151500e+04 6.492248939544e+03 1.114291613013e+04 1.000000000000e-03 1.047197551197e-05 -8.851098815693e-02 -5.459224271565e-01 1.042813234204e+00
166 2 1.264517145811e-02 3.242116052350e-03 1.201108035039e-02 -2.304203483858e+01 -2.762419900891e+01 -1.753860043765e+01 -1.998728810197e+04 1.231650138314e+04 2.449077886923e+03 1.000000000000e-03 1.047197551197e-05 2.304225487590e-02 2.762446280309e-02 1.753876792055e-02
167 2 3.952620180240e-03 9.188155136229e-03 4.522930911844e-03 2.112301498975e+01 8.067847416529e+00 4.202989012308e+00 5.684516458740e+03 1.161102503533e+04 -2.223046967297e+03 1.000000000000e-03 1.047197551197e-05 -2.112321670162e-02 -8.067924459533e-03 -4.203029148280e-03
168 2 2.586222725575e-03 1.405104118677e-02 7.573097059545e-03 -1.651282859935e+01 8.542027596489e+00 -4.938196294629e+00 -2.643368185842e+03 -2.399958904989e+03 -7.281249873917e+03 1.000000000000e-03 1.047197551197e-05 1.651298628675e-02 -8.542109167623e-03 4.938243451381e-03
169 2 1.182521739966e-03 4.092994878565e-03 2.263095946222e-03 -1.961296458572e+01 -8.562976529662e+00 1.360862745924e+01 3.603681104936e+03 1.550086748062e+03 -1.795839777705e+03 1.000000000000e-03 1.047197551197e-05 1.961315187753e-02 8.563058300846e-03 -1.360875741330e-02
170 2 4.002272681944e-03 6.193954259347e-03 1.056179493295e-02 2.793556880973e+01 1.981541500183e+00 -7.035145100227e+00 1.803974608687e+04 1.152427161133e+04 1.187360245192e+03 1.000000000000e-03 1.047197551197e-05 -2.793583557731e-02 -1.981560422691e-03 7.035212281556e-03
171 2 4.668360577475e-03 9.869680123025e-03 1.444081076437e-02 1.122516825494e+01 5.262019912398e+00 -7.494067931379e+00 5.411107032140e+03 -1.114503784631e+04 8.235973501362e+03 1.000000000000e-03 1.047197551197e-05 -2.954775822210e-02 3.140426846315e-02 1.485533601480e+00
172 2 4.689862038821e-03 1.864266161980e-03 8.039879711714e-03 1.427169276467e+01 1.174933057828e+01 1.809381992030e+01 5.271773703621e+03 -1.263193749564e+03 -8.632320619303e+03 1.000000000000e-03 1.047197551197e-05 -1.427182905060e-02 -1.174944277719e-02 -1.809399270520e-02
173 2 6.792704440874e-03 1.525107177789e-02 5.424806333763e-03 -1.090091532497e+00 -1.804577753755e+01 1.112894203391e+01 -1.179372990259e+04 2.116504494670e+03 6.441476051892e+03 1.000000000000e-03 1.047197551197e-05 1.090101942204e-03 1.804594986367e-02 -1.112904830849e-02
174 2 1.041607300271e-02 4.778361172901e-03 1.161983380164e-02 -6.505635691607e+00 -1.600781776342e+01 -2.606088658288e+00 -9.205090329501e+02 8.457037610178e+03 7.318758731822e+03 1.000000000000e-03 1.047197551197e-05 6.505697816445e-03 1.600797062828e-02 2.606113544839e-03
175 2 5.310958262521e-03 8.925000224197e-03 5.937441384283e-03 2.806849859920e+01 3.859381245911e+01 -1.981126059392e+00 -2.994296270076e+03 4.297705187599e+03 9.411112575008e+03 1.000000000000e-03 1.047197551197e-05 -2.806876663617e-02 -3.859418100639e-02 1.981144977933e-03
176 2 1.267126303002e-02 1.055774989039e-02 3.135873839557e-03 -2.181466690979e+01 1.169792492765e+01 -9.543822777336e-01 -4.949650693495e+03 3.083212346553e+02 2.387910954435e+03 1.000000000000e-03 1.047197551197e-05 2.181487522650e-02 -1.169803663567e-02 9.543913915000e-04
177 2 9.964488157367e-03 6.411824715726e-03 6.053275574080e-03 -1.130157724553e+01 9.261406160611e+00 1.019085922261e+01 1.979048387326e+03 7.389173838719e+03 1.493695166224e+03 1.000000000000e-03 1.047197551197e-05 1.130168516867e-02 -9.261494601370e-03 -1.019095653907e-02
178 2 8.368824765791e-03 3.883260255133e-03 2.772305400051e-03 -3.260606218410e+00 1.343858981113e+01 -2.364129984224e+01 -4.855008581960e+03 -1.003052589289e+04 -5.454402920941e+03 1.000000000000e-03 1.047197551197e-05 3.260637355203e-03 -1.343871814144e-02 2.364152560218e-02
179 2 1.207923286892e-02 3.872496318604e-03 6.222037843539e-03 -3.312503622080e+01 -1.419899675634e+01 2.043210905865e+00 -1.750352275862e+03 -5.759472845344e+03 -5.886050291929e+03 1.000000000000e-03 1.047197551197e-05 3.312535254461e-02 1.419913234806e-02 -2.043230417279e-03
180 2 4.053082808518e-03 7.048390957112e-03 1.024501045131e-02 -8.482240298142e+00 -8.483634584517e+00 -1.818338809175e+01 1.193240851268e+04 -5.836978311503e+03 2.015704211467e+03 1.000000000000e-03 1.047197551197e-05 8.482321298344e-03 8.483715598034e-03 1.818356173197e-02
181 2 3.485796964405e-03 9.475069738649e-03 1.417395287306e-02 1.403765050244e+01 7.198151505383e-01 -3.189803526996e+00 1.173731084385e+03 -1.088745816781e+04 -3.604520516014e+02 1.000000000000e-03 1.047197551197e-05 -1.403778455340e-02 -7.198220243323e-04 3.189833987667e-03
182 2 1.520080032391e-02 1.313099331975e-02 1.210304885979e-03 2.031779196526e+01 -2.403070013204e+01 8.939746661974e-01 8.999983537971e+03 -1.264145231674e+04 -9.646384522300e+03 1.000000000000e-03 1.047197551197e-05 -2.031798598774e-02 2.403092961052e-02 -8.939832031082e-04
183 2 8.407081769872e-03 1.367204372542e-02 4.554492487486e-03 -5.671044330654e-01 -1.373408522638e+01 -1.373228129878e+01 1.403160849372e+04 -1.607452137011e+03 9.929947386901e+03 1.000000000000e-03 1.047197551197e-05 5.671098485655e-04 1.373421637848e-02 1.373241243366e-02
184 2 8.978362918013e-03 1.098600318734e-03 9.596598792428e-04 -2.380408793968e+01 8.435969962671e+00 4.544047346797e+00 -8.437582571366e+03 -2.381348474963e+04 4.406633764875e+03 1.000000000000e-03 1.047197551197e-05 1.944453570634e-02 -7.280712659399e-03 -8.475265202187e-01
185 2 1.317152776745e-02 3.213962985794e-03 2.008746969087e-03 8.774679218567e+00 -2.554163505207e+01 1.092201288046e+00 1.172273634424e+04 -9.265547696003e+03 9.315611413872e+03 1.000000000000e-03 1.047197551197e-05 -8.774763011381e-03 2.554187895904e-02 -1.092211717899e-03
186 2 2.053713031833e-03 2.332508134912e-03 1.631198679601e-03 8.577083250152e+00 5.889263291683e+00 3.821943504065e+00 -5.212243917813e+03 5.725545384637e+03 1.579224177297e+03 1.000000000000e-03 1.047197551197e-05 -8.577165156046e-03 -5.889319530542e-03 -3.821980001285e-03
187 2 1.433084532455e-02 1.293554265539e-02 1.457722147709e-03 3.384607842469e+00 -1.157414224256e+01 1.678342827694e+00 -1.120172134403e+03 -1.122854943418e+04 -1.169946885241e+03 1.000000000000e-03 1.047197551197e-05 -3.384640163402e-03 1.157425276853e-02 -1.678358854840e-03
188 2 1.196559346387e-02 9.353713230647e-03 1.262724958038e-02 -2.951233066820e+01 -1.012207136975e+01 -1.269175708363e+01 -9.129316071295e+03 3.514838097595e+03 -1.003440157780e+03 1.000000000000e-03 1.047197551197e-05 -1.807205225797e+01 3.182224802579e+01 5.291595504735e+00
189 2 3.795547689059e-03 2.745739184751e-03 8.888704851787e-03 -7.180479851974e+00 -3.342598090588e+00 8.512090483322e+00 1.152138580307e+04 -1.825977869849e+04 -1.903670523720e+03 1.000000000000e-03 1.047197551197e-05 7.180548421161e-03 3.342630010353e-03 -8.512171768575e-03
190 2 5.504012124757e-03 3.396192695526e-03 2.175195310857e-03 -1.379212885476e+01 -1.213548951229e+01 -1.318419309499e+01 6.174197960343e+03 -1.634554511271e+04 -2.278831841815e+03 1.000000000000e-03 1.047197551197e-05 1.379226056114e-02 1.213560539878e-02 1.318431899596e-02
191 2 1.494215590010e-02 1.112942491964e-02 1.328518726285e-02 4.988098016262e+00 1.591752246347e+01 -2.341889632924e+00 1.527298008702e+04 -1.891597092217e+03 -1.134186670748e+03 1.000000000000e-03 1.047197551197e-05 -4.988145649544e-03 -1.591767446606e-02 2.341911996537e-03
192 2 4.643183263905e-03 9.617396325229e-03 1.202904943602e-03 1.763929145971e-01 7.077166033952e+00 -1.930953936516e+00 6.276120201583e+03 2.554114141229e+02 1.205925061949e+03 1.000000000000e-03 1.047197551197e-05 -1.763945990414e-04 -7.077233616555e-03 1.930972375944e-03
193 2 5.355049431615e-03 1.242816840633e-02 8.955372906831e-03 2.356118921189e+01 -1.749804249470e+01 -5.633543948385e+00 -2.593831870302e+03 5.876651919253e+03 2.091075029663e+03 1.000000000000e-03 1.047197551197e-05 -2.356141420682e-02 1.749820959029e-02 5.633597745280e-03
194 2 9.280115746219e-03 1.177852332896e-02 1.312803145279e-02 -2.754831786352e+00 -4.472770714832e-02 1.938662841666e+01 -1.600408348667e+04 4.839348354558e+03 2.863793901697e+03 1.000000000000e-03 1.047197551197e-05 2.754858093309e-03 4.472813427054e-05 -1.938681354709e-02
195 2 8.145864414244e-03 1.124440827723e-02 6.967044859208e-03 -4.517469793817e+00 8.805878329434e+00 3.433849155636e+00 -7.536198277793e+03 -1.898393961742e+03 -3.795328083134e+03 1.000000000000e-03 1.047197551197e-05 4.517512932888e-03 -8.805962420181e-03 -3.433881946793e-03
196 2 1.363384077017e-02 9.508336898977e-03 5.625093573820e-03 2.160037003539e-01 -2.042722716474e+01 1.428404765488e+00 -1.947853324063e+02 9.219756350050e+03 -3.340566695796e+03 1.000000000000e-03 1.047197551197e-05 -2.160057630570e-04 2.042742223225e-02 -1.428418405879e-03
197 2 1.409622512725e-02 1.449175015538e-02 1.281956703208e-02 4.876574792090e+00 -2.388608397490e+00 -4.604638247394e+00 -1.410579382434e+04 9.330738016300e+03 2.517102680337e+03 1.000000000000e-03 1.047197551197e-05 -4.876621360394e-03 2.388631207238e-03 4.604682218870e-03
198 2 1.142228771661e-02 9.263507630669e-03 2.710992661269e-03 -3.240724129497e+00 2.783290915672e+01 -4.839282145236e+00 2.525455944143e+02 1.324415987218e+01 7.638580421500e+03 1.000000000000e-03 1.047197551197e-05 3.240755076428e-03 -2.783317494396e-02 4.839328357418e-03
199 2 1.428368293121e-02 1.224462778651e-02 7.777892791837e-03 1.437435679374e+01 -2.230580025454e-01 -4.683695530844e+00 -1.031230553370e+03 -8.366400643568e+02 -9.351877328748e+03 1.000000000000e-03 1.047197551197e-05 -1.437449406005e-02 2.230601326128e-04 4.683740257268e-03
200 2 5.082576789102e-03 1.477922936526e-02 9.125315356417e-03 -1.395769883250e+01 -1.219273027282e+00 1.425555499406e+01 5.896073898050e+03 -6.689967177028e+03 -4.995626188266e+03 1.000000000000e-03 1.047197551197e-05 1.395783211998e-02 1.219284670593e-03 -1.425569112588e-02
201 2 7.658607303631e-03 1.124312117401e-02 1.213955165914e-02 2.080574776909e+00 1.200370104279e+01 -3.155305313037e+00 1.304561381714e+04 -2.272125078286e+03 1.508735801844e+03 1.000000000000e-03 1.047197551197e-05 -2.080594645124e-03 -1.200381567079e-02 3.155335444271e-03
202 2 1.283397391830e-03 9.252021216977e-03 6.485863190432e-03 -3.255271600954e+01 -3.300201144732e+01 8.027046289380e+00 5.209354010433e+03 8.623589874987e+02 -4.813026738684e+03 1.000000000000e-03 1.047197551197e-05 3.255302686805e-02 3.300232659632e-02 -8.027122942758e-03
203 2 1.492420520912e-02 1.153320888395e-02 2.774198778650e-03 -2.698187608691e+01 8.491989914277e+00 -5.508639575552e+00 -3.243680506780e+03 8.297374553986e+03 6.293590046864e+03 1.000000000000e-03 1.047197551197e-05 2.698213374731e-02 -8.492071007581e-03 5.508692179688e-03
204 2 2.348157653954e-03 1.519515949562e-02 1.360683601833e-02 -4.937515200661e+00 2.202708538805e+01 1.445433930792e+00 -4.710381169538e+03 -9.042998218995e+02 -5.380785225355e+03 1.000000000000e-03 1.047197551197e-05 4.937562350908e-03 -2.202729573323e-02 -1.445447733801e-03
205 2 8.942507784035e-03 2.354440359493e-03 8.747910681192e-03 2.341312080126e+01 -1.665612318181e+01 1.835175546026e+01 -8.512215053457e+03 5.498688932508e+01 -9.286393124008e+03 1.000000000000e-03 1.047197551197e-05 -6.817367117722e-01 -2.874537052753e+01 2.204485745131e+01
206 2 1.048200656239e-02 1.916920037702e-03 3.014524364250e-03 -7.453951318929e+00 -2.608756247494e+01 4.430189830635e+00 -1.386283726134e+04 1.009588155715e+03 2.339706324775e+03 1.000000000000e-03 1.047197551197e-05 7.454022499600e-03 2.608781159519e-02 -4.430232136236e-03
207 2 1.387602976490e-02 8.276964383807e-03 1.171785158522e-02 -1.104389216666e+00 -1.963454447253e+00 -1.686351684957e+00 -2.876836806229e+03 -6.586504114621e+03 4.909215555263e+03 1.000000000000e-03 1.047197551197e-05 1.104399762907e-03 1.963473197041e-03 1.686367788583e-03
208 2 1.013437560656e-02 5.944258506971e-03 1.355049358991e-02 4.978053213740e+00 -1.590398989515e+00 -2.168701716622e+00 3.033879897588e+03 -8.868872689876e+03 -2.967279625797e+03 1.000000000000e-03 1.047197551197e-05 -4.978100751100e-03 1.590414176851e-03 2.168722426395e-03
209 2 5.534183156686e-03 7.655465330296e-03 1.428557929418e-02 1.658402047651e+01 -1.246006563989e+00 -1.844639712188e+00 4.915722798055e+03 -3.329154001387e+02 9.549846467514e+03 1.000000000000e-03 1.047197551197e-05 -1.658417884376e-02 1.246018462588e-03 1.844657327368e-03
210 2 1.422725123919e-02 7.053560719440e-03 8.343223551206e-03 2.334588050498e+01 -1.293979778618e+01 -9.741629930859e+00 9.535775088556e+03 -8.601618418016e+03 -1.852948704604e+04 1.000000000000e-03 1.047197551197e-05 -2.334610344385e-02 1.293992135332e-02 9.741722957461e-03
211 2 1.237335012620e-02 1.392009077765e-02 9.122740744704e-03 2.111455634110e+01 -1.460339212811e+00 -5.819416344462e+00 -7.779361451464e+03 -9.376530067278e+03 -1.989851100572e+03 1.000000000000e-03 1.047197551197e-05 -2.111475797219e-02 1.460353158157e-03 5.819471916325e-03
212 2 8.673708365827e-03 3.549283008768e-03 6.226375479896e-03 -4.561415238780e+00 1.383688602518e+01 9.751427760779e+00 1.242372013480e+04 1.692446977528e+03 4.466810978707e+03 1.000000000000e-03 1.047197551197e-05 4.561458797503e-03 -1.383701815898e-02 -9.751520880944e-03
213 2 1.440258953658e-02 1.537146323149e-02 1.206126933806e-02 -9.311623396869e+00 1.155447341473e+01 -1.641423474226e+01 -1.184610741913e+04 8.757231054061e+03 2.926856543738e+03 1.000000000000e-03 1.047197551197e-05 9.311712317171e-03 -1.155458375288e-02 1.641439148815e-02
214 2 4.627411915790e-03 8.239004974537e-03 2.336574217951e-03 3.861956221990e+00 1.388886162477e+00 -2.411065630503e+01 -1.965456392894e+04 4.795641487178e+03 -6.054542447508e+03 1.000000000000e-03 1.047197551197e-05 -3.861993101307e-03 -1.388899425489e-03 2.411088654704e-02
215 2 1.525938825954e-02 1.085488207450e-02 1.209279529459e-02 -2.739201133480e+01 3.495928711774e+01 8.111841459924e+00 -3.112341400352e+03 1.151328687708e+04 -6.305411336397e+03 1.000000000000e-03 1.047197551197e-05 2.739227291173e-02 -3.495962095753e-02 -8.111918923044e-03
216 2 7.277968518694e-03 3.391656545991e-03 1.963536996363e-03 -3.021686403039e+01 -9.217259285015e+00 6.280462343557e+00 7.982520443790e+03 6.075259602032e+03 -1.240033663596e+03 1.000000000000e-03 1.047197551197e-05 3.021715258294e-02 9.217347304199e-03 -6.280522318128e-03
217 2 9.132216548291e-03 6.773524044311e-03 1.341667048105e-02 -1.281445665015e+01 -3.092106750329e+01 1.067754083120e+01 -2.071100142291e+03 5.297396780662e+03 5.917722436744e+03 1.000000000000e-03 1.047197551197e-05 1.281457902036e-02 3.092136278056e-02 -1.067764279518e-02
218 2 1.044807746214e-02 2.863013997472e-03 1.088310756953e-02 -8.201818984368e+00 -1.697337866729e+01 1.876942691982e-02 3.424746170702e+03 4.594913994434e+03 -7.795299463144e+03 1.000000000000e-03 1.047197551197e-05 8.201897306718e-03 1.697354075267e-02 -1.876960615636e-05
219 2 9.039535559996e-03 2.176983115497e-03 4.982355146931e-03 2.338129572516e+00 -1.410992985466e+01 -1.422019656987e+01 2.878320378937e+03 9.137826667970e+03 -7.055607794361e+03 1.000000000000e-03 1.047197551197e-05 -2.338151900222e-03 1.411006459585e-02 1.422033236404e-02
220 2 1.015178251683e-02 4.338028410375e-03 1.399922787595e-03 9.109752865545e-01 -1.639674229089e+01 3.067590188366e+00 1.599390246374e+04 7.449812616232e+02 -5.644465654514e+03 1.000000000000e-03 1.047197551197e-05 -9.109839858108e-04 1.639689886974e-02 -3.067619481974e-03
221 2 5.757710245895e-03 1.030660894741e-03 1.353590433346e-02 2.230300366140e+01 1.765816142166e+01 -9.653354447321e-02 5.787745551773e+03 -1.493286030212e+03 -4.761001710825e+03 1.000000000000e-03 1.047197551197e-05 -4.341092318491e+01 3.547442356580e+01 8.011626830611e+00
222 2 8.512606294189e-03 1.529721122551e-02 8.537487735281e-03 1.190017328336e+00 -1.962090180381e+01 -2.126141379729e+00 1.732658473500e+03 -3.339267526414e+03 1.895434895865e+03 1.000000000000e-03 1.047197551197e-05 -1.190028692273e-03 1.962108917141e-02 2.126161683077e-03
223 2 7.654168735888e-03 1.209715482120e-03 5.629781313317e-03 -1.071556973095e+01 1.107087242805e+01 5.616869562315e+00 -1.076399016630e+03 1.429988543090e+03 8.128551644718e+03 1.000000000000e-03 1.047197551197e-05 1.071567205808e-02 -1.107097814811e-02 -5.616923199981e-03
224 2 1.468581485728e-03 1.016209848090e-02 2.082376108884e-03 2.760539615561e+01 4.275778492772e-01 3.759896359343e+00 9.593473593977e+03 8.482056765120e+03 -7.376300814667e+03 1.000000000000e-03 1.047197551197e-05 -2.760565977025e-02 -4.275819323838e-04 -3.759932264052e-03
225 2 1.073431697491e-02 1.124940341367e-02 8.503651698947e-03 2.041660814946e+00 1.142158842774e+01 -2.931882525360e+00 -1.383182304328e+03 -4.853319468528e+03 3.642786538484e+03 1.000000000000e-03 1.047197551197e-05 -2.041680311557e-03 -1.142169749692e-02 2.931910523043e-03
226 2 1.182586112399e-02 1.086888065481e-02 1.441029810117e-02 3.613791795683e+00 -1.608265705173e+01 1.656577602083e+01 9.869021811722e+03 -8.036020921543e+03 -2.370467145634e+03 1.000000000000e-03 1.047197551197e-05 -2.931082372814e-01 -1.685582519300e+00 -4.446767431553e+00
227 2 1.525215587348e-02 1.273311556591e-02 1.311108589092e-02 -9.009009736278e+00 -8.814840273210e+00 -2.980101829806e+00 6.500258536367e+02 -3.868803816381e+03 1.215419935746e+04 1.000000000000e-03 1.047197551197e-05 9.009095766805e-03 8.814924449538e-03 2.980130287954e-03
228 2 8.113642507832e-03 5.164112304867e-03 1.622930327717e-03 8.917896119752e+00 9.381714632804e+00 -1.938813356005e+00 -1.153952318141e+04 -2.839678825228e+03 8.348480125947e+03 1.000000000000e-03 1.047197551197e-05 4.521186276629e+01 -1.835316037011e+01 -8.100828151820e+00
229 2 2.111079441588e-03 8.541410680263e-03 9.228095668368e-04 6.466936020739e+00 1.334667722215e+01 8.422491992265e+00 -1.329994478985e+04 6.456014298055e+03 4.109040284102e+03 1.000000000000e-03 1.047197551197e-05 -8.745207945263e-03 -2.446108920447e-02 -1.707923141840e+00
230 2 6.918568413462e-03 4.490552829784e-03 1.325300358510e-02 -1.455816705013e+01 5.070345862353e+00 -8.891856454451e+00 6.322245737172e+03 5.367865580235e+03 1.738308516799e+03 1.000000000000e-03 1.047197551197e-05 1.455830607171e-02 -5.070394281052e-03 8.891941366236e-03
231 2 1.008654844619e-02 8.917701712789e-04 1.436991790759e-02 -1.170901116586e+01 1.685281052310e+01 -9.409747913795e-01 9.149806258778e+03 6.308515188726e+03 7.946119325739e+03 1.000000000000e-03 1.047197551197e-05 1.170912297975e-02 -1.685297145712e-02 9.409837771127e-04
232 2 9.217404992469e-03 7.914641702122e-03 1.497239273628e-03 -2.765869791886e+00 -1.337789422974e+00 5.044862886595e+00 1.374665220960e+03 -2.777176741112e+03 -9.435711823846e+03 1.000000000000e-03 1.047197551197e-05 2.765896204249e-03 1.337802198044e-03 -5.044911061947e-03
233 2 3.116000333403e-03 1.364826538061e-02 7.640766367131e-03 -1.468779505999e+00 2.041688726052e+01 -1.220540234050e+01 -2.227052519741e+02 5.821836891002e+03 9.328117831034e+03 1.000000000000e-03 1.047197551197e-05 1.468793531944e-03 -2.041708222929e-02 1.220551889461e-02
234 2 1.504363035376e-02 1.785435365475e-03 1.064863134290e-02 -1.904750319228e+01 1.034382118611e+01 1.687371856636e+00 -9.587936392277e+03 1.731618018052e+03 -4.768651206461e+03 1.000000000000e-03 1.047197551197e-05 1.904768508428e-02 -1.034391996327e-02 -1.687387970004e-03
235 2 8.814926588128e-03 7.736878016336e-03 1.194351195015e-02 -2.202240283163e+00 -1.104073798044e+01 8.826941997609e+00 9.736649762302e+02 -9.151896032867e+03 -8.343198905977e+03 1.000000000000e-03 1.047197551197e-05 2.202261313210e-03 1.104084341273e-02 -8.827026289501e-03
236 2 3.497373721113e-03 6.435733562553e-03 7.794778368651e-03 -2.330730257869e+01 -2.912734152478e+00 1.362397711345e+01 -1.196060138732e+04 -3.741110266372e+03 4.307793108778e+03 1.000000000000e-03 1.047197551197e-05 2.330752514916e-02 2.912761967306e-03 -1.362410721409e-02
237 2 8.633907427558e-03 9.704745869009e-03 1.358529174680e-02 2.435197131303e+00 -2.235587124005e+01 -4.285494818631e+00 -1.731748698377e+04 -2.568678410032e+03 -3.362225420519e+01 1.000000000000e-03 1.047197551197e-05 -2.435220385945e-03 2.235608472493e-02 4.285535742483e-03
238 2 1.406209692175e-03 1.425621956345e-02 1.083597766162e-02 2.183520331532e+01 -4.113236251684e+01 -1.427722113612e+01 -1.687232618406e+04 -2.269360474968e+04 2.231680949647e+03 1.000000000000e-03 1.047197551197e-05 -2.183541182814e-02 4.113275530572e-02 1.427735747484e-02
239 2 1.421685862348e-02 1.149342083059e-02 5.404234034968e-03 7.457668731509e+00 -1.862012404740e+01 3.222756678029e+00 1.361441208012e+03 2.012007550504e+03 -2.459086879588e+03 1.000000000000e-03 1.047197551197e-05 -7.457739947680e-03 1.862030185819e-02 -3.222787453382e-03
240 2 8.863273911662e-03 1.075406290733e-02 1.213830165712e-02 4.356758269428e+00 3.923462477992e+00 -4.131523551295e+00 4.158725313103e+03 -4.673129780282e+03 -5.677382501628e+03 1.000000000000e-03 1.047197551197e-05 -4.356799873802e-03 -3.923499944656e-03 4.131563004815e-03
241 2 3.228434632436e-03 1.190339298054e-02 9.296464222211e-04 -4.382194695686e+00 7.701651347580e+00 -4.301190196335e-01 -6.333108162188e+02 -1.274604487359e+04 -2.240642685088e+02 1.000000000000e-03 1.047197551197e-05 -3.053089257702e-01 -2.683323987611e-01 8.099657040017e-01
242 2 7.751545392933e-03 1.121825921230e-03 1.435874422619e-02 -2.584287207284e+01 -3.193569139199e+00 -5.176684983092e+00 -3.184164937082e+03 2.592890236006e+04 1.010564107553e+04 1.000000000000e-03 1.047197551197e-05 2.584311885644e-02 3.193599635829e-03 5.176734417264e-03
243 2 1.514618509254e-02 1.364672206234e-02 1.153775038044e-02 -7.507108430114e+00 -4.731056522496e+00 -5.655766244718e+00 6.064892096038e+03 -3.161871647639e+02 4.455139870446e+03 1.000000000000e-03 1.047197551197e-05 7.507180118404e-03 4.731101701190e-03 5.655820253823e-03
244 2 1.196865775408e-02 1.478040095011e-02 1.112314623144e-03 1.658379391129e+01 6.200279834234e+00 1.102763985190e+00 -9.523500267045e+03 8.553978746347e+03 -6.507830396772e+03 1.000000000000e-03 1.047197551197e-05 -1.658395227637e-02 -6.200339043110e-03 -1.102774515911e-03
245 2 8.203133598469e-03 2.853289689286e-03 4.532852011366e-03 1.365730214790e+01 2.184304614117e+01 -2.148357171811e+00 4.402928130079e+03 -6.232413164398e+03 -1.164692377162e+03 1.000000000000e-03 1.047197551197e-05 -1.365743256677e-02 -2.184325472889e-02 2.148377687307e-03
246 2 1.901493489243e-03 3.863670619891e-03 1.058291390887e-03 -1.305235919070e+01 -6.508832161615e+00 1.306231521611e+00 1.194462481389e+04 -2.123762758916e+03 -5.451825269303e+03 1.000000000000e-03 1.047197551197e-05 1.305248383274e-02 6.508894316977e-03 -1.306243995322e-03
247 2 9.933231922997e-03 1.299246696447e-02 5.653767454801e-03 -7.605079174510e+00 -4.777571455309e+00 -1.497650005344e+01 -1.046997899909e+04 1.934794883811e+03 3.075888950349e+03 1.000000000000e-03 1.047197551197e-05 7.605151798360e-03 4.777617078191e-03 1.497664306985e-02
248 2 2.312667367982e-03 1.422362775844e-02 3.129740836815e-03 1.525237564892e+01 -2.756924248430e+01 -1.720796538334e+01 1.353425202659e+02 -4.850633543023e+03 8.357545024174e+03 1.000000000000e-03 1.047197551197e-05 -1.525252129977e-02 2.756950575368e-02 1.720812970887e-02
249 2 9.151572298700e-03 7.115575636485e-03 1.295193511322e-03 1.973888769656e+01 -1.354723985078e+00 -2.613776574481e+01 -7.669999100837e+03 7.755790803013e+01 7.993324950071e+02 1.000000000000e-03 1.047197551197e-05 -1.973907619086e-02 1.354736921863e-03 2.613801534447e-02
250 2 2.629954040809e-03 1.270007788745e-02 9.464563337494e-03 1.109499674584e+01 3.549932798984e+00 -7.043408939179e+00 -7.313992313251e+03 -2.055139598118e+04 -7.431425313630e+03 1.000000000000e-03 1.047197551197e-05 -1.109510269627e-02 -3.549966698669e-03 7.043476199422e-03
251 2 3.512256965062e-03 6.714382154522e-03 1.389857935445e-02 -2.913394186296e+01 -1.153548107033e+01 5.977459263303e+00 -5.727392209188e+03 -1.957419176541e+03 -3.618474504193e+03 1.000000000000e-03 1.047197551197e-05 2.913422007427e-02 1.153559122711e-02 -5.977516344380e-03
252 2 1.574888280252e-03 4.879033017203e-03 1.187080689868e-03 -2.918094857295e+01 -1.377905000548e+01 -1.487407540921e+01 -1.583015203927e+03 8.614816729092e+03 -9.177265017406e+03 1.000000000000e-03 1.047197551197e-05 2.918122723314e-02 1.377918158697e-02 1.487421744752e-02
253 2 3.477377851018e-05 7.472292961767e-03 9.404572803760e-03 -1.454759247514e+01 6.012029664675e+00 -2.088679637052e+00 5.822197764376e+03 -9.923044314224e+03 3.945930268633e+02 1.000000000000e-03 1.047197551197e-05 1.454773139574e-02 -6.012087075877e-03 2.088699582663e-03
254 2 3.684856607747e-03 3.665354454040e-03 6.894049660189e-04 -2.253743255264e+00 -7.807811307148e+00 4.467704909588e+00 7.684615543895e+03 -6.593449943992e+03 7.966733875262e+03 1.000000000000e-03 1.047197551197e-05 -9.371654694508e-01 1.729702755575e-01 4.490682948066e+00
255 2 4.936981523954e-03 2.861055558714e-04 9.511412880098e-03 1.819464878159e+01 8.343029278030e+00 1.446349327811e+00 -2.688140956312e+03 -7.486286598279e+03 1.276045610361e+04 1.000000000000e-03 1.047197551197e-05 -1.819482252934e-02 -8.343108948852e-03 -1.446363139562e-03
256 2 1.245624537773e-02 9.005262319915e-03 1.257879014636e-02 6.187466308547e+00 -6.736948988059e+00 -2.302809090945e+00 4.006602263019e+03 -1.071294458571e+04 1.142342949236e+03 1.000000000000e-03 1.047197551197e-05 1.809537734507e+01 -3.180538884444e+01 -5.276600795371e+00
257 2 6.683673355440e-03 9.569095107217e-03 4.696353203969e-03 -9.141438948538e-01 -6.806564572594e+00 -9.982365397914e+00 5.386712123083e+03 -3.715547516385e+02 3.371436100744e+03 1.000000000000e-03 1.047197551197e-05 9.141526243683e-04 6.806629571119e-03 9.982460723392e-03
258 2 4.364306442403e-03 1.359478543617e-03 1.249446023512e-02 -1.348672290486e+01 -4.964579586717e+00 -1.654391152142e+00 -1.850574212414e+04 1.936106612416e+03 4.020134751134e+02 1.000000000000e-03 1.047197551197e-05 1.348685169481e-02 4.964626995412e-03 1.654406950565e-03
259 2 6.863645742665e-04 6.787576254572e-03 1.079502503690e-02 -7.131764970234e+00 -1.173893123705e+00 -1.191620122283e+01 9.755691455275e+03 3.689479159924e+03 -4.995903769128e+03 1.000000000000e-03 1.047197551197e-05 7.131833074223e-03 1.173904333666e-03 1.191631501526e-02
260 2 7.014835283328e-03 1.034979856872e-02 1.082872616202e-03 6.307135714526e+00 1.259906632345e+01 1.600985590577e+00 -8.211788579909e+03 -2.977200091387e+03 5.328308535194e+03 1.000000000000e-03 1.047197551197e-05 -6.307195943810e-03 -1.259918663682e-02 -1.601000879009e-03
261 2 1.307291817022e-02 3.529761490196e-03 7.385066057408e-03 8.586239868676e+00 9.869495176076e+00 1.698509618466e+01 1.136158062285e+04 1.261871660671e+04 -5.740834703459e+03 1.000000000000e-03 1.047197551197e-05 -9.999935155318e+00 -3.368965900348e-01 3.680919264327e+01
262 2 2.123724035496e-03 1.417750543699e-02 1.434422672384e-02 -5.771640081663e+00 -4.722664652261e+00 1.119518684536e+01 5.111606165413e+03 -6.479747245324e+03 -5.778897929437e+03 1.000000000000e-03 1.047197551197e-05 5.771695197293e-03 4.722709750818e-03 -1.119529375254e-02
263 2 1.039674738272e-02 6.748720049737e-03 2.808798948548e-03 -8.865437976005e+00 1.891137041338e+01 8.793005964506e-01 -7.583382447541e+03 9.664021994243e+03 5.622674400022e+03 1.000000000000e-03 1.047197551197e-05 8.865522635510e-03 -1.891155100539e-02 -8.793089932329e-04
264 2 1.275456521308e-02 1.224816819971e-02 1.099981345471e-03 -5.535804128627e+00 1.827567587945e+01 2.369865248830e+00 -1.025619615680e+04 -1.021093407421e+04 4.502112871013e+03 1.000000000000e-03 1.047197551197e-05 5.535856992167e-03 -1.827585040097e-02 -2.369887879592e-03
265 2 1.413226944593e-02 1.251070426720e-02 1.465661129267e-02 -3.203670493431e+00 -1.132324375746e+01 1.214602815395e+01 1.167662408684e+04 1.059927020778e+03 3.186831480036e+01 1.000000000000e-03 1.047197551197e-05 1.775616331699e-01 1.889986381223e+00 -1.061781867186e+01
266 2 7.521600096031e-03 1.211883281424e-02 1.362938545801e-02 2.173631167908e+01 2.076061431790e+01 -1.389875519839e+01 1.064354485278e+04 8.846445615770e+03 2.296705731421e+03 1.000000000000e-03 1.047197551197e-05 -2.173651924754e-02 -2.076081256905e-02 1.389888792299e-02
267 2 5.295903057019e-03 5.413183421879e-03 5.278069540495e-03 -1.897655423587e+01 3.140020135089e+01 1.238460740172e+01 -5.702023141744e+03 6.249912957651e+03 7.895984875459e+02 1.000000000000e-03 1.047197551197e-05 1.897673545035e-02 -3.140050120359e-02 -1.238472566714e-02
268 2 5.105436842434e-03 9.181597377667e-03 1.366145497903e-02 9.424550243727e+00 -9.294311171527e-01 -6.898477915027e+00 5.954182635224e+02 -1.337643236981e+03 2.208311396079e+03 1.000000000000e-03 1.047197551197e-05 -9.424640242411e-03 9.294399926508e-04 6.898543791267e-03
269 2 5.501289013340e-03 1.126499351312e-02 4.571803099527e-03 4.061205154570e+01 7.129685329831e+00 -1.414491476654e+01 -1.050594533618e+04 8.321478440477e+03 4.876119265735e+03 1.000000000000e-03 1.047197551197e-05 -4.061243936593e-02 -7.129753413961e-03 1.414504984182e-02
270 2 4.512536671431e-03 2.402683721096e-03 1.463947025954e-02 7.437326389890e+00 2.900554274264e+01 5.508690556080e+00 -3.138805970096e+03 8.299838356101e+03 1.162489586894e+04 1.000000000000e-03 1.047197551197e-05 -1.625177339070e+00 -3.328922126273e+00 -7.355755038092e+00
271 2 6.765497631365e-03 7.088456956561e-03 9.956982097625e-04 -2.285242015254e+01 1.065894935185e+01 5.841824879396e+00 -2.676205480031e+03 -1.318300805841e+04 -8.201965238226e+03 1.000000000000e-03 1.047197551197e-05 3.415786816844e-01 -2.738174771367e-01 -8.324945232062e-01
272 2 1.086425552736e-02 6.975052146468e-03 1.368499598854e-02 2.045439609896e+01 1.930996912935e+01 2.032666495614e+01 2.796590150089e+03 -1.715634895744e+04 -1.136104317753e+03 1.000000000000e-03 1.047197551197e-05 -2.045459142592e-02 -1.931015352773e-02 -2.032685906335e-02
273 2 1.063452948291e-02 5.078714297484e-03 6.895495443941e-03 4.965942884449e+00 -1.403391619996e+01 -7.423839092455e-01 -1.162334954066e+03 9.427689623259e+03 4.877796983816e+03 1.000000000000e-03 1.047197551197e-05 -4.965990306163e-03 1.403405021527e-02 7.423909985574e-04
274 2 1.277876826500e-03 3.207983721370e-03 1.051765543634e-02 -1.649436986479e+01 -2.607324825176e+00 1.123870675131e+01 4.637380463107e+03 -1.578995679178e+04 -7.160847899852e+03 1.000000000000e-03 1.047197551197e-05 1.649452737592e-02 2.607349723532e-03 -1.123881407408e-02
275 2 7.108268427855e-03 1.183116692835e-02 8.237491349985e-03 -8.744616557003e+00 -1.901443855063e-01 -2.492537841173e+01 1.147797540623e+04 -1.925382474453e+03 7.249874321590e+03 1.000000000000e-03 1.047197551197e-05 8.744700062738e-03 1.901462012688e-04 2.492561643384e-02
276 2 1.517526150577e-02 1.188228006662e-02 1.244555336783e-02 -3.917269336372e-01 -1.876425087988e+00 -2.663503169673e+00 -3.927723019966e+03 7.906875571552e+02 -7.862629572528e+02 1.000000000000e-03 1.047197551197e-05 3.917306743896e-04 1.876443006699e-03 2.663528604497e-03
277 2 6.712753509256e-03 1.142981544789e-02 9.534031824485e-04 -8.714186935179e-01 5.370096815445e+00 3.342524731230e+00 -5.411824845290e+03 -7.919524137083e+02 -6.603822319296e+03 1.000000000000e-03 1.047197551197e-05 1.533270950637e-02 2.952671888676e-03 -5.037671299684e-01
278 2 6.966280769659e-03 7.378579404097e-03 7.046363899909e-03 2.459583598012e+01 -8.208406364188e-01 -1.100558040038e+01 -1.688019555289e+03 6.545954449343e+03 7.486230277055e+03 1.000000000000e-03 1.047197551197e-05 -2.459607085530e-02 8.208484749443e-04 1.100568549694e-02
279 2 9.065951898659e-03 1.071678570557e-02 8.690142872558e-03 -3.868322264949e+00 -4.999579696827e+00 -1.389630682613e+01 3.256327973309e+02 -7.243683726112e+03 -9.022470529900e+03 1.000000000000e-03 1.047197551197e-05 3.868359205059e-03 4.999627439752e-03 1.389643952735e-02
280 2 6.289920634998e-03 5.996857659636e-03 6.114553456858e-04 1.285564707302e+01 -3.588284604868e+01 -1.342024072143e+01 1.349660988277e+03 7.528073143535e+03 4.461522585888e+03 1.000000000000e-03 1.047197551197e-05 -2.005012535458e+01 -3.395496516057e+00 4.922466517891e+00
281 2 4.011317860124e-03 1.248031919766e-02 1.334423066422e-03 -2.281377259873e+00 -3.220836520132e+00 -2.520627784053e-01 8.221225293203e+03 -1.407979687207e+03 -1.269873226779e+03 1.000000000000e-03 1.047197551197e-05 2.281399045629e-03 3.220867277149e-03 2.520651854506e-04
282 2 1.178655142615e-02 1.263872296467e-02 9.359555215136e-03 1.424261512880e+01 6.106191205773e+00 9.098487266759e+00 -1.949412667343e+03 -7.290899351605e+03 1.558805695818e+03 1.000000000000e-03 1.047197551197e-05 -1.424275113706e-02 -6.106249516161e-03 -9.098574151742e-03
283 2 8.597034042710e-03 8.666355543938e-03 1.441613762821e-02 -6.184891637499e+00 -4.081689056227e+00 -5.047955731729e-01 -1.365051284124e+04 1.207494552763e+04 3.044411911529e+03 1.000000000000e-03 1.047197551197e-05 -5.307362905649e-02 -9.204714719433e-02 -2.253477172131e-01
284 2 4.752952970276e-04 5.855953950712e-03 1.836956502502e-03 8.108648561181e+00 3.977321232030e+00 -7.090078929662e+00 -9.148505146632e+03 1.748204519512e+04 -3.870474403638e+03 1.000000000000e-03 1.047197551197e-05 -8.108725993811e-03 -3.977359213013e-03 7.090146635575e-03
285 2 7.624020455066e-04 1.266947599187e-02 1.383121852895e-02 -1.400587644631e+01 -1.363764451895e+00 -2.211309988348e+00 3.645808694421e+03 4.602067359451e+03 9.390061098496e+02 1.000000000000e-03 1.047197551197e-05 1.400601019385e-02 1.363777475011e-03 2.211331105005e-03
286 2 9.975633765514e-03 2.958051367272e-03 4.481855812146e-03 1.190526270801e+01 -1.128349802855e+01 -5.210405178160e-02 -3.458503073134e+03 -4.866579760524e+03 5.308168488969e+03 1.000000000000e-03 1.047197551197e-05 -1.190537639598e-02 1.128360577904e-02 5.210454934340e-05
287 2 9.844397107722e-03 6.470721872600e-03 1.359147831605e-02 1.212532878768e+01 -1.387543598188e+01 7.910654997707e+00 -1.108211120671e+03 1.025497687932e+04 -6.305062188069e+02 1.000000000000e-03 1.047197551197e-05 -1.212544457714e-02 1.387556848380e-02 -7.910730539619e-03
288 2 8.359891757280e-03 1.307433983412e-02 3.615386724964e-03 -2.968650930371e+01 1.838423041795e+01 1.234337745153e+01 -4.914584726390e+03 -1.428845058858e+04 1.523437401277e+04 1.000000000000e-03 1.047197551197e-05 2.968679279170e-02 -1.838440597609e-02 -1.234349532323e-02
289 2 2.127730154008e-03 8.677492771011e-03 2.870498125617e-03 -9.694778338928e+00 -1.322095777307e+01 4.709841575873e+00 8.844360974839e+03 -8.854056961502e+03 -3.798726830574e+03 1.000000000000e-03 1.047197551197e-05 9.694870918125e-03 1.322108402513e-02 -4.709886551977e-03
290 2 9.555179710060e-03 8.088277930678e-03 7.587975566956e-03 2.172828337693e+00 5.427489992507e+00 -6.905895720633e+00 -5.005413007316e+03 9.217462648074e+03 3.506439767355e+03 1.000000000000e-03 1.047197551197e-05 -2.172849086873e-03 -5.427541821713e-03 6.905961667709e-03
291 2 6.935723100243e-03 1.538319894734e-02 2.518841456864e-03 -1.088495171673e+00 3.272287941681e+01 -7.385455104284e+00 9.143267768771e+03 2.166781115968e+04 -3.664676751438e+03 1.000000000000e-03 1.047197551197e-05 1.088505566136e-03 -3.272319190027e-02 7.385525630859e-03
292 2 3.328647378278e-04 2.796428308679e-03 1.224040399372e-02 9.885779123167e+00 3.072444381955e+01 2.037192180212e+01 9.501035575869e+03 -3.388322230987e+03 1.262837236846e+03 1.000000000000e-03 1.047197551197e-05 -9.885873526306e-03 -3.072473721918e-02 -2.037211634150e-02
293 2 9.433789762127e-03 9.835762404184e-03 3.097787061942e-03 -1.602433672404e+01 -5.821280102090e-01 -1.146910334305e+01 -5.751584430771e+03 2.770165192193e+03 7.737176618516e+03 1.000000000000e-03 1.047197551197e-05 1.602448974665e-02 5.821335691751e-04 1.146921286597e-02
294 2 6.142783426010e-03 1.095239821756e-02 4.899781794557e-03 4.044775135763e+00 -1.197930812827e+00 4.725828584061e+00 1.364655735035e+03 4.485357876932e+03 -1.127361867217e+04 1.000000000000e-03 1.047197551197e-05 -4.044813760889e-03 1.197942252333e-03 -4.725873712831e-03
295 2 6.860037643149e-04 9.143725586122e-03 1.389761591671e-02 3.731317939478e+00 -1.618289759538e+01 -7.715433674808e+00 -1.648491489272e+04 -3.921610897334e+03 -1.629119629216e+03 1.000000000000e-03 1.047197551197e-05 -3.731353571280e-03 1.618305213215e-02 7.715507352476e-03
296 2 9.926777036563e-03 1.186082956856e-02 2.075882091641e-03 -3.354417512565e-01 -7.027858458304e+00 7.278546060871e+00 -6.905844327980e+03 -4.936510759620e+03 -8.838648880436e+03 1.000000000000e-03 1.047197551197e-05 3.354449545198e-04 7.027925570049e-03 -7.278615566530e-03
297 2 1.275096608576e-02 1.109418333213e-02 5.687530066719e-03 2.472776614217e+01 -8.293623489568e+00 -1.448995278422e+01 3.177893024461e+03 1.410842159054e+03 -1.275803564343e+03 1.000000000000e-03 1.047197551197e-05 -2.472800227719e-02 8.293702688595e-03 1.449009115440e-02
298 2 3.476243928171e-03 1.443707302014e-02 1.414580824174e-02 8.206849738503e+00 2.653503801218e+01 1.653616372034e+00 -3.886755645309e+03 -1.825648627721e+04 5.174135038044e+03 1.000000000000e-03 1.047197551197e-05 -8.206928108893e-03 -2.653529140554e-02 -1.653632163058e-03
299 2 1.879142545200e-03 7.221488886548e-03 8.355926479513e-03 3.419470601515e+00 4.511308487895e+00 -6.405843841271e+00 -2.827886039635e+02 -1.163025505567e+04 -1.411833070607e+04 1.000000000000e-03 1.047197551197e-05 -3.419503255366e-03 -4.511351568130e-03 6.405905013158e-03
300 2 4.203556605148e-03 4.543065630378e-03 1.135081379679e-02 -8.140562175977e+00 2.404393980036e+00 4.862159000379e+00 6.784513161682e+03 9.960411228505e+02 -1.027148504606e+04 1.000000000000e-03 1.047197551197e-05 8.140639913362e-03 -2.404416940526e-03 -4.862205431021e-03
301 2 1.384276288724e-02 3.580084794787e-03 1.371318643495e-02 2.310696538387e+01 -5.880707816672e+00 2.819121998751e+01 -3.983934129879e+03 -2.084678856175e+04 -6.160878562392e+03 1.000000000000e-03 1.047197551197e-05 -2.310718604125e-02 5.880763973831e-03 -2.819148919640e-02
302 2 1.336905968467e-02 1.212559423629e-02 1.080382027527e-02 2.278322015398e+01 -5.477777988906e+00 -1.431380171466e+01 8.868675605177e+02 1.118529945377e+03 9.548339702503e+02 1.000000000000e-03 1.047197551197e-05 -2.278343771979e-02 5.477830298332e-03 1.431393840271e-02
303 2 1.437076394901e-03 1.285921957175e-02 6.985070688445e-03 1.762439433362e+01 1.853634729480e+01 2.774780911086e+01 -1.342695096032e+04 1.881990834489e+04 -5.309769905666e+03 1.000000000000e-03 1.047197551197e-05 -1.762456263579e-02 -1.853652430557e-02 -2.774807408545e-02
304 2 1.749053828876e-03 6.320155391239e-03 1.103151951378e-02 1.083510608752e+01 1.172563805671e+01 -7.393001428873e+00 9.162889086667e+03 4.226243501643e+03 -5.895471636633e+03 1.000000000000e-03 1.047197551197e-05 -1.083520955615e-02 -1.172575002937e-02 7.393072027510e-03
305 2 1.463005953939e-03 1.132622900926e-02 4.189021286475e-03 8.104090706172e+00 -2.013468148878e+00 7.018074563956e+00 -1.476408920713e+04 1.062018785035e+04 1.176513469731e+04 1.000000000000e-03 1.047197551197e-05 -8.104168095277e-03 2.013487376266e-03 -7.018141582271e-03
306 2 1.474110074164e-02 3.546164197380e-03 4.501784005899e-03 1.172606817695e-01 1.466058933420e+01 1.068451133336e+01 -1.896330350424e+04 -4.857939200719e+03 3.414864062229e+03 1.000000000000e-03 1.047197551197e-05 -1.172618015373e-04 -1.466072933386e-02 -1.068461336390e-02
307 2 1.305406147275e-02 1.046874984854e-02 4.679039229821e-03 -1.999206388167e+00 -1.029587331734e+01 1.870398491969e+01 5.653471778387e+03 6.104704878392e+03 7.708619168684e+03 1.000000000000e-03 1.047197551197e-05 1.999225479364e-03 1.029597163663e-02 -1.870416353129e-02
308 2 1.169767029551e-02 6.909218016981e-03 1.272038919195e-02 7.684364848638e+00 9.836186381452e+00 7.583506937346e+00 -1.763169164528e+04 -6.395580919085e+03 -6.017202845541e+03 1.000000000000e-03 1.047197551197e-05 -7.684438229618e-03 -9.836280311010e-03 -7.583579355195e-03
309 2 3.388348861536e-03 9.271742323694e-03 1.361753473012e-03 8.612664869001e+00 1.289771128859e+01 -5.171170923290e-01 -9.564607701212e+02 -6.629538108959e+03 3.796908832056e+03 1.000000000000e-03 1.047197551197e-05 -8.612747114678e-03 -1.289783445383e-02 5.171220304807e-04
310 2 7.471879072194e-03 9.576408710210e-03 2.582615847293e-03 -2.089724515192e+01 5.969150576611e+00 1.807205795433e+01 -4.660432232359e+03 1.835358542636e+03 -1.006165043816e+04 1.000000000000e-03 1.047197551197e-05 2.089744470782e-02 -5.969207578345e-03 -1.807223053142e-02
311 2 1.276577212617e-02 1.251712401761e-02 5.387380361931e-03 -1.536523468011e+01 1.627969091031e+01 2.450662314136e+01 1.404873529090e+04 -1.021146651221e+04 9.816936676644e+02 1.000000000000e-03 1.047197551197e-05 1.536538140870e-02 -1.627984637139e-02 -2.450685716461e-02
312 2 1.154481869931e-02 1.080817932280e-02 9.529944735540e-03 -1.590089647265e+01 4.183304286478e+00 -2.785957993113e+00 -1.327689832026e+03 -7.833715291344e+03 5.134620384186e+03 1.000000000000e-03 1.047197551197e-05 1.590104831648e-02 -4.183344234473e-03 2.785984597306e-03
313 2 9.032807314945e-03 9.342268603046e-03 2.353614014867e-03 -1.589103370222e+01 -1.290905441418e+01 1.014355931530e+01 -9.304520730029e+03 4.147191419223e+03 1.154948755120e+04 1.000000000000e-03 1.047197551197e-05 1.589118545186e-02 1.290917768775e-02 -1.014365618008e-02
314 2 5.214143538550e-03 1.230707346295e-02 1.170220990552e-02 1.062515254558e+01 7.752579575339e+00 7.639922239358e+00 1.765910412218e+03 -6.436216800721e+02 -7.256631928050e+03 1.000000000000e-03 1.047197551197e-05 -1.062525400928e-02 -7.752653607727e-03 -7.639995195938e-03
315 2 4.069695203054e-03 9.007900110065e-03 7.718301890230e-03 2.996686854872e+00 6.194429535035e-01 -1.918712686504e+01 7.280361334084e+03 -1.192107937597e+03 -1.307328196728e+02 1.000000000000e-03 1.047197551197e-05 -2.996715471397e-03 -6.194488688045e-04 1.918731009035e-02
316 2 7.353649444943e-03 4.803688317238e-03 5.896868834068e-03 6.568283296859e+00 -2.321264482220e+01 -1.897713012061e+01 3.580398605417e+03 6.748323746845e+03 9.864120444545e+02 1.000000000000e-03 1.047197551197e-05 -6.568346019943e-03 2.321286648874e-02 1.897731134058e-02
317 2 1.357256490012e-02 2.417460102555e-04 1.425652236782e-02 -3.668452326712e+00 -4.730126940050e+00 1.544814133118e+01 -5.192453559096e+03 5.313342045173e+03 -3.950051948466e+03 1.000000000000e-03 1.047197551197e-05 3.668487358186e-03 4.730172109867e-03 -1.544828885148e-02
318 2 1.308785586750e-02 3.356284314717e-03 6.852850235829e-03 -2.475848988509e+01 -4.559487386354e+00 -7.690982740669e+00 2.621890066441e+02 8.149253571627e+03 2.032560052107e+03 1.000000000000e-03 1.047197551197e-05 1.001610755977e+01 3.315865315378e-01 -3.681848684546e+01
319 2 3.029306356921e-03 1.269795207307e-02 1.361437702505e-02 -1.139138567352e+01 1.098710052638e+01 -8.875966454076e+00 1.119090085856e+04 1.153359988002e+04 5.741744943439e+03 1.000000000000e-03 1.047197551197e-05 1.139149445428e-02 -1.098720544647e-02 8.876051214122e-03
320 2 7.489932308911e-03 9.469564584767e-03 9.810054063169e-03 -1.848865646283e+01 -1.594004667289e+01 -2.542825699525e+01 -1.717262768025e+04 -3.341822683210e+03 -1.116854321956e+04 1.000000000000e-03 1.047197551197e-05 1.848883301818e-02 1.594019889057e-02 2.542849981954e-02
321 2 6.347153236479e-03 1.139546486903e-02 1.217174028955e-02 9.255827270751e+00 1.154648159220e+01 -6.765953936606e+00 6.197542439836e+03 9.739216095597e+03 2.004801575745e+03 1.000000000000e-03 1.047197551197e-05 -9.255915658235e-03 -1.154659185403e-02 6.766018547324e-03
322 2 1.296408756321e-03 6.792758152185e-03 8.580657829985e-03 -1.290558046508e+01 -1.189470252121e+01 -4.874918595806e+00 1.431569417340e+04 1.899432358241e+03 6.232526970093e+03 1.000000000000e-03 1.047197551197e-05 1.290570370547e-02 1.189481610834e-02 4.874965148294e-03
323 2 1.064338321369e-02 9.306743101576e-03 1.393066129871e-02 1.271749109464e+01 -1.635016884433e+01 1.686662112109e+01 -1.509157039145e+04 2.811713749779e+03 -3.454747378344e+02 1.000000000000e-03 1.047197551197e-05 -1.271761253889e-02 1.635032497843e-02 -1.686678218699e-02
324 2 1.247603521715e-03 9.144686008340e-03 7.170379533151e-03 1.682327646942e+01 -1.326301749074e+01 1.167136519557e+01 -7.448232641011e+03 -5.735285827852e+02 -2.871394769461e+03 1.000000000000e-03 1.047197551197e-05 -1.682343712141e-02 1.326314414444e-02 -1.167147664996e-02
325 2 1.144093534344e-03 8.346235939508e-03 1.433081291287e-02 -6.025138751333e+00 -2.516762902359e+01 -1.794726124546e+00 -9.980059654016e+03 1.117850581543e+04 3.100432855396e+03 1.000000000000e-03 1.047197551197e-05 6.025196287719e-03 2.516786935904e-02 1.794743263082e-03
326 2 8.727542380241e-04 7.690839533039e-03 1.226215505792e-02 2.294393601242e+01 -2.065857594218e+01 2.346665753961e+01 -8.001401908345e+03 -1.432304705927e+04 2.060575074311e+03 1.000000000000e-03 1.047197551197e-05 -2.294415511296e-02 2.065877321894e-02 -2.346688163183e-02
327 2 5.771933611414e-03 3.107802265534e-05 1.026051361288e-02 -1.139971574749e+01 -1.687465890501e+00 2.472035125717e+00 -6.719215008329e+02 -7.142490181804e+02 -1.524148159608e+04 1.000000000000e-03 1.047197551197e-05 1.139982460779e-02 1.687482004768e-03 -2.472058732139e-03
328 2 9.441043883274e-03 1.191680653853e-02 9.084126425596e-03 1.511229124764e+01 -1.603348960580e+01 1.085263394903e+01 -9.098109892734e+03 7.956047245060e+03 -4.943125241937e+03 1.000000000000e-03 1.047197551197e-05 -1.511243556077e-02 1.603364271581e-02 -1.085273758504e-02
329 2 1.570414409508e-03 1.549042608757e-03 1.036259389098e-03 2.076042973916e+01 -1.388134425197e+01 3.048945480294e+00 1.393694430504e+04 2.089670128703e+04 5.169444542370e+02 1.000000000000e-03 1.047197551197e-05 -2.076062798856e-02 1.388147681031e-02 -3.048974595857e-03
330 2 2.424550218638e-03 6.789177047633e-03 1.340113791762e-02 2.021949428712e+01 1.636159803289e+01 -3.985561167015e+00 -1.350194901221e+04 -2.753869022283e+03 -5.629507736786e+03 1.000000000000e-03 1.047197551197e-05 -2.021968737092e-02 -1.636175427613e-02 3.985599226684e-03
331 2 5.857508575270e-03 1.091367749542e-02 1.454353101411e-02 -1.079748554027e+01 -4.948527658529e+00 -1.678874352924e+00 -1.122480013234e+03 6.313099374456e+03 -3.934480743995e+03 1.000000000000e-03 1.047197551197e-05 7.925180151763e-01 6.567324297393e-01 -2.033913425045e+00
332 2 1.206988793299e-02 8.152243547178e-03 2.727277391376e-03 7.865008587155e-01 -1.479899837906e+01 1.523704578883e+01 3.326824533993e+03 -8.327973670466e+03 5.069174496496e+03 1.000000000000e-03 1.047197551197e-05 -7.865083693172e-04 1.479913970043e-02 -1.523719129329e-02
333 2 5.151260694248e-03 1.773694179946e-03 1.046620425123e-02 -1.621774294309e+01 7.458947780139e+00 1.654821589431e+01 2.573187912697e+02 7.146874932983e+03 -3.454896997495e+03 1.000000000000e-03 1.047197551197e-05 1.621789781261e-02 -7.459019008524e-03 -1.654837391964e-02
334 2 3.192501610879e-03 6.593549941743e-03 5.492784006647e-03 -1.147201593457e+01 -7.108481640649e+00 9.864871156239e-01 5.532684249485e+03 -3.542451984070e+02 2.004911779175e+03 1.000000000000e-03 1.047197551197e-05 1.147212548530e-02 7.108549522297e-03 -9.864965359719e-04
335 2 1.108446893270e-02 1.508366725074e-02 7.506145334905e-03 1.582203003834e+01 1.843296816933e+01 1.150118347704e+01 -1.267273194201e+04 -6.035342788147e+01 -2.617327138144e+03 1.000000000000e-03 1.047197551197e-05 -1.582218112904e-02 -1.843314419289e-02 -1.150129330630e-02
336 2 3.973463350398e-03 1.264976946189e-02 3.487729247131e-03 -1.816103861333e+01 2.682648084497e+00 -8.830448175220e+00 3.522366066709e+03 4.982923196193e+02 -4.286750638563e+03 1.000000000000e-03 1.047197551197e-05 1.816121204013e-02 -2.682673702144e-03 8.830532500594e-03
337 2 6.311140725769e-03 1.210266882274e-02 8.966707695681e-03 -4.174651005931e+01 -1.708179271345e+00 1.573584690750e+00 6.773865992433e+02 -8.709729065026e+02 -1.032021994378e+04 1.000000000000e-03 1.047197551197e-05 4.174690871292e-02 1.708195583411e-03 -1.573599717521e-03
338 2 1.260662853674e-02 1.133823277153e-02 4.209099773750e-03 -1.742592248023e+01 -1.741557865281e+01 2.354473081442e-01 -2.750217133342e+03 2.640108161572e+04 -1.168446778107e+03 1.000000000000e-03 1.047197551197e-05 1.742608888713e-02 1.741574496093e-02 -2.354495565219e-04
339 2 9.710801429864e-03 2.012113167339e-03 5.285700500153e-03 1.963144196662e+00 3.851561831230e+01 9.434748503852e+00 1.413942594197e+03 -8.143623896633e+03 -1.049288902298e+04 1.000000000000e-03 1.047197551197e-05 -1.963162943488e-03 -3.851598611287e-02 -9.434838599924e-03
340 2 2.012892993348e-03 6.853192102587e-03 2.834322881482e-03 9.753273864893e+00 3.064331496353e+00 -3.598203854022e+01 -1.586296457833e+04 2.237325968199e+04 -1.662060814720e+03 1.000000000000e-03 1.047197551197e-05 -9.753367002687e-03 -3.064360758843e-03 3.598238214666e-02
341 2 3.136123106307e-03 6.315679748234e-03 1.086911428817e-03 5.433095836104e+00 -2.784508203401e+00 5.741547951927e+00 2.828241045307e+03 5.501828765200e+03 -7.534147033205e+03 1.000000000000e-03 1.047197551197e-05 -5.433147718843e-03 2.784534793750e-03 -5.741602780195e-03
342 2 1.081912643953e-02 2.388859678990e-03 6.562700551144e-03 1.012895574065e+01 4.611847237226e+01 -2.042523509195e+01 2.095480267164e+04 -3.457510904481e+03 2.211423153233e+03 1.000000000000e-03 1.047197551197e-05 -1.012905246597e-02 -4.611891277544e-02 2.042543014044e-02
343 2 3.937351677793e-03 6.718790385259e-03 1.207890658438e-02 8.041155987223e-01 -1.364128362564e+00 1.262733972859e+01 -6.712223495245e+03 8.979676773863e+03 -2.335796199990e+03 1.000000000000e-03 1.047197551197e-05 -8.041232775340e-04 1.364141389155e-03 -1.262746031196e-02
344 2 1.056181077585e-03 2.835371337438e-03 1.246228410067e-02 -2.133494558398e+01 -5.910512134960e+00 -2.032250366013e+00 -8.930458727693e+03 1.485263239492e+04 -9.884204744639e+03 1.000000000000e-03 1.047197551197e-05 2.133514931964e-02 5.910568576732e-03 2.032269772760e-03
345 2 8.441846599018e-03 2.228466156584e-04 1.412327365211e-02 8.250445117682e+00 2.350257015637e+01 1.437493193243e+01 -4.975516853871e+03 -3.871684240267e+03 -1.599290437669e+04 1.000000000000e-03 1.047197551197e-05 -8.250523904381e-03 -2.350279459153e-02 -1.437506920423e-02
346 2 8.209679928761e-03 4.390214222326e-04 2.295974155118e-03 8.269256262773e+00 1.100188600337e+00 1.209700255999e+01 8.799750740350e+03 -7.597232251628e+02 8.612652149168e+02 1.000000000000e-03 1.047197551197e-05 -8.269335229108e-03 -1.100199106465e-03 -1.209711807896e-02
347 2 1.140344707075e-02 9.420213039973e-03 1.279475660727e-02 -2.186584591401e+01 8.861053739544e+00 2.517270438637e+00 -5.588873489010e+03 9.339322339753e+03 8.414720847034e+03 1.000000000000e-03 1.047197551197e-05 2.186605471945e-02 -8.861138357183e-03 -2.517294477029e-03
348 2 1.295766425987e-03 9.282231006580e-03 2.284671376931e-03 1.641453785743e+01 -8.115481177450e+00 -7.039011420018e+00 -8.987220309990e+03 5.297837534496e+03 1.060806917951e+04 1.000000000000e-03 1.047197551197e-05 -1.641469460622e-02 8.115558675327e-03 7.039078638268e-03
349 2 1.496359273837e-02 1.424061958475e-02 5.587907274246e-03 -3.041638991509e+00 2.718891240181e+01 -2.787121422981e+01 1.877269424558e+03 1.531019978615e+03 8.974309295291e+03 1.000000000000e-03 1.047197551197e-05 3.041668037300e-03 -2.718917203928e-02 2.787148038284e-02
350 2 8.084883616016e-03 1.169873808824e-02 2.932730597260e-03 3.038776413006e+00 1.589395538001e+01 -2.439862479113e+01 4.049363431515e+02 4.470769582404e+03 -5.920276615832e+03 1.000000000000e-03 1.047197551197e-05 -4.970394569305e-01 3.127629818543e+01 -1.167768524288e+01
351 2 5.595218332695e-03 1.360227640544e-02 1.384547536536e-02 4.987352961014e+00 9.835278094881e+00 -2.319713865237e+00 5.197995157190e+03 -6.873007573320e+03 3.099724517636e+03 1.000000000000e-03 1.047197551197e-05 -4.987400587182e-03 -9.835372015766e-03 2.319736017084e-03
352 2 3.725308578614e-03 4.075958770142e-03 1.426259821981e-02 3.639077452712e-01 -1.123247603382e+01 -2.996101809052e+00 -1.127064301533e+04 -3.323791665270e+02 3.816155339451e+03 1.000000000000e-03 1.047197551197e-05 -3.639112203674e-04 1.123258329709e-02 2.996130419990e-03
353 2 9.689116855875e-03 4.984623904854e-03 1.352547718211e-02 4.293857300819e-01 1.166238420763e+01 -9.195074667634e+00 -1.298740690756e+04 -3.757972576567e+03 -6.427940684190e+03 1.000000000000e-03 1.047197551197e-05 -4.293898304528e-04 -1.166249557626e-02 9.195162474967e-03
354 2 2.213702336800e-03 7.289169378272e-03 7.721141263444e-03 1.795834794856e+01 2.731375187652e+01 1.950982988368e+01 8.910173999129e+03 3.983672848764e+03 2.044333256238e+03 1.000000000000e-03 1.047197551197e-05 -1.795851943979e-02 -2.731401270613e-02 -1.951001619061e-02
355 2 6.205820237003e-03 7.985356454943e-03 1.254092231406e-03 -4.049698612701e+00 1.138266019383e+00 1.725003480701e+00 -2.562945612504e+04 8.591925316567e+03 2.946943521696e+03 1.000000000000e-03 1.047197551197e-05 4.049737284843e-03 -1.138276889126e-03 -1.725019953428e-03
356 2 4.767755202971e-03 6.558865389493e-03 3.026939973197e-03 -1.530029466231e+01 4.591201408687e+00 -1.381588588851e+01 1.561662713084e+03 9.099018335140e+03 6.378210062839e+03 1.000000000000e-03 1.047197551197e-05 1.530044077075e-02 -4.591245251850e-03 1.381601782176e-02
357 2 8.591833920506e-03 1.004997811481e-02 8.304407966774e-03 2.175513012354e+01 8.517501362168e-01 -1.098134107998e+01 -1.028419619508e+04 8.987192137659e+03 8.448974200199e+02 1.000000000000e-03 1.047197551197e-05 -2.175533787171e-02 -8.517582699092e-04 1.098144594506e-02
358 2 2.945976630554e-03 1.786137597018e-03 9.891490570089e-03 2.221579940978e+01 -3.276798238096e+01 -2.307882444818e+00 2.133161113522e+03 1.580436963874e+03 7.571075550047e+03 1.000000000000e-03 1.047197551197e-05 -2.221601155706e-02 3.276829529513e-02 2.307904483682e-03
359 2 3.277088978786e-03 3.297658320453e-03 8.892976129037e-03 -4.819732517883e+00 -1.881936151864e+01 -8.787509045687e+00 6.329156579983e+03 -1.005213871685e+04 7.122965098323e+03 1.000000000000e-03 1.047197551197e-05 4.819778543378e-03 1.881954123203e-02 8.787592961018e-03
360 2 4.550287912444e-03 1.432056404266e-02 1.459105724575e-03 -1.412723380214e+01 -1.001250785647e+01 8.189279816508e+00 1.013362895291e+04 -1.424877234691e+04 -1.530358549515e+03 1.000000000000e-03 1.047197551197e-05 1.412736870857e-02 1.001260346979e-02 -8.189358019117e-03
361 2 9.167740136208e-03 9.291888948682e-03 4.823597391469e-03 -1.184622840987e+01 1.695947498622e+01 -1.450216894017e+01 9.489951886805e+02 -1.369492391579e+03 3.711416429357e+03 1.000000000000e-03 1.047197551197e-05 1.184634153410e-02 -1.695963693883e-02 1.450230742700e-02
362 2 4.369527178827e-03 8.978879880713e-03 4.284653676281e-03 -7.280055693672e+00 8.086339919844e+00 -1.162493574557e+01 -1.201372536158e+03 -5.634862617225e+02 2.022897628616e+02 1.000000000000e-03 1.047197551197e-05 7.280125213747e-03 -8.086417139440e-03 1.162504675659e-02
363 2 4.165117993785e-03 1.425733235979e-02 1.397712766289e-02 8.153137747975e+00 5.057978852045e-01 -6.127571332859e+00 5.071629864387e+02 -8.209608565440e+03 7.022125229926e+03 1.000000000000e-03 1.047197551197e-05 -8.153215605449e-03 -5.058027152646e-04 6.127629847414e-03
364 2 7.761379053629e-03 7.057986334491e-03 1.168304997419e-03 -2.490657957503e+01 2.038707845997e+00 7.052132930550e+00 -2.121806405515e+03 -2.364040524625e+04 -1.781450873562e+03 1.000000000000e-03 1.047197551197e-05 2.490681741761e-02 -2.038727314409e-03 -7.052200274102e-03
365 2 5.956330097324e-03 1.383012796363e-02 8.051779668582e-03 2.860103614316e-01 -1.419700022318e+00 -8.880818942878e+00 7.984698420435e+03 -3.248373738448e+03 -1.284787513961e+04 1.000000000000e-03 1.047197551197e-05 -2.860130926554e-04 1.419713579584e-03 8.880903749262e-03
366 2 9.368301806088e-03 7.787634642095e-03 2.619382576877e-03 -2.260512680636e+01 1.105844695336e+01 -2.161387720812e+01 -8.084512149909e+03 -8.100343173520e+03 1.703968882127e+03 1.000000000000e-03 1.047197551197e-05 2.260534267148e-02 -1.105855255476e-02 2.161408360742e-02
367 2 1.161455842258e-03 1.418603393131e-02 1.297757689846e-02 3.651011124748e-02 -5.508420663104e+00 -9.287811151457e+00 5.774531976573e+03 3.479310101994e+03 -3.165433168372e+03 1.000000000000e-03 1.047197551197e-05 -2.571036302548e+01 -9.343891802592e+00 4.836401513639e+00
368 2 1.014350330370e-02 5.840750435878e-03 3.373116439000e-03 6.185563632862e+00 4.882488023343e-01 1.978594689199e+01 -8.124994829913e+03 -1.318198695473e+04 -3.928454908433e+03 1.000000000000e-03 1.047197551197e-05 -6.185622701208e-03 -4.882534648114e-04 -1.978613583567e-02
369 2 4.004959983465e-03 7.534399422930e-03 1.042260587338e-03 1.894355240240e+01 -1.808515905221e+01 1.982117852240e+00 1.791063108766e+04 1.896626573549e+04 8.388400882557e+03 1.000000000000e-03 1.047197551197e-05 -1.894373330173e-02 1.808533175440e-02 -1.982136780252e-03
370 2 3.978300383060e-03 7.466152046727e-03 1.266358096344e-02 -1.918840895805e+01 -1.223161615475e+01 9.035880938442e+00 -3.948392721335e+02 1.701442912600e+04 -1.247360685201e+04 1.000000000000e-03 1.047197551197e-05 1.918859219561e-02 1.223173295919e-02 -9.035967225573e-03
371 2 1.485261432211e-02 1.303837168423e-02 9.887819262252e-03 -9.175621884129e+00 2.078202074835e+01 -1.279343339041e+01 4.466500786952e+03 7.031547374327e+03 3.732306530452e+03 1.000000000000e-03 1.047197551197e-05 9.175709505700e-03 -2.078221920392e-02 1.279355555987e-02
372 2 9.035955574548e-03 1.321769185015e-02 1.379118688553e-02 -1.101798294855e+01 -1.757685396570e+01 -3.272223253458e+00 -7.735707677889e+03 9.255899730140e+03 -5.077532923228e+02 1.000000000000e-03 1.047197551197e-05 1.101808816354e-02 1.757702181389e-02 3.272254501187e-03
373 2 9.801562133166e-03 4.885938569197e-03 8.893681440256e-03 8.016854101124e+00 -1.435550890405e+00 1.441227274827e+01 -1.088558566524e+04 1.197905031949e+04 -1.365820125339e+03 1.000000000000e-03 1.047197551197e-05 -8.016930657173e-03 1.435564599037e-03 -1.441241037665e-02
374 2 1.520016108489e-02 1.256191571988e-02 2.241505339870e-03 1.054376665520e+01 7.185615054970e-01 -2.819910926866e+01 9.891723535244e+03 2.298205642013e+03 6.213278762608e+03 1.000000000000e-03 1.047197551197e-05 -1.054386734172e-02 -7.185683673195e-04 2.819937855289e-02
375 2 1.497102171107e-02 9.379170906174e-03 1.224986024464e-02 2.450229797494e+01 7.452737255975e+00 1.209555392900e+01 7.757342815519e+02 -5.248769683771e+03 1.563271846039e+03 1.000000000000e-03 1.047197551197e-05 -2.450253195688e-02 -7.452808425053e-03 -1.209566943414e-02
376 2 8.955650155731e-03 8.399879114135e-03 1.027574266651e-02 1.900449588369e+01 -8.845706898319e+00 -1.857325195916e+01 4.445215274230e+03 1.219086362583e+04 -3.506910936984e+03 1.000000000000e-03 1.047197551197e-05 -1.900467736499e-02 8.845791369404e-03 1.857342932234e-02
377 2 1.077889209252e-02 9.538390671302e-03 1.094173028965e-02 -3.070150689133e-01 3.402475174242e+01 2.362728659594e+00 -7.024998303642e+03 7.240322443570e+03 1.655145019637e+04 1.000000000000e-03 1.047197551197e-05 3.070180007192e-04 -3.402507665797e-02 -2.362751222206e-03
378 2 1.008306231748e-02 1.300254696235e-02 1.111535931245e-02 3.463311379495e+00 -1.814632348637e+01 1.005196918599e+01 1.466048697227e+04 1.933343537396e+03 -8.985889614865e+03 1.000000000000e-03 1.047197551197e-05 -3.463344451999e-03 1.814649677265e-02 -1.005206517614e-02
379 2 2.997601154237e-03 8.355758307304e-03 3.302549170677e-03 1.704179309307e+01 9.298978012794e+00 1.068309676898e+01 -3.801129385037e+03 -1.756935745225e+03 -8.738205948581e+03 1.000000000000e-03 1.047197551197e-05 -1.704195583176e-02 -9.299066812341e-03 -1.068319878602e-02
380 2 1.009833451698e-02 9.422988528826e-03 3.104772911629e-03 2.524671547081e+01 -1.132095740848e+01 -1.929250379610e+00 2.175697845437e+03 -5.325880553012e+03 2.598801806782e+03 1.000000000000e-03 1.047197551197e-05 -4.168279901041e+01 2.402385573624e+01 2.047722725089e+01
381 2 1.805086859542e-03 1.804886563816e-03 1.426639239193e-02 2.788499393365e+00 -2.601964623236e+00 3.322182989708e+00 -7.281437151742e+03 2.092956345380e+03 -3.243819483954e+03 1.000000000000e-03 1.047197551197e-05 -2.788526021827e-03 2.601989470405e-03 -3.322214714521e-03
382 2 1.342376516360e-02 3.266972483217e-03 1.324041564408e-02 8.407914631519e+00 -2.698628767109e+01 -1.588829369341e+01 -7.393786305775e+03 -3.945445514006e+02 -5.389851244464e+02 1.000000000000e-03 1.047197551197e-05 -8.407994921956e-03 2.698654537362e-02 1.588844541688e-02
383 2 1.413514935499e-02 1.202666473853e-03 9.212856534575e-04 2.050455239545e+01 -1.300321706617e+01 -8.894626169151e+00 -4.259257435986e+03 -3.794154348491e+03 3.211741872304e+03 1.000000000000e-03 1.047197551197e-05 1.055536111335e+00 -7.511378037806e-01 3.459761901958e+00
384 2 1.507373736744e-02 4.037642251194e-03 1.255737178622e-03 5.314954424189e+00 9.349818389671e+00 -6.874436398074e-01 -2.095484692006e+03 -9.816673157420e+03 -2.577712027402e+02 1.000000000000e-03 1.047197551197e-05 -5.315005178749e-03 -9.349907674712e-03 6.874502044733e-04
385 2 1.001732885949e-02 1.326085161795e-02 1.269552498441e-02 2.167635019956e+01 1.097933406867e+00 3.287601716156e+01 -4.189137912444e+03 2.068864918568e+03 8.403671541107e+03 1.000000000000e-03 1.047197551197e-05 -2.167655719544e-02 -1.097943891458e-03 -3.287633110739e-02
386 2 6.572679244035e-03 1.531389809744e-02 1.176134591423e-02 3.020157930800e+01 -9.243445837430e+00 -1.772080596224e+01 -9.334677729600e+02 1.532868261222e+04 9.279306777348e+03 1.000000000000e-03 1.047197551197e-05 -3.020186771459e-02 9.243534106679e-03 1.772097518509e-02
387 2 4.729858855727e-03 2.600455319547e-03 6.392335154690e-03 -1.002727630303e+01 5.843218295121e+00 -4.477145725228e+00 1.568970800867e+04 -4.821786095903e+03 -5.686686476170e+03 1.000000000000e-03 1.047197551197e-05 1.002737205738e-02 -5.843274094279e-03 4.477188479228e-03
388 2 1.371992060054e-02 1.375720545994e-02 9.615420177309e-03 -8.305275641633e+00 1.483130061833e+01 1.001977439059e+01 9.140924721484e+03 -9.308966646270e+02 -1.889445241417e+02 1.000000000000e-03 1.047197551197e-05 8.305354951931e-03 -1.483144224817e-02 -1.001987007330e-02
389 2 1.155038918932e-03 5.269936525792e-03 1.258943651422e-02 -8.876892851389e+00 -2.497100124007e+01 5.804220082514e-02 3.469946190895e+03 1.434513555614e+04 8.676522643831e+03 1.000000000000e-03 1.047197551197e-05 8.876977620281e-03 2.497123969784e-02 -5.804275509262e-05
390 2 7.058855614371e-03 4.742709434130e-03 1.377997176271e-02 -1.673638899260e+01 6.169042593868e+00 -1.217512845321e+01 -6.792067855838e+03 8.467829317873e+03 -3.701183102387e+03 1.000000000000e-03 1.047197551197e-05 1.673654881487e-02 -6.169101504448e-03 1.217524471823e-02
391 2 1.215511849957e-02 3.608413952763e-03 4.402663386509e-03 -1.163723605001e+01 -1.070601920356e+01 -5.717023255659e+00 6.558471489183e+03 1.623210052130e+03 -3.315646661978e+03 1.000000000000e-03 1.047197551197e-05 1.163734717849e-02 1.070612143949e-02 5.717077849731e-03
392 2 7.639478252050e-03 5.293487956325e-03 1.801357211042e-03 1.034538746362e+01 -5.197000659710e+00 -7.185982845082e-01 -1.204327262226e+03 -5.933177752933e+03 -8.387131970020e+02 1.000000000000e-03 1.047197551197e-05 -1.034548625574e-02 5.197050287884e-03 7.186051466819e-04
393 2 7.435279069349e-03 3.169898547893e-03 3.163535370388e-03 -6.267617740221e+00 -1.254847259607e+01 6.242438529940e+00 1.256512463736e+04 -6.385671018816e+03 7.124186025389e+03 1.000000000000e-03 1.047197551197e-05 6.267677592133e-03 1.254859242630e-02 -6.242498141406e-03
394 2 5.792018751421e-03 1.156146139613e-02 1.152638508354e-02 2.536437940779e+01 5.943615641039e+00 -3.284665467427e+00 -3.160004039256e+03 4.211774569523e+03 -7.387628210344e+03 1.000000000000e-03 1.047197551197e-05 -2.536462162209e-02 -5.943672398930e-03 3.284696833971e-03
395 2 8.831808225013e-03 1.104946044262e-02 1.423148450563e-02 4.549695768383e-01 1.258685208260e+01 -1.366526903847e+00 8.220668758747e+03 -3.521749635893e+03 -8.579078556271e+02 1.000000000000e-03 1.047197551197e-05 -4.549739215192e-04 -1.258697227933e-02 1.366539953342e-03
396 2 2.653206533312e-03 3.937552216609e-03 1.421050442376e-02 2.503297741834e+00 9.762786631751e+00 -4.198360855290e+00 3.625905966059e+03 -1.341593570986e+03 6.995416769792e+03 1.000000000000e-03 1.047197551197e-05 -2.503321646795e-03 -9.762879860386e-03 4.198400947066e-03
397 2 4.342560778058e-04 3.733484975952e-03 9.310731179570e-03 -6.109184454914e+00 -4.049254299581e+00 -2.358496962879e+01 1.598951825423e+04 9.479702564914e+02 4.260848348488e+03 1.000000000000e-03 1.047197551197e-05 6.109242793885e-03 4.049292967480e-03 2.358519485081e-02
398 2 3.984926504410e-04 1.909163232288e-03 8.285910600555e-03 1.265556948638e+01 -1.512910696982e+01 -3.404845139356e+00 -6.198176665132e+03 -6.911770718139e+03 -5.921221996811e+03 1.000000000000e-03 1.047197551197e-05 -1.265569033932e-02 1.512925144353e-02 3.404877653543e-03
399 2 1.403767401423e-02 1.326155613427e-02 8.310604306325e-03 1.819234479734e+01 -1.049515118770e+01 -1.901994023763e+00 -3.329627325608e+03 -1.065564575646e+04 4.492575853858e+03 1.000000000000e-03 1.047197551197e-05 -1.819251852310e-02 1.049525140997e-02 1.902012186642e-03
400 2 7.574627146577e-03 7.370455546989e-03 1.412208138475e-02 -6.813354415982e+00 -8.357995693717e+00 -2.332206079223e+00 -3.837465427830e+03 7.625310682490e+03 -3.191395157217e+03 1.000000000000e-03 1.047197551197e-05 6.813419479346e-03 8.358075507459e-03 2.332228350363e-03
401 3 5.182991890946e-03 8.760436788857e-04 1.419488076435e-02 -1.863422551967e+01 -7.373816982469e+00 -3.974246578416e+00 -3.919256062041e+03 8.721572745449e+03 -5.814436797186e+02 1.250000000000e-03 2.045307717181e-05 4.405936046481e-01 1.423614685204e-01 8.900245965922e-01
402 3 9.646976588071e-03 8.497616805378e-03 1.102115852519e-03 1.015479720043e+01 -1.174229598540e+01 -5.619410932441e-01 -3.326229978626e+03 8.303219974520e+02 4.681094301258e+03 1.250000000000e-03 2.045307717181e-05 -6.622985088134e-01 1.149782455614e+00 2.623862635789e+00
403 3 8.516806345761e-03 1.141798358799e-02 7.904382953285e-03 1.143321636849e+01 1.020740441881e+01 8.664430470568e+00 8.650250559795e+03 5.271993213726e+02 1.866964543188e+03 1.250000000000e-03 2.045307717181e-05 -1.143327226850e-02 -1.020745432550e-02 -8.664472833254e-03
404 3 1.333489877186e-02 2.984711238384e-03 1.026190893249e-02 -1.018591718213e+01 1.424808214478e+01 -1.169842680271e+01 -3.106946303236e+03 2.083467940531e+03 -4.461048843015e+03 1.250000000000e-03 2.045307717181e-05 1.018596698376e-02 -1.424815180741e-02 1.169848399941e-02
405 3 1.311277848007e-03 1.391121203283e-02 6.619279198256e-03 1.212250508172e-01 1.461133488605e+00 5.523557764199e+00 -6.818898881251e+03 3.072879559447e+03 2.320268849967e+02 1.250000000000e-03 2.045307717181e-05 -1.212256435185e-04 -1.461140632472e-03 -5.523584770330e-03
406 3 3.217946615502e-04 7.887185587767e-03 1.221882734586e-03 -2.098513716612e+00 4.648284438640e+00 1.674009730314e+00 -2.957042095327e+02 -1.377356141638e+03 1.021937972785e+03 1.250000000000e-03 2.045307717181e-05 1.841832767706e-02 -1.906629135627e-01 -3.751322875301e-01
407 3 2.188222525272e-03 6.068583816939e-03 1.263460982025e-02 -1.885377257871e+01 -3.942492587579e+00 -4.307617891594e+00 -2.529112464205e+03 1.465790040103e+03 -7.714326771668e+02 1.250000000000e-03 2.045307717181e-05 1.885386475977e-02 3.942511863465e-03 4.307638952674e-03
408 3 1.960894821188e-03 3.434414460348e-03 9.636242014162e-03 -2.853803580588e-01 -2.114586476372e+01 8.023176851232e+00 3.247622140831e+03 1.129635539956e+03 -4.922583072938e+02 1.250000000000e-03 2.045307717181e-05 2.853817533586e-04 2.114596815143e-02 -8.023216078660e-03
409 3 1.291693026099e-02 1.217518905406e-02 1.415193406334e-02 -6.097200308123e+00 -1.439354566260e+00 2.481479713435e+00 -9.386999081052e+02 3.202204747274e+03 7.801916030170e+03 1.250000000000e-03 2.045307717181e-05 1.502777918496e+01 -1.834913459987e+01 4.970150912191e+00
410 3 1.280587439892e-02 1.010702409618e-02 1.074930754861e-02 3.783984415330e+00 3.476370875585e+00 -1.242824603142e+01 -7.933951282620e+02 -1.095549213516e+04 -4.336672930663e+03 1.250000000000e-03 2.045307717181e-05 -3.784002916227e-03 -3.476387872479e-03 1.242830679640e-02
411 3 1.531107297759e-02 1.405498255891e-02 1.350485609588e-02 3.922546991663e+00 -2.325302777983e+00 2.641187185055e+00 -1.166295770330e+03 -1.762423996339e+03 6.045409464285e+03 1.250000000000e-03 2.045307717181e-05 -3.922566170030e-03 2.325314147002e-03 -2.641200098516e-03
412 3 4.000094875178e-03 6.310585375550e-03 3.171229106024e-03 4.156392114110e-01 5.796692247192e+00 -6.992636828532e-01 4.364242130899e+02 4.947684419739e+02 -1.418621141121e+03 1.250000000000e-03 2.045307717181e-05 -4.156412435807e-04 -5.796720588749e-03 6.992671017378e-04
413 3 1.806013168485e-03 1.518685170456e-02 4.877498709097e-03 2.847627941128e+00 -2.522869493372e+00 -9.126205530249e+00 -6.558471198653e+02 -4.826495409272e+03 4.387563260899e+03 1.250000000000e-03 2.045307717181e-05 -2.847641863932e-03 2.522881828347e-03 9.126250150675e-03
414 3 4.939506480664e-03 3.149670805132e-03 2.038968355296e-03 -3.123910044387e+00 -3.807665851815e+00 -2.630760111962e+00 -6.255420664201e+02 -2.146498247174e+03 2.945430696503e+02 1.250000000000e-03 2.045307717181e-05 3.123925318007e-03 3.807684468498e-03 2.630772974442e-03
415 3 8.508133202706e-04 1.090589663069e-02 1.419308001338e-02 3.068637747686e+00 -2.239747236098e+00 2.896267629556e+01 -1.043203043991e+03 -5.549827605049e+03 -7.450697343548e+03 1.250000000000e-03 2.045307717181e-05 1.817125202855e+00 4.425216132426e-01 -1.326038268394e+01
416 3 3.963851052029e-03 1.421035685881e-02 6.768414096055e-03 6.898442962165e+00 8.748868604488e+00 1.339299787471e+01 -4.597587487045e+00 1.137600357280e+04 -3.684449198319e+03 1.250000000000e-03 2.045307717181e-05 -6.898476690472e-03 -8.748911380015e-03 -1.339306335661e-02
417 3 5.162097460706e-03 1.075219477211e-02 1.301118165844e-02 3.898241493467e-01 -9.927623531410e+00 -2.134881904292e+00 -7.880734068443e+03 -2.463596830337e+02 -3.389822325654e+03 1.250000000000e-03 2.045307717181e-05 -3.898260552997e-04 9.927672070180e-03 2.134892342293e-03
418 3 7.827136899816e-03 4.010456897335e-03 1.143685611507e-03 1.016501913683e+01 -4.408736644697e-01 -9.078536306228e+00 -1.184876125652e+03 7.137868267391e+03 -2.303106334615e+03 1.250000000000e-03 2.045307717181e-05 -9.691156984011e-01 1.482209719099e+00 5.721706104448e+00
419 3 2.513338231262e-03 8.560298070758e-03 1.083255412419e-02 -1.340777279751e+01 -2.403440698201e+01 1.910863624029e+01 4.441223378257e+03 -1.081462386505e+04 1.954665423654e+03 1.250000000000e-03 2.045307717181e-05 1.340783835165e-02 2.403452449257e-02 -1.910872966745e-02
420 3 4.588192283352e-03 8.003396585873e-03 1.227938300481e-02 7.085198617408e+00 9.611708794714e-01 -3.484767705689e+00 -2.167667916807e+03 3.285517748325e+03 -2.037076831865e+03 1.250000000000e-03 2.045307717181e-05 -7.085233258812e-03 -9.611755788893e-04 3.484784743637e-03
421 3 6.109306273124e-03 1.207628794035e-02 5.179216319889e-03 -9.140198986186e+00 -1.208213933756e+01 -2.010884250848e+00 -2.940312176480e+03 -1.974722994515e+03 2.379991010852e+03 1.250000000000e-03 2.045307717181e-05 9.140243675030e-03 1.208219841033e-02 2.010894082591e-03
422 3 8.634018263699e-03 2.846730363758e-03 8.319667208382e-03 -1.344833173428e+01 4.800798811953e+00 -5.234645636797e+00 3.414956456337e+03 3.242063933062e+03 9.183351985502e+02 1.250000000000e-03 2.045307717181e-05 6.717686970374e-01 2.875709195415e+01 -2.205787189447e+01
423 3 1.333065773181e-02 1.256805141028e-02 1.238552752401e-02 1.511275567109e+00 -1.813258160956e+01 -6.583361346670e+00 1.044168790032e+03 8.292130953496e+03 -6.146066811134e+01 1.250000000000e-03 2.045307717181e-05 -1.511282956133e-03 1.813267026454e-02 6.583393534460e-03
424 3 2.652769102640e-03 8.094979293444e-03 6.934176531422e-03 -4.877372005582e+00 2.741581232542e+00 2.231964468876e+01 3.649116201621e+03 6.441182090027e+03 1.841337960194e+03 1.250000000000e-03 2.045307717181e-05 4.877395852341e-03 -2.741594636855e-03 -2.231975381539e-02
425 3 1.445455026658e-02 7.547203223676e-03 1.290355399449e-02 6.688531370793e+00 -6.755432884413e+00 -1.029604316451e+01 6.438601308961e+03 4.839734526817e+03 7.433037594498e+03 1.250000000000e-03 2.045307717181e-05 -6.688564072787e-03 6.755465913506e-03 1.029609350458e-02
426 3 1.279742819235e-02 5.802963810641e-03 3.071556513246e-03 -5.532196523576e+00 3.471076182763e+00 1.180082874447e+01 -5.422067236567e+03 -9.283504912943e+03 5.143369775376e+03 1.250000000000e-03 2.045307717181e-05 5.532223571944e-03 -3.471093153770e-03 -1.180088644183e-02
427 3 1.402552434221e-02 1.269779717466e-02 3.607814026345e-03 -1.608429291908e+01 1.275533956397e+00 -3.175660017218e+00 -7.123977786607e+03 1.945662049354e+03 -2.490786130359e+03 1.250000000000e-03 2.045307717181e-05 1.608437155943e-02 -1.275540192819e-03 3.175675543857e-03
428 3 1.302937071444e-02 1.432967202547e-02 5.754301360250e-03 1.787535657003e+00 8.022937931592e+00 1.015647211067e+01 -7.308701977779e+02 3.513369827409e+03 5.560580768558e+03 1.250000000000e-03 2.045307717181e-05 -1.787544396736e-03 -8.022977157851e-03 -1.015652176834e-02
429 3 6.792524040154e-04 1.502438020677e-02 1.898973708018e-03 -8.066494742050e+00 1.537857267826e+01 3.732021971414e+00 -5.819068172393e+03 -4.048442887216e+03 1.201758252967e+03 1.250000000000e-03 2.045307717181e-05 8.066534181270e-03 -1.537864786816e-02 -3.732040218254e-03
430 3 8.219603068608e-03 1.500569369980e-02 2.842538979406e-03 -3.135227712854e+00 -1.130496875461e+01 -9.291549030763e+00 -4.948268578604e+03 5.937103645872e+03 -3.907161049365e+03 1.250000000000e-03 2.045307717181e-05 3.135243041809e-03 1.130502402758e-02 9.291594459597e-03
431 3 9.103788352690e-03 8.390199989419e-04 1.428965917593e-02 -1.931121940069e+01 5.848322023929e+00 -2.187857337575e+00 2.870647641117e+03 1.967851149523e+03 8.985400651713e+03 1.250000000000e-03 2.045307717181e-05 8.578911397828e-01 -1.181183190349e-01 -1.689935851228e+00
432 3 1.221480473190e-02 1.207791010499e-02 5.111118757089e-03 -1.276231495473e+01 1.344007188142e+01 -6.824016918105e-01 2.934069669917e+03 -5.206999750882e+03 -7.472180940203e+03 1.250000000000e-03 2.045307717181e-05 1.276237735305e-02 -1.344013759348e-02 6.824050282523e-04
433 3 1.193958738512e-02 1.194447725256e-02 1.158068440989e-02 -1.631573419520e+01 3.138190953637e+00 2.127601291997e+00 -6.354457364591e+03 2.372185822629e+03 -8.376487831335e+03 1.250000000000e-03 2.045307717181e-05 1.631581396713e-02 -3.138206297080e-03 -2.127611694401e-03
434 3 4.182967702892e-03 6.166470751559e-03 4.483512577673e-03 1.337473610828e+01 1.269135735230e+01 -3.645669567760e+00 -7.273932064681e+03 4.031375290122e+03 -8.495572408176e+03 1.250000000000e-03 2.045307717181e-05 -1.337480150089e-02 -1.269141940369e-02 3.645687392400e-03
435 3 8.280677323131e-03 1.430166012659e-02 8.723462419091e-03 -1.027319380355e+01 1.150022847679e+01 7.477683194805e+00 3.143496052778e+03 -1.244378061227e+04 -2.574165647561e+03 1.250000000000e-03 2.045307717181e-05 1.027324403191e-02 -1.150028470444e-02 -7.477719755170e-03
436 3 1.149565718817e-02 1.165962876874e-02 6.380648545074e-03 8.593622508444e+00 -4.459150451370e+00 9.545909924985e-01 -8.084975823714e+02 7.729625090194e+03 -1.353161149491e+03 1.250000000000e-03 2.045307717181e-05 -8.593664524931e-03 4.459172253333e-03 -9.545956597457e-04
437 3 6.982878773517e-03 8.201249332262e-04 3.298749793292e-03 -1.008927241166e+01 1.890765868202e+00 5.594035837169e+00 1.445069325192e+03 5.438030716841e+03 1.716057286387e+03 1.250000000000e-03 2.045307717181e-05 1.008932174078e-02 -1.890775112655e-03 -5.594063187886e-03
438 3 1.005504915327e-02 1.136699124027e-02 9.676407751263e-03 -3.486805881271e+00 -2.607061974209e+00 1.403128482662e+00 -9.783341258867e+03 -5.758114508990e+03 -4.049368989150e+03 1.250000000000e-03 2.045307717181e-05 3.486822929184e-03 2.607074720822e-03 -1.403135342928e-03
439 3 2.481474107996e-03 2.028212461413e-03 8.862365472745e-03 1.479330859973e+01 -1.059664481028e+01 1.839242399187e+01 -3.764655378739e+03 1.099535886296e+04 5.998514571611e+03 1.250000000000e-03 2.045307717181e-05 -1.479338092812e-02 1.059669662007e-02 -1.839251391728e-02
440 3 9.472389470833e-03 3.024346420682e-03 2.735827663334e-03 -7.112432095633e+00 -4.236420255408e-01 9.466650983461e+00 -4.765518114950e+03 -2.975990392808e+03 -4.169241261527e+03 1.250000000000e-03 2.045307717181e-05 7.112466870190e-03 4.236440968384e-04 -9.466697268415e-03
441 3 2.465747376282e-03 4.248666863161e-03 1.721600255216e-03 1.120405794982e+01 1.392780292458e-03 -1.191545344359e-02 -4.281795753394e+03 -8.453859085047e+02 1.239243200658e+03 1.250000000000e-03 2.045307717181e-05 -1.120411272941e-02 -1.392787102129e-06 1.191551170139e-05
442 3 6.077164435236e-03 9.924125754881e-04 9.498627248693e-03 6.881192830247e-01 -1.054892825096e+01 -1.120547913525e+01 -1.086327620722e+04 2.929914653637e+03 6.978906635871e+03 1.250000000000e-03 2.045307717181e-05 -6.881226474214e-04 1.054897982745e-02 1.120553392179e-02
443 3 3.301710962091e-03 1.060341816943e-02 1.051847032090e-02 2.219809972975e-01 1.426088219904e+01 1.372098967086e+01 -3.398787079301e+03 4.525869329177e+03 3.822525857466e+03 1.250000000000e-03 2.045307717181e-05 -2.219820826211e-04 -1.426095192426e-02 -1.372105675639e-02
444 3 5.530999157887e-03 1.338454144160e-02 2.817791162947e-03 1.703589264778e+01 -4.477741781429e-01 2.209310884236e+00 -6.287007437614e+03 8.325800272663e+03 -7.270916416344e+02 1.250000000000e-03 2.045307717181e-05 -1.703597594076e-02 4.477763674290e-04 -2.209321686140e-03
445 3 1.053106572610e-02 1.075335923776e-02 9.165279710979e-03 -1.085645562508e+00 -3.010128292338e+00 -2.044162853288e+01 -1.952282360107e+03 -4.624091331850e+03 6.534796363467e+03 1.250000000000e-03 2.045307717181e-05 1.085650870515e-03 3.010143009649e-03 2.044172847740e-02
446 3 9.886407224024e-03 1.524547876716e-02 9.715451603667e-03 -6.910905493891e-02 -1.239942098653e+00 2.005306275453e+01 -1.038823973458e+03 7.245344885946e+03 -1.988931866157e+03 1.250000000000e-03 2.045307717181e-05 6.910939283130e-05 1.239948161057e-03 -2.005316079924e-02
447 3 9.937895039833e-03 1.417343447941e-02 1.596376451115e-03 1.901912039369e+01 2.511660871419e+00 7.611521717850e-01 4.821804277426e+03 5.623305208489e+03 -8.436160164764e+03 1.250000000000e-03 2.045307717181e-05 -1.901921338319e-02 -2.511673151591e-03 -7.611558932587e-04
448 3 2.465746917745e-03 4.979776910520e-03 7.574309477650e-03 1.253692191129e+01 -8.885802279301e+00 -1.983145627608e+01 1.123767290216e+04 7.102300319707e+03 -1.321071171094e+03 1.250000000000e-03 2.045307717181e-05 -1.253698320761e-02 8.885845724332e-03 1.983155323730e-02
449 3 1.802138412703e-03 1.340717150170e-02 1.359319673735e-03 -4.896909088930e+00 4.227030730226e-01 2.926105119808e+00 -3.436927017628e+02 -3.937632558416e+03 1.610350564270e+03 1.250000000000e-03 2.045307717181e-05 4.896933031210e-03 -4.227051397295e-04 -2.926119426307e-03
450 3 1.375282288548e-02 1.442129062777e-02 3.591550367030e-03 -6.561281986850e+00 1.859934048322e+01 -6.863019893495e+00 6.692990887935e+03 2.697091787234e+03 -5.302201088485e+03 1.250000000000e-03 2.045307717181e-05 6.561314066688e-03 -1.859943142030e-02 6.863053448609e-03
451 3 9.471850773496e-03 3.236241043291e-03 6.828860069766e-03 -1.728023374879e+00 4.736325539517e+00 -4.179252809589e+00 3.948336387347e+03 -1.118654844452e+03 -7.399735022086e+02 1.250000000000e-03 2.045307717181e-05 1.728031823641e-03 -4.736348696662e-03 4.179273243059e-03
452 3 9.321919828919e-03 6.831583113161e-03 3.842701872735e-03 -8.552689810544e+00 2.186599949689e+01 4.607055321575e+00 1.120945523266e+03 -5.798039241652e+03 -2.504689604543e+03 1.250000000000e-03 2.045307717181e-05 8.552731626900e-03 -2.186610640553e-02 -4.607077846683e-03
453 3 5.397310984091e-03 5.308378008166e-03 1.335888994095e-02 -3.479485639162e+00 4.943564274227e+00 4.249846980940e+00 3.185100883864e+03 -5.402434305908e+03 4.760566985371e+02 1.250000000000e-03 2.045307717181e-05 3.479502651285e-03 -4.943588444617e-03 -4.249867759562e-03
454 3 1.521201607987e-02 1.201314282818e-02 9.967153826484e-03 1.423053264827e+01 2.056757565369e+01 -8.822613150697e+00 -1.192376249325e+03 -3.028122351151e+03 -2.384222507992e+03 1.250000000000e-03 2.045307717181e-05 -1.423060222509e-02 -2.056767621399e-02 8.822656286780e-03
455 3 1.145576950500e-03 1.452261351708e-02 8.444517882689e-03 -3.701712142895e-01 -1.533592377572e+01 -7.279261463599e+00 -2.879470529034e+03 8.059599017535e+03 -2.957162502719e+03 1.250000000000e-03 2.045307717181e-05 3.701730241542e-04 1.533599875710e-02 7.279297053828e-03
456 3 7.342499629181e-03 9.215314275927e-03 5.114418721798e-03 -1.504150814446e+01 3.274929236976e+00 7.824316608083e-01 8.135938832662e+02 3.012339023051e+02 1.786499915492e+03 1.250000000000e-03 2.045307717181e-05 1.504158168636e-02 -3.274945248969e-03 -7.824354863230e-04
457 3 6.916578288895e-04 6.393870634917e-04 4.272038641907e-03 2.463115874535e+01 2.838190589398e+01 1.998769131517e+00 -6.004868201660e+02 -6.436321716928e+03 -4.165934523950e+03 1.250000000000e-03 2.045307717181e-05 -2.463127917358e-02 -2.838204466061e-02 -1.998778904027e-03
458 3 1.366385733008e-02 9.858031427089e-03 1.402933466640e-02 -7.644795922888e-02 -1.145242883949e+01 -4.688953623707e-01 -1.560891934463e+04 -8.125331452925e+03 6.709490255837e+03 1.250000000000e-03 2.045307717181e-05 7.644833300312e-05 1.145248483343e-02 4.688976549238e-04
459 3 6.785247041026e-03 4.586933642402e-03 1.426006571069e-02 -5.400461270201e+00 9.963730177451e-01 -2.934596673185e+00 1.490379520711e+03 1.946444943879e+03 -4.856430233221e+03 1.250000000000e-03 2.045307717181e-05 3.183883643443e-01 9.261856462599e-02 -6.504417534256e-01
460 3 8.207052995992e-03 1.121312462489e-02 3.272303034095e-03 1.871021739924e+01 -2.558589981535e+01 1.501537877536e+01 -4.648151464551e+03 8.342475883081e+01 3.124679015529e+03 1.250000000000e-03 2.045307717181e-05 4.752880405383e-01 -3.126646044357e+01 1.168701411583e+01
461 3 1.450223372460e-03 4.512992031694e-04 1.174462869352e-02 -5.616594946916e+00 -8.868366854082e+00 -1.986695331777e+01 3.626511143760e+03 5.107514404941e+03 4.646362231408e+03 1.250000000000e-03 2.045307717181e-05 5.616622407930e-03 8.868410213867e-03 1.986705045254e-02
462 3 5.729336213313e-03 1.382430685229e-04 1.426657061002e-02 1.873572546892e+00 2.121651548354e-01 1.631787413685e+01 -2.814331030890e+03 -2.711141988302e+03 -2.401951732674e+03 1.250000000000e-03 2.045307717181e-05 1.150056098002e+00 -2.836004674662e+00 -1.065256448311e+01
463 3 1.455394575437e-02 5.276807718292e-03 2.641519910041e-03 5.111503889702e+00 2.009941688377e+00 9.288709504752e+00 3.544235068821e+03 3.514352474458e+03 2.116386085165e+03 1.250000000000e-03 2.045307717181e-05 -5.111528881193e-03 -2.009951515512e-03 -9.288754919702e-03
464 3 1.358906194125e-02 3.656773267279e-04 2.729474364570e-03 4.167761031157e+00 -5.978523137389e+00 -7.549231047624e+00 7.219453778103e+03 -2.245322815427e+03 -3.282462764343e+03 1.250000000000e-03 2.045307717181e-05 -4.167781408440e-03 5.978552367966e-03 7.549267957806e-03
465 3 3.322980830861e-03 1.417483236821e-03 6.419401471742e-03 -5.033017892946e+00 5.380701439190e+00 -3.734194620893e+00 6.501636256562e+03 -4.784914380865e+03 3.711896220524e+03 1.250000000000e-03 2.045307717181e-05 5.033042500698e-03 -5.380727746858e-03 3.734212878355e-03
466 3 8.623357325682e-03 3.188327048271e-03 1.394146006004e-02 -3.252020996548e-01 6.763216800670e+00 -3.967143289334e+00 8.660234163242e+03 -2.111310146938e+02 6.621968823515e+03 1.250000000000e-03 2.045307717181e-05 3.252036896536e-04 -6.763249867821e-03 3.967162685744e-03
467 3 2.651495391175e-03 1.424249529057e-02 1.382345415959e-02 8.608869652735e+00 -2.013603775867e+01 1.025935572573e+01 1.963342223208e+03 1.708668833806e+03 1.267410744406e+03 1.250000000000e-03 2.045307717181e-05 -8.608911743769e-03 2.013613620907e-02 -1.025940588642e-02
468 3 4.546516041019e-03 3.589526722943e-03 9.735214010710e-03 -2.159067111742e+01 -1.576092541267e+01 -9.039242027036e+00 6.308536059549e+03 -4.376439775981e+02 -5.135070918362e+03 1.250000000000e-03 2.045307717181e-05 2.159077667990e-02 1.576100247199e-02 9.039286222275e-03
469 3 1.186564391895e-02 3.162788530962e-03 1.355837363803e-02 8.881950942163e-01 -1.580365804192e+01 -5.503097701999e+00 -1.008999916735e+03 -3.114506669699e+03 -1.806170481362e+03 1.250000000000e-03 2.045307717181e-05 -8.881994368364e-04 1.580373531017e-02 5.503124608095e-03
470 3 6.485662673726e-03 8.644122912483e-03 9.984547602590e-03 1.988055086168e+01 -2.918690512080e+01 -7.387376376681e+00 7.102684466956e+03 -2.999415098132e+03 -9.653688215813e+03 1.250000000000e-03 2.045307717181e-05 -1.988064806294e-02 2.918704782327e-02 7.387412495513e-03
471 3 1.346598615591e-02 7.775050670767e-03 1.518328255401e-03 5.989652467346e+00 -8.991180463126e+00 4.051633544202e+00 6.723299690204e+03 3.963542498044e+03 2.463575930653e+03 1.250000000000e-03 2.045307717181e-05 -5.989681752336e-03 8.991224423379e-03 -4.051653353707e-03
472 3 5.872853333022e-04 1.421930902003e-02 8.679516699917e-04 9.482186538242e+00 4.909048715394e+00 1.411632109622e+00 -1.687262196085e+03 -1.190695570458e+03 3.781266104778e+03 1.250000000000e-03 2.045307717181e-05 -4.054282269053e+00 -1.036239389259e+00 8.781227363574e+00
473 3 1.225429469868e-02 1.375742274406e-02 6.763966113303e-03 -1.251400506135e+01 -8.491472356837e+00 3.305733329612e+00 -9.537340566646e+02 -3.638366188041e+03 -2.059391171576e+03 1.250000000000e-03 2.045307717181e-05 1.251406624562e-02 8.491513873885e-03 -3.305749492214e-03
474 3 8.341641072111e-03 1.081287756605e-03 1.093354841366e-03 -1.087344303833e+01 -1.541638572685e+01 -1.294002045534e+01 -5.007829705748e+02 -9.512273601075e+02 -1.747975152717e+03 1.250000000000e-03 2.045307717181e-05 -1.496692103332e+00 -2.480984946482e+00 9.296411286374e+00
475 3 4.786179155167e-03 1.279383655354e-02 1.038492933915e-02 -1.114368197129e+01 -1.168764710152e-01 -3.961546413796e+00 -1.986108275250e+03 -4.470565602844e+03 -5.685978146150e+03 1.250000000000e-03 2.045307717181e-05 1.114373645569e-02 1.168770424551e-04 3.961565782841e-03
476 3 7.876068856050e-03 1.244850076170e-02 5.694306294480e-03 -1.604612969154e+01 -8.276231480251e+00 -4.442804182491e+00 -4.900764846814e+03 8.936172774491e+02 -2.982748411449e+03 1.250000000000e-03 2.045307717181e-05 1.604620814531e-02 8.276271944930e-03 4.442825904532e-03
477 3 8.960146729778e-03 5.242634708250e-03 8.911455306918e-03 -1.988601445538e+01 -8.345413578160e+00 1.108382025264e+01 -2.186073280143e+03 5.944795757401e+03 -1.284441135613e+03 1.250000000000e-03 2.045307717181e-05 1.988611168335e-02 8.345454381088e-03 -1.108387444436e-02
478 3 3.416401957236e-03 7.975658051304e-03 2.772085522199e-03 -1.364130612614e+00 2.282005286013e+01 -5.695895525659e+00 -1.290124363843e+01 3.027543012737e+03 -6.719858272804e+03 1.250000000000e-03 2.045307717181e-05 1.364137282208e-03 -2.282016443338e-02 5.695923374395e-03
479 3 5.750636117165e-03 8.568328737350e-03 3.882234894384e-03 8.269113783094e+00 7.855246669730e+00 1.937247295784e+01 4.233531108231e+03 6.050717968757e+02 4.462576140107e+02 1.250000000000e-03 2.045307717181e-05 -8.269154212972e-03 -7.855285076103e-03 -1.937256767497e-02
480 3 1.213554145808e-02 6.485277438810e-03 1.074773639932e-02 -4.570126625448e+00 -1.801423160743e+01 -3.438234872940e+00 -1.775271672893e+03 3.990162251203e+03 -6.882364650349e+03 1.250000000000e-03 2.045307717181e-05 4.570148970003e-03 1.801431968376e-02 3.438251683377e-03
481 3 1.220219902893e-02 9.169300864306e-03 7.605051506268e-03 1.950566666077e+01 -1.449635031779e+01 -6.473915929525e-01 9.848739620041e+02 -3.907586423041e+03 -6.817567461482e+02 1.250000000000e-03 2.045307717181e-05 -1.950576202912e-02 1.449642119427e-02 6.473947582207e-04
482 3 1.497667426881e-02 1.349425959255e-02 5.254133199422e-03 1.799132946975e+00 -1.318585128268e+00 4.426786655187e+00 4.146988658758e+02 -1.236092308177e+04 2.890798808056e+01 1.250000000000e-03 2.045307717181e-05 -1.799141743410e-03 1.318591575179e-03 -4.426808298915e-03
483 3 1.216712211297e-02 8.108704973845e-04 1.121056953630e-03 1.431769243538e-01 -2.547789530905e+01 -1.861598901976e+00 1.297237769922e+03 8.409172640317e+03 6.903537776135e+03 1.250000000000e-03 2.045307717181e-05 5.637498916973e-01 1.320010926452e+00 2.825894780497e+00
484 3 4.971233328584e-03 3.990154746963e-03 4.641543953955e-03 4.612727937037e+00 -1.870562603907e+01 2.058585848050e+01 3.551032133011e+03 -5.558060522095e+03 -9.238173287756e+02 1.250000000000e-03 2.045307717181e-05 -3.153158411117e+01 8.945618836705e+00 1.917824456740e+01
485 3 5.775157189085e-03 7.295233626446e-03 6.195573628169e-03 8.096714335179e+00 1.021710558903e+01 -1.020329269655e+01 4.164921365980e+03 3.332231435402e+03 3.730603847465e+03 1.250000000000e-03 2.045307717181e-05 -8.096753922151e-03 -1.021715554315e-02 1.020334258314e-02
486 3 9.690841918536e-03 9.109978310135e-03 1.185143581109e-03 -2.239841935642e+01 -6.962730846702e+00 1.107726564003e+00 5.920935398568e+03 -1.038200812678e+04 -2.564419018551e+03 1.250000000000e-03 2.045307717181e-05 1.299560731853e-01 1.824975211007e-03 2.142526378405e-01
487 3 1.196115958484e-02 9.436546933901e-03 5.653858338347e-03 -2.620520251721e+00 -1.888873157815e+00 7.711269292593e+00 6.282734938798e+03 -3.390767706069e+03 -2.639049217037e+03 1.250000000000e-03 2.045307717181e-05 2.620533064136e-03 1.888882393014e-03 -7.711306995023e-03
488 3 5.873618591933e-03 8.500667455483e-03 7.078825394088e-03 -1.809892843615e+01 -1.196976928021e+01 6.029079239795e+00 -9.045620470595e+02 2.766541324412e+03 -5.073503512068e+02 1.250000000000e-03 2.045307717181e-05 1.809901692658e-02 1.196982780357e-02 -6.029108717554e-03
489 3 1.505686290318e-02 9.739227495592e-03 8.739069679790e-03 9.859873307190e+00 1.125564909160e+01 1.480305594163e+01 3.706263320827e+03 9.119281305148e+03 -1.078294480480e+03 1.250000000000e-03 2.045307717181e-05 -9.859921514711e-03 -1.125570412344e-02 -1.480312831768e-02
490 3 6.002002218005e-03 6.636018810784e-03 2.434495156890e-03 4.462391192275e+00 -7.329140566278e+00 -1.333602946287e+00 -6.054761160567e+03 2.347826880155e+03 -3.398033367620e+03 1.250000000000e-03 2.045307717181e-05 -4.462413010082e-03 7.329176400379e-03 1.333609466623e-03
491 3 1.123791097805e-02 1.392559494646e-02 1.026583462638e-02 1.224190585620e+01 -3.431320715456e-01 3.341031093916e-01 1.309390304132e+03 3.956900417848e+03 2.545451221413e+03 1.250000000000e-03 2.045307717181e-05 -1.224196571011e-02 3.431337492088e-04 -3.341047429098e-04
492 3 4.248631290378e-04 5.365489785667e-03 6.771754224068e-03 1.106063619542e+01 3.113022028317e+00 8.612184304530e+00 5.877297029222e+03 4.587362343520e+03 -6.205765309192e+02 1.250000000000e-03 2.045307717181e-05 -1.106069027379e-02 -3.113037248703e-03 -8.612226411771e-03
493 3 1.462038659010e-02 1.027278146094e-03 1.071858912603e-02 6.638881073605e+00 -1.136412040514e+01 -5.751923949309e+00 2.828361683154e+03 4.480381721593e+03 3.391566911209e+02 1.250000000000e-03 2.045307717181e-05 -6.638913532846e-03 1.136417596732e-02 5.751952071982e-03
494 3 8.317526849343e-03 5.244754462938e-03 1.392098925336e-02 1.174458651263e+01 1.051780886416e+00 -4.125635391113e+00 3.083437734844e+02 -6.077977045523e+03 1.938079657825e+03 1.250000000000e-03 2.045307717181e-05 -1.174464393501e-02 -1.051786028850e-03 4.125655562433e-03
495 3 4.729572499050e-03 4.497600719410e-03 9.159391040950e-03 -6.877345230706e+00 1.263577848221e+01 -2.585316995355e+00 -4.259420017534e+03 -2.642368929943e+03 -1.631596890325e+03 1.250000000000e-03 2.045307717181e-05 6.877378855861e-03 -1.263584026186e-02 2.585329635652e-03
496 3 2.322093691471e-03 4.782851756584e-03 9.584873236802e-03 -5.883524509620e+00 2.658748267132e+01 7.423478194151e+00 8.432093746371e+02 3.135277889615e+03 3.184809432830e+03 1.250000000000e-03 2.045307717181e-05 5.883553275723e-03 -2.658761266454e-02 -7.423514489494e-03
497 3 1.050600809966e-02 4.543821759572e-03 8.145622839822e-03 1.948684108288e+00 6.059249517000e+00 -1.712125124520e+01 3.836575236848e+03 -6.959640606073e+01 3.112752481605e+03 1.250000000000e-03 2.045307717181e-05 -1.948693635919e-03 -6.059279142269e-03 1.712133495551e-02
498 3 6.185834519739e-03 5.916798062208e-04 1.342697500107e-02 1.174132080573e+01 7.644773311495e+00 -1.140899662233e+01 -1.408650785556e+01 5.206189025797e+03 1.669055432408e+03 1.250000000000e-03 2.045307717181e-05 4.337667639564e+01 -3.549956131061e+01 -8.000083909372e+00
499 3 1.438564750732e-02 8.382250766624e-03 4.497295964421e-03 1.358637738270e+01 7.161747137391e+00 3.447997208809e+00 3.685109459127e+03 3.760349877699e+03 -3.480626424925e+03 1.250000000000e-03 2.045307717181e-05 -1.358644381009e-02 -7.161782153062e-03 -3.448014066977e-03
500 3 1.116192223439e-02 1.131740540412e-02 1.315196693055e-02 9.367163226444e+00 -6.576153862699e+00 8.022370378529e+00 -3.916763843055e+03 -5.951652999679e+02 5.482825287029e+03 1.250000000000e-03 2.045307717181e-05 -9.367209024976e-03 6.576186015249e-03 -8.022409602014e-03
