ITEM: TIMESTEP
150000
ITEM: NUMBER OF ATOMS
500
ITEM: BOX BOUNDS pp pp ff
0.0000000000000000e+00 1.5370634520482899e-02
0.0000000000000000e+00 1.5370634520482899e-02
0.0000000000000000e+00 1.5370634520482899e-02
ITEM: ATOMS id type x y z vx vy vz omegax omegay omegaz radius mass fx fy fz
1 1 6.428084466892e-03 8.507850167493e-03 1.155684960164e-02 -2.007786904245e-07 1.064292037771e-07 1.973737632015e-07 7.222687538278e-05 1.063742545230e-04 -1.087497909536e-04 7.500000000000e-04 4.417864669111e-06 8.618196878168e-11 -4.946448614244e-11 -7.491370096829e-11
2 1 1.209934589670e-02 8.654473626733e-03 1.273930191249e-02 -4.582947622009e-08 1.870732134973e-07 -4.683047140910e-08 6.486564073382e-05 1.363415355600e-04 7.260235364863e-06 7.500000000000e-04 4.417864669111e-06 8.033845872633e-12 -9.164300972995e-11 1.436154223242e-11
3 1 3.804598446221e-03 1.070011402501e-02 2.563779376236e-03 1.088083060315e-07 2.439100566551e-07 5.481859268920e-08 -1.578230803370e-04 2.969021762109e-04 -3.298123783139e-04 7.500000000000e-04 4.417864669111e-06 -4.235008832805e-11 -9.267589151081e-11 -1.959121856612e-11
4 1 8.828119060791e-04 6.676972045530e-03 4.118367608292e-03 1.601874812235e-35 -1.451596817526e-35 -1.941568176526e-35 2.335187973432e+02 -2.891083074143e+01 -1.935504208775e+02 7.500000000000e-04 4.417864669111e-06 -1.605508941076e-36 1.454890014860e-36 1.945972958257e-36
5 1 1.434507393640e-02 9.476695330558e-03 2.752555217963e-03 5.400521178486e-07 1.141922212289e-07 1.166796380456e-06 -2.714088960868e-03 -2.057913229796e-05 1.371786896322e-03 7.500000000000e-04 4.417864669111e-06 -2.123834654913e-10 3.744643125335e-11 -5.777678282928e-10
6 1 1.519439652914e-02 2.081649537899e-03 1.462063596108e-02 -7.328043385975e-07 8.062390011822e-08 -8.946767877975e-08 -1.281056170014e+03 1.184041689158e+03 1.295218205878e+03 7.500000000000e-04 4.417864669111e-06 3.029435581190e-10 -3.935399179440e-11 3.673371232452e-11
7 1 7.735997758263e-03 1.373456249273e-02 6.832109803373e-03 -2.907938340588e-07 3.655375719230e-07 8.724581433561e-08 -4.881137041373e-04 -8.963242711533e-04 3.514789297962e-04 7.500000000000e-04 4.417864669111e-06 2.143728753939e-10 -1.643427818502e-10 -1.398091987625e-11
8 1 6.514155342492e-03 6.678347537905e-03 5.818664956400e-03 -2.142062684917e-09 1.034443185578e-07 8.223608683165e-08 -1.808216082046e-05 1.375689744912e-05 -1.347333540907e-04 7.500000000000e-04 4.417864669111e-06 4.579319386219e-11 -5.614758895080e-11 -5.813350509654e-11
9 1 3.982578085777e-03 2.782947616001e-03 2.343253204430e-03 1.251159133903e-07 3.875047852448e-07 -1.132814103371e-07 -2.148901131974e-05 6.426063242148e-06 4.176019882127e-05 7.500000000000e-04 4.417864669111e-06 5.288284665438e-12 -1.568969534117e-10 2.046120407150e-11
10 1 6.755073424625e-03 1.474492064287e-02 3.340011811433e-03 3.007668506816e-07 2.544845149508e-07 -1.407773446234e-07 2.122155162604e-04 5.183101828390e-05 -1.061657852042e-04 7.500000000000e-04 4.417864669111e-06 -1.168645714506e-10 -1.089616302240e-10 6.146372165067e-11
11 1 8.244704650877e-03 3.080375161119e-03 1.024322794938e-02 -6.802289117893e-08 1.411670847304e-07 -1.211972343888e-07 1.591700565316e-05 -1.740377778288e-04 -1.608469368769e-04 7.500000000000e-04 4.417864669111e-06 4.134671275510e-11 -7.315059018808e-11 6.267426714736e-11
12 1 4.719724160705e-03 8.820487024521e-03 6.901363413531e-04 7.538950216966e-08 9.325439311179e-08 7.132164896668e-08 -9.502710995177e-05 4.233208359112e-05 4.851563764286e-05 7.500000000000e-04 4.417864669111e-06 -2.034857228217e-11 -4.257976031905e-11 -3.526783165952e-11
13 1 8.883192382332e-03 8.400398137934e-03 1.333201829684e-02 -3.161226593485e-08 7.795728533105e-08 1.056319012429e-07 -1.166623707602e-05 -6.039754385569e-05 -2.090385114726e-05 7.500000000000e-04 4.417864669111e-06 -6.951373765090e-12 -4.620061863069e-11 -4.753757580728e-11
14 1 1.463807401091e-02 6.325931848936e-03 6.711685150917e-04 -1.886144885405e-07 1.099055246674e-07 -6.932716601251e-10 -1.422746033195e-04 -2.130619033149e-04 7.790019431057e-04 7.500000000000e-04 4.417864669111e-06 7.706710998942e-11 -5.109543097962e-11 4.519509739460e-13
15 1 3.438291545874e-03 3.935185322940e-04 1.143776919299e-03 1.551044519032e-07 2.243535174990e-07 -4.896097722318e-08 1.850183213491e-04 -9.758465358687e-05 2.685433413421e-04 7.500000000000e-04 4.417864669111e-06 -4.207259103601e-11 -9.889486440515e-11 2.020356587561e-11
16 1 1.381190186876e-02 6.181134959484e-03 2.125783505926e-03 3.995007662446e-08 7.258866011981e-07 9.705319727777e-08 -4.630003016813e-04 -1.605488125651e-04 2.884021291885e-04 7.500000000000e-04 4.417864669111e-06 -3.451013218315e-11 -3.098144305273e-10 -2.000900169523e-11
17 1 1.144870516419e-03 4.911320608643e-03 4.965723080840e-03 -3.369762194957e-07 5.694037581713e-07 -7.682028419048e-08 -3.716066868049e-05 -4.426243717084e-04 4.229468942462e-04 7.500000000000e-04 4.417864669111e-06 2.569355556976e-10 -3.635045377992e-10 3.397747506396e-11
18 1 4.747397974875e-03 7.187422914676e-03 2.630529345047e-03 5.320652542070e-08 2.644832692337e-08 -1.286237312590e-08 -1.226101201483e-04 1.346335662203e-04 5.434322230183e-05 7.500000000000e-04 4.417864669111e-06 -1.522964636691e-11 -1.593286506965e-11 -1.316107682255e-11
19 1 9.068043494865e-03 1.094635232461e-02 1.425834333049e-02 -8.903126670351e-08 1.386996141495e-07 1.221098814618e-07 1.806265058647e-04 -2.970703375842e-04 -1.228334945608e-05 7.500000000000e-04 4.417864669111e-06 2.577253564086e-11 -5.759209109245e-11 -4.300753864892e-11
20 1 9.314704445559e-03 6.433341891228e-03 1.462063539986e-02 -3.245960662137e-07 3.516037024026e-07 -5.332968003618e-08 4.762489465476e-04 4.399552199661e-04 -2.420082025745e-04 7.500000000000e-04 4.417864669111e-06 1.435689657479e-10 -1.572435614160e-10 2.058739172591e-11
21 1 5.384134170768e-03 1.458834005880e-02 3.238703776761e-03 2.898596487467e-07 2.902744804632e-07 -6.137556043826e-08 9.471906481543e-05 1.761820753450e-05 6.912252097804e-05 7.500000000000e-04 4.417864669111e-06 -6.002543165378e-11 -1.468817349420e-10 4.840651681316e-11
22 1 1.959005267494e-05 7.959202748309e-03 1.021278254793e-02 2.223608262433e-08 5.287732235254e-07 -3.477580682723e-07 -3.502811371450e-04 3.277183520809e-04 -2.394759763839e-04 7.500000000000e-04 4.417864669111e-06 -7.088088124270e-12 -2.160753641286e-10 5.659594711556e-11
23 1 3.048707814159e-03 5.774461104351e-03 1.004539695785e-02 -1.467227093997e-07 3.671757262423e-07 -4.478183524574e-08 -2.007398542220e-05 -6.910093678604e-05 1.895961990428e-04 7.500000000000e-04 4.417864669111e-06 8.480801645652e-11 -1.517850723381e-10 4.078329899129e-11
24 1 1.173945479745e-02 2.563143139616e-03 1.259827625888e-02 -6.540876741750e-08 2.481346758676e-07 -3.092532296389e-08 -2.573401010415e-05 -1.599655574004e-04 8.538851812018e-05 7.500000000000e-04 4.417864669111e-06 4.964252939730e-11 -1.110941659088e-10 9.135547402964e-12
25 1 1.164549264224e-02 6.241893059702e-03 8.489890062153e-03 -6.437348233815e-08 4.297359989051e-07 1.528372520587e-07 7.344249186823e-04 -8.703301447642e-04 4.617710721322e-04 7.500000000000e-04 4.417864669111e-06 -5.929736194967e-11 -1.817375599768e-10 -3.961157534555e-12
26 1 1.252260749007e-02 6.134707294464e-03 7.363021262781e-03 1.817326230801e-06 1.579351053019e-06 1.060905563534e-06 2.749506857181e-03 -1.493136405464e-03 -2.372220749527e-03 7.500000000000e-04 4.417864669111e-06 -7.585708738416e-10 -6.539036347712e-10 -3.625002880062e-10
27 1 5.192714121412e-03 2.791483547891e-03 1.278973161574e-02 -1.209155201766e-07 1.659324103374e-07 -8.811905483451e-08 -1.132345451344e-04 -1.020175174216e-04 9.802182653016e-05 7.500000000000e-04 4.417864669111e-06 5.624320629920e-11 -6.134520435036e-11 3.748347146257e-11
28 1 7.121059236547e-03 7.785735150978e-03 2.120487494128e-03 5.956616644005e-08 6.539220595906e-08 -4.331962116604e-08 7.168062534252e-05 -1.986727166970e-04 2.747004628049e-04 7.500000000000e-04 4.417864669111e-06 -2.184189629721e-11 -3.508840606556e-11 3.271081856665e-11
29 1 1.472168963550e-02 3.146707933627e-03 6.568648939744e-04 -8.986682874765e-08 1.568470225366e-08 -1.148309898468e-09 5.170599472670e-05 -1.302314202068e-04 2.220598534156e-04 7.500000000000e-04 4.417864669111e-06 1.679048548300e-12 -3.920237557536e-11 -1.518936321117e-12
30 1 6.099596505204e-03 2.686298996859e-03 7.638896701513e-03 -1.370122348690e-07 3.448773131593e-07 -1.359800592235e-08 -3.567079815317e-04 -1.607272438861e-04 -4.785861064615e-04 7.500000000000e-04 4.417864669111e-06 8.945620075586e-11 -1.565738710603e-10 1.240959578548e-11
31 1 6.872666340590e-03 6.863655078922e-03 1.184136022473e-02 -1.060970698397e-07 1.685122033812e-07 9.948772820888e-08 3.393711378984e-04 2.615550870102e-04 1.357137921277e-04 7.500000000000e-04 4.417864669111e-06 4.593284906710e-11 -8.418403484717e-11 -5.128422433889e-11
32 1 1.044962253696e-03 6.103358988219e-03 1.323618224063e-02 -3.983024414332e-08 3.459798461800e-07 -1.808077018866e-07 -1.187100592249e-04 3.765707095315e-04 1.428233539039e-04 7.500000000000e-04 4.417864669111e-06 2.330860562708e-11 -1.862046774159e-10 3.409427039028e-11
33 1 8.721678467924e-03 2.458405813548e-04 9.571635680786e-03 -4.484622790962e-08 3.759170748217e-07 9.919431904593e-08 2.237219385500e-04 -1.609019986537e-05 -2.222515057628e-04 7.500000000000e-04 4.417864669111e-06 3.742401568482e-11 -1.658454995186e-10 -1.750539276872e-11
34 1 1.139024829161e-02 1.481760733925e-02 6.937421661521e-04 1.901943273481e-07 -6.850170644332e-08 -3.097412450967e-08 1.601666324001e-04 1.959555714108e-04 -1.673084571498e-05 7.500000000000e-04 4.417864669111e-06 -7.823226667695e-11 7.087980525365e-11 6.172892608448e-12
35 1 1.094005190049e-02 5.988787784314e-03 2.077430090101e-03 1.420345997027e-07 1.856775347330e-07 1.404044540722e-08 -1.656212477950e-04 -1.700021247159e-04 7.513905913320e-05 7.500000000000e-04 4.417864669111e-06 -1.178176496306e-11 -9.431158519862e-11 1.392629653916e-11
36 1 5.910211585748e-04 3.693566551133e-03 1.466650675478e-02 2.760083308147e-08 7.307865264738e-08 -1.130551230302e-07 8.647204324454e-05 -2.973882808429e-05 1.488424348628e-03 7.500000000000e-04 4.417864669111e-06 -8.074805694800e-12 -2.413711473895e-11 4.998547136476e-11
37 1 8.841536042239e-03 2.013840283806e-04 5.774437512992e-03 1.865791048164e-06 -4.327114983910e-06 -3.464856914005e-06 -8.691658918273e+01 -3.109999501224e+00 -3.374332258966e+01 7.500000000000e-04 4.417864669111e-06 -6.032057893318e-10 1.249601024987e-09 1.107251379641e-09
38 1 4.760229323532e-03 8.815849197202e-04 7.073149488684e-04 1.725120528325e-07 2.022184081480e-07 -1.566063062084e-08 -2.595235008404e-04 1.759375881819e-04 -2.579076104078e-04 7.500000000000e-04 4.417864669111e-06 -5.993898176358e-11 -7.506692385881e-11 1.269449686587e-11
39 1 6.632152625852e-03 4.662293240286e-03 5.084711955723e-03 1.335789152587e-07 1.654906109025e-07 3.575385573449e-08 5.362513966563e-05 -1.140794929649e-05 -5.864912668909e-05 7.500000000000e-04 4.417864669111e-06 -2.022474543465e-12 -9.811986770588e-11 -3.734514588853e-11
40 1 1.372168258570e-02 9.337785541441e-04 5.283302442751e-03 -2.310312428468e-08 2.053664301708e-09 3.296358746943e-07 8.271199634180e-07 1.088987604846e-04 -7.740258446697e-05 7.500000000000e-04 4.417864669111e-06 5.951695505811e-11 1.595506361516e-11 -1.445304646965e-10
41 1 1.521752669791e-02 9.732826034390e-03 5.182949002438e-03 -2.357559044902e-08 1.768148438397e-06 2.501989063774e-06 -1.770057219376e-03 -3.439489949986e-03 -2.552296199880e-03 7.500000000000e-04 4.417864669111e-06 -7.897791611242e-11 -6.822569289504e-10 -1.126881484155e-09
42 1 1.212892159729e-02 3.929203483411e-03 1.215231744868e-02 -8.440568629497e-08 3.526203466670e-07 -2.320444121355e-08 -1.735806616163e-05 -4.736778222991e-05 1.987322073198e-04 7.500000000000e-04 4.417864669111e-06 3.995277723156e-11 -1.255204653210e-10 -2.652118374414e-11
43 1 7.476260665938e-03 2.125875953409e-03 1.108253572007e-02 -1.725814147208e-07 2.644315874254e-07 -1.849260103669e-08 -1.963595760093e-04 6.396368583431e-05 1.617114222339e-05 7.500000000000e-04 4.417864669111e-06 8.416856080172e-11 -1.310909414647e-10 9.914717811383e-12
44 1 9.599093632573e-03 1.469238435600e-02 1.479725795003e-02 -6.054279951217e-09 1.057251513656e-07 1.213684358378e-08 8.821677213965e-05 1.626094809777e-05 2.227477279353e-05 7.500000000000e-04 4.417864669111e-06 1.601631373325e-11 -7.357186542420e-11 3.174909850893e-11
45 1 8.803018242326e-03 2.313629361435e-03 2.660039687097e-03 2.323806500431e-07 -4.431879803954e-09 1.121833950082e-07 7.571260052509e-05 -9.221577124887e-06 6.499220113968e-05 7.500000000000e-04 4.417864669111e-06 -2.837138611531e-11 -9.287004266554e-12 -3.163284921104e-11
46 1 1.083989652690e-02 9.790998157218e-03 5.014618796944e-03 -6.610690520115e-07 -1.027472496675e-06 -2.546701918412e-07 1.874662258832e-03 1.964265000650e-04 -2.800279648107e-04 7.500000000000e-04 4.417864669111e-06 2.624749559859e-10 3.476096068085e-10 2.273447864962e-11
47 1 1.524427404851e-02 1.491891171114e-02 9.877438235020e-03 9.442547912306e-08 4.247677011991e-07 -2.395087491531e-07 -5.805652648501e-05 3.613080590159e-04 -1.572003287177e-04 7.500000000000e-04 4.417864669111e-06 -2.218982526469e-11 -2.251107917384e-10 8.518112563090e-11
48 1 7.349776363460e-05 2.028939756784e-03 1.075693521191e-02 -9.358386089334e-08 4.686409322506e-07 -6.055149946441e-08 -2.243130084827e-05 1.266913358549e-04 1.268616999493e-05 7.500000000000e-04 4.417864669111e-06 5.132975169612e-11 -1.869954672784e-10 1.038996263424e-11
49 1 1.362840386730e-02 5.134881614716e-03 1.476397201699e-02 -5.967518001251e-09 7.794232693554e-08 -7.096149243832e-09 8.454613048259e-05 -1.869686683707e-05 4.715223058006e-04 7.500000000000e-04 4.417864669111e-06 -3.783278916982e-11 -2.874023166002e-11 -3.523262895977e-11
50 1 3.427951378949e-03 3.206260322959e-03 1.176553984707e-02 -7.824056568056e-08 2.603909254836e-07 -2.536295895501e-07 6.795810707659e+02 1.034788041039e+03 -3.623410500621e+02 7.500000000000e-04 4.417864669111e-06 1.172619621793e-12 -1.101902820042e-10 8.996109298160e-11
51 1 9.334451037828e-03 3.814823710754e-03 1.462063457869e-02 2.052796580810e-09 -5.536607290633e-10 -4.252300085879e-09 -1.809461862311e+01 -6.708904802303e+01 -2.864253646300e+01 7.500000000000e-04 4.417864669111e-06 -9.869561419129e-13 2.661924041050e-13 2.044446939456e-12
52 1 3.134213862743e-03 1.526341172131e-02 1.158229311909e-02 -1.951946607313e-07 4.240580827583e-07 -4.779770980858e-08 2.875512751115e-04 4.249580847674e-05 -6.661790014523e-05 7.500000000000e-04 4.417864669111e-06 9.660799083040e-11 -1.957216440855e-10 3.771611663547e-11
53 1 3.003102012553e-03 4.188643477017e-03 1.298019408017e-02 -5.014101888691e-08 2.743614023789e-07 -1.273886067560e-07 2.096937419066e-04 -6.853883514665e-05 -1.663585625926e-04 7.500000000000e-04 4.417864669111e-06 1.717610594491e-11 -1.225570255912e-10 5.994883964298e-11
54 1 1.247625756460e-02 7.361735645936e-03 1.327262674051e-02 -5.696003535097e-08 1.349324244151e-07 -1.365877091839e-07 -6.623446384808e-05 1.216227775361e-04 -1.464399160937e-04 7.500000000000e-04 4.417864669111e-06 1.977225779314e-11 -7.598424692539e-11 1.987497114261e-11
55 1 7.766016365584e-03 3.536249497963e-03 1.155827956090e-02 -8.504592241225e-08 8.668020768734e-08 -8.503859705336e-08 8.975708354615e-05 9.277490678078e-05 -5.795139112070e-05 7.500000000000e-04 4.417864669111e-06 3.491509865153e-11 -4.326357567303e-11 4.209959545244e-11
56 1 1.245484529386e-02 7.972106024100e-03 1.466312230920e-02 -3.078586849801e-08 6.251747066083e-08 -4.125297084688e-08 -1.956299918382e-05 5.531731174249e-05 2.163312326473e-05 7.500000000000e-04 4.417864669111e-06 1.407780968161e-11 -2.948325239947e-11 1.088554387263e-11
57 1 5.094100412558e-03 1.112389945856e-02 6.991441361541e-03 -1.007223670160e-07 3.504080315339e-07 1.918383546458e-07 -3.573204587324e-04 -1.345523790643e-03 -1.459079255280e-04 7.500000000000e-04 4.417864669111e-06 4.859468849338e-11 -1.450645457487e-10 -4.508748225107e-11
58 1 7.166832447969e-03 1.108020092670e-02 3.365997024425e-03 -1.459343147734e-07 -3.968533432512e-08 1.503320721220e-07 1.462731372872e-03 -1.141026614967e-03 -7.112583974027e-04 7.500000000000e-04 4.417864669111e-06 1.205773596394e-10 6.845186774073e-11 -1.374302583228e-10
59 1 9.504634429530e-03 1.506945895151e-02 7.038284411022e-04 1.810487322291e-07 1.581681146371e-07 -2.891548812676e-08 -2.672866748095e-04 1.969094393711e-04 1.463553227669e-04 7.500000000000e-04 4.417864669111e-06 -8.720586780449e-11 -2.063848629975e-11 -4.325437980063e-13
60 1 4.416447949654e-03 3.962096921180e-03 1.260314562220e-02 -1.148486371579e-07 1.925905584760e-07 -1.159061217133e-07 1.745836947211e-04 5.184649076651e-05 -8.895977684588e-05 7.500000000000e-04 4.417864669111e-06 5.712283054703e-11 -1.142610849999e-10 5.904290685244e-11
61 1 1.183463702306e-02 3.772265861673e-03 2.487072347181e-03 1.924450670170e-07 2.014765440844e-07 8.119908931456e-08 4.558985974591e-05 -6.238257704309e-05 -1.822035441488e-04 7.500000000000e-04 4.417864669111e-06 -1.621204055640e-11 -8.566256279871e-11 -6.151840202524e-12
62 1 1.049002765625e-02 5.564375136092e-03 7.841452400900e-03 1.527804017952e-08 3.844669022653e-07 -6.990268081256e-08 -4.228245110601e-04 4.467670965758e-04 -9.850229455219e-05 7.500000000000e-04 4.417864669111e-06 6.455658998563e-12 -1.896845868563e-10 5.351602978767e-11
63 1 3.202112972616e-03 1.207238334788e-02 2.551986295773e-03 3.788084462127e-07 3.169734653073e-07 1.770067539038e-08 -2.494418636525e-04 7.556002040519e-06 1.448290633739e-04 7.500000000000e-04 4.417864669111e-06 -1.111500984733e-10 -1.333436612821e-10 2.336552229524e-14
64 1 1.195683230443e-02 8.041568384482e-04 1.050540209475e-02 8.209459417034e-08 2.468567762187e-07 -1.740536270998e-10 1.189529349232e-05 5.261789852166e-04 5.566578831646e-05 7.500000000000e-04 4.417864669111e-06 6.051236506941e-12 -1.365497239522e-10 -1.579448516011e-11
65 1 1.269133316430e-02 5.252321429166e-03 1.176689704579e-02 -2.338413186490e-08 4.308212301383e-07 -7.223940263068e-08 -4.982531330715e-05 -1.106915625318e-04 -2.456269193790e-04 7.500000000000e-04 4.417864669111e-06 6.348497844419e-11 -1.199851691241e-10 -4.006208903196e-11
66 1 7.869662863262e-03 3.069760655619e-03 1.462063457351e-02 1.530237546063e-09 1.040107058816e-09 -3.700513283954e-09 1.488372166820e+01 -2.189738982038e+01 3.078249928276e+02 7.500000000000e-04 4.417864669111e-06 -7.029715001604e-13 -4.778118412627e-13 1.699968335810e-12
67 1 1.325441255358e-02 5.728454207350e-03 6.191811501688e-03 1.775175363671e-07 2.290755025398e-07 1.081878083509e-08 -1.526119170395e-03 1.818463844084e-03 -3.497271634914e-03 7.500000000000e-04 4.417864669111e-06 -2.453808406725e-11 2.472962002978e-11 9.201167364915e-11
68 1 4.767545605057e-03 3.067002808788e-03 8.347797294570e-03 -1.759635718820e-07 3.656681552910e-07 -5.878307345525e-08 -9.512241926479e-05 1.469727872279e-04 1.776934362149e-05 7.500000000000e-04 4.417864669111e-06 1.034901689408e-10 -1.884649691800e-10 2.925348469628e-11
69 1 5.402598471807e-03 6.077018709495e-03 6.172439816634e-04 1.030079973391e-08 2.359600606536e-09 1.133533151112e-08 1.026809968868e-05 1.495239008648e-05 -4.581048113254e-05 7.500000000000e-04 4.417864669111e-06 1.430890552163e-11 -1.184344268197e-11 -5.320807872801e-11
70 1 1.098448755613e-02 1.155514688792e-02 5.932389970544e-04 3.691084144098e-07 -4.660719883697e-07 -1.575582790155e-08 6.739911384489e-04 3.556745241572e-04 1.545700327181e-04 7.500000000000e-04 4.417864669111e-06 -1.669585015179e-10 1.832860240125e-10 -1.487734245847e-11
71 1 1.090320249668e-02 1.403940553896e-02 1.465122522817e-02 1.829690708981e-08 5.856291269868e-08 1.610316030372e-08 -2.929120076777e-05 5.319204477566e-06 -1.037611530539e-04 7.500000000000e-04 4.417864669111e-06 -1.477007956187e-11 -3.065478752202e-11 -5.726875522839e-12
72 1 2.634391856493e-03 1.404508360756e-02 5.532174586390e-03 -1.073810437188e-07 5.206981688866e-07 7.855166270644e-08 -4.229756627051e-03 6.095645244591e-04 -6.889856927190e-03 7.500000000000e-04 4.417864669111e-06 5.459118800239e-11 -2.304493532190e-10 -1.676565543596e-11
73 1 1.031947738517e-02 5.346546215995e-03 1.437711822258e-02 -2.536177173645e-07 2.771620955622e-07 -2.155659109265e-07 -1.579459830559e-04 -5.142787216137e-04 2.005534231586e-04 7.500000000000e-04 4.417864669111e-06 1.228941800501e-10 -1.165261788249e-10 8.169110640369e-11
74 1 4.514166602138e-04 2.235527674279e-03 6.629459195522e-03 1.107336850662e-06 3.579094353685e-06 1.352959328760e-06 -9.282174708206e-04 2.519774609327e-03 -3.667609930451e-03 7.500000000000e-04 4.417864669111e-06 -4.601456719606e-10 -1.689909969419e-09 -6.187693497384e-10
75 1 3.886854599358e-03 7.953183086274e-03 4.741420516528e-03 -1.170577393853e-07 7.166669650820e-08 -2.039328368141e-07 -6.984748447034e+02 4.341143092454e+02 -1.253107444532e+03 7.500000000000e-04 4.417864669111e-06 2.866537844489e-11 -1.814258920344e-11 4.729960476627e-11
76 1 4.077595004797e-03 1.498306706646e-02 1.264915802939e-02 -2.900478646844e-07 2.654198101696e-07 -5.687884249855e-08 -9.431743210221e-05 -1.076112562686e-04 -8.520200818204e-05 7.500000000000e-04 4.417864669111e-06 1.288466256508e-10 -1.270710830274e-10 3.405480718377e-11
77 1 1.059408531050e-04 9.895158446698e-03 7.236432360948e-04 3.518405394003e-07 -1.455165957598e-07 4.786702709159e-08 7.231605648529e-05 8.554974770189e-05 -2.323859853818e-04 7.500000000000e-04 4.417864669111e-06 -1.212357864898e-10 4.149547267500e-11 -4.869002680236e-11
78 1 1.027947479323e-02 8.046765809363e-03 9.309028451590e-03 -5.011843509626e-08 2.024807268480e-07 3.871186884175e-07 2.527057403480e+00 -9.907620155026e+00 -1.904202597358e+01 7.500000000000e-04 4.417864669111e-06 1.189652313991e-11 -5.841374130682e-11 -1.044585673074e-10
79 1 5.500078275945e-03 2.083332220503e-03 2.761837079710e-03 5.025686741661e-108 -2.111812341704e-108 1.085193004702e-108 7.338968286015e+02 -3.529869717110e+02 3.136787855341e+02 7.500000000000e-04 4.417864669111e-06 -5.037088377417e-109 2.116603351638e-109 -1.087654951894e-109
80 1 7.435657821467e-03 5.552849487060e-03 4.304426711967e-03 5.055805172358e-08 5.764529453143e-08 -6.125464352473e-08 1.053777789325e-04 5.065152552490e-04 -2.538686315127e-04 7.500000000000e-04 4.417864669111e-06 2.671021634315e-11 -3.152357274519e-11 3.894740254591e-11
81 1 1.351323701142e-02 1.243195790678e-02 5.711704385825e-04 3.104133296017e-07 -1.019516203390e-07 8.284512690815e-08 6.309604936230e-05 4.193985658626e-04 1.311452406918e-04 7.500000000000e-04 4.417864669111e-06 -7.254943893096e-11 -3.149462682994e-12 -6.131480086306e-11
82 1 1.493698527331e-02 4.083455223370e-03 4.047320431464e-03 7.266306314020e-08 2.807020891991e-07 -8.703974397271e-08 -4.275128420972e-04 -1.307030217370e-04 4.668320268781e-05 7.500000000000e-04 4.417864669111e-06 1.859315626951e-11 -1.295670786287e-10 7.986522630792e-11
83 1 3.339693715488e-03 5.056912457520e-04 4.634355595642e-03 2.851690105918e-07 5.013694014734e-07 1.356354011078e-07 -4.216255261387e-04 7.113203913802e-04 -2.806710068245e-04 7.500000000000e-04 4.417864669111e-06 -5.942213097644e-11 -2.193154393095e-10 -6.710857238884e-11
84 1 6.263331339849e-03 1.231382910849e-03 7.663106079271e-03 -2.116215203369e-08 3.175359318113e-07 1.140278168352e-07 -2.481645104877e-04 -1.844787135039e-04 -7.273414136259e-05 7.500000000000e-04 4.417864669111e-06 5.824379697096e-11 -1.378201281888e-10 -4.834047090109e-11
85 1 1.103659838966e-02 1.248230384939e-02 1.472325510504e-02 2.706293377710e-08 2.826089740869e-08 -1.589036166355e-08 3.111243736575e-05 -1.971803142968e-05 -1.331430718982e-04 7.500000000000e-04 4.417864669111e-06 -5.155131689455e-12 -2.617545917886e-11 1.212658993439e-11
86 1 7.081804171178e-04 1.264207535749e-03 1.372644027296e-02 -1.616235600366e-07 2.243231811350e-07 1.084187425197e-07 2.589655981726e-04 8.985976011363e-05 3.058710244849e-04 7.500000000000e-04 4.417864669111e-06 4.694585009880e-11 -1.600016620339e-10 -6.005953063259e-11
87 1 3.367603440200e-04 1.538200474224e-03 4.416140127057e-03 3.831450622780e-07 5.303285616579e-07 -1.630604537804e-07 -1.032933710711e-04 5.904323539015e-04 8.362640096560e-04 7.500000000000e-04 4.417864669111e-06 -9.557227016138e-11 -2.324767377343e-10 3.375270133189e-11
88 1 6.581312560879e-03 1.417063210326e-02 5.950263966779e-03 7.412032740951e-07 2.640705694806e-07 2.644086123816e-07 4.710984972047e-04 -3.474763606205e-04 -9.721574411054e-05 7.500000000000e-04 4.417864669111e-06 -2.718774512721e-10 -1.146345625820e-10 -9.292243681657e-11
89 1 2.987747628640e-03 1.383531079644e-02 1.147485951226e-02 -1.492842030844e-07 4.508874441618e-07 -9.923781377292e-08 -2.012839760028e-04 1.264864461151e-04 1.446790210237e-04 7.500000000000e-04 4.417864669111e-06 8.118647608668e-11 -2.215673696289e-10 3.089963968915e-11
90 1 6.323991114983e-03 6.857930495637e-03 7.548205788888e-03 -1.435448354414e-07 1.177161098051e-07 3.245641527375e-09 2.628509180913e-04 2.159542869396e-04 -2.062658762730e-04 7.500000000000e-04 4.417864669111e-06 9.784538696021e-11 -3.942908031464e-11 -1.511826528277e-11
91 1 5.170805219442e-03 5.886281666895e-03 1.465317302918e-02 -4.669835210037e-08 6.420442411971e-08 -6.423019357153e-09 3.156308007657e-05 7.018094129857e-06 -4.908766675482e-05 7.500000000000e-04 4.417864669111e-06 2.129185157251e-11 -2.756774396747e-11 2.094126206621e-12
92 1 1.204893540182e-02 2.372704435319e-03 2.373732575982e-03 2.355873276694e-08 8.488240895211e-09 5.992184891066e-08 -2.682118834734e-05 1.357253620766e-04 3.645587006662e-06 7.500000000000e-04 4.417864669111e-06 3.033376901665e-11 -8.650421762307e-12 -1.531614308458e-11
93 1 6.487432640915e-03 5.706686309426e-03 1.054560237460e-02 -1.301160504084e-07 2.574622846045e-07 9.998843413357e-08 3.149799121496e-04 -7.625128986147e-05 1.203254235057e-04 7.500000000000e-04 4.417864669111e-06 5.325378018681e-11 -1.233756513641e-10 -2.998899579361e-11
94 1 5.459775067738e-03 1.478402669234e-02 6.381601532686e-04 1.232098697907e-07 1.001130961793e-07 -3.624074626510e-08 -1.388172474101e-04 6.332450647958e-05 3.849968187113e-05 7.500000000000e-04 4.417864669111e-06 -3.746293591551e-11 -3.865355015050e-11 8.321781105442e-12
95 1 1.219737815929e-02 9.638714350762e-03 4.625454684168e-03 6.246986558423e-07 5.650102901786e-07 4.999022320078e-07 -2.683856295742e-03 -2.126550846500e-03 3.470413310774e-03 7.500000000000e-04 4.417864669111e-06 -1.849186224898e-10 -4.750964561130e-11 -3.475707889643e-10
96 1 1.178943267028e-02 1.200618540619e-03 3.189926079425e-03 1.598290052982e-07 -1.237607677671e-07 1.426112663636e-07 3.392597494650e-05 7.936936305770e-05 -4.242655574818e-06 7.500000000000e-04 4.417864669111e-06 -3.975189149481e-11 1.169875702358e-11 -5.538730076861e-11
97 1 1.514903837378e-02 2.723384752293e-03 3.846996304151e-03 5.754721546630e-08 2.708135446641e-07 1.215458895087e-07 2.274480071488e-04 -2.163335144219e-04 -1.041664321727e-04 7.500000000000e-04 4.417864669111e-06 3.887293664330e-12 -9.649001242119e-11 -5.177815950803e-11
98 1 1.218340578889e-02 1.331226692128e-02 1.466251539868e-02 1.776075728985e-08 8.253185353700e-08 1.900015486349e-08 9.802767840337e-05 6.465975244104e-06 1.783552152491e-04 7.500000000000e-04 4.417864669111e-06 2.373209043832e-11 -2.624674384157e-11 -2.040068162844e-11
99 1 2.881072850769e-03 1.210958395151e-02 6.253593272374e-03 6.874451670322e-07 8.683542120761e-07 2.472186557104e-08 -4.613959019632e-04 -2.320018773972e-04 -8.287137147161e-05 7.500000000000e-04 4.417864669111e-06 -2.058558192436e-10 -3.232502770421e-10 -3.080485511938e-11
100 1 1.604170264330e-03 7.988984323717e-03 4.304311125455e-03 5.482483663907e-291 1.005875968864e-291 -5.030534944383e-291 2.997149852856e+02 -3.667673620677e+02 5.056546459411e+02 7.500000000000e-04 4.417864669111e-06 -5.494921622137e-292 -1.008157971702e-292 5.041947579121e-292
101 2 1.497194675537e-02 8.737984670131e-03 1.440208581251e-02 -7.945518898313e-08 1.607090602936e-07 -4.763049840466e-08 7.028707975454e-05 2.477841202641e-05 -1.734801512551e-04 1.000000000000e-03 1.047197551197e-05 6.528056076765e-11 -1.850211237897e-10 -2.654527586120e-12
102 2 1.270552440080e-02 1.931013364786e-03 1.419702250378e-02 -8.116280353759e-08 2.110392919405e-07 -1.575070668254e-08 -1.260077449619e-04 -1.007880919664e-04 1.063499593630e-04 1.000000000000e-03 1.047197551197e-05 9.746422191270e-11 -2.585243062749e-10 9.965563427916e-12
103 2 3.492326051270e-03 6.084771904634e-04 2.862179714845e-03 2.470371720884e-07 3.509748253185e-07 -1.529828989864e-07 -8.152119377835e-05 1.677282969067e-04 1.341378851949e-04 1.000000000000e-03 1.047197551197e-05 -1.878330931045e-10 -3.580287068910e-10 1.287690764037e-10
104 2 6.300685442497e-03 8.895984036362e-03 1.447315701609e-02 -2.225330933761e-08 6.333749354363e-08 3.943295544637e-08 5.209184719332e-05 -4.195105672665e-07 -3.256835209024e-05 1.000000000000e-03 1.047197551197e-05 -1.852802476950e-11 -6.310261759799e-11 -7.338331013517e-12
105 2 1.519999533969e-02 3.247941730978e-03 2.258001196607e-03 1.458558324973e-07 1.443283290711e-07 1.150459087716e-09 -3.015673635845e-04 2.930376969035e-04 -5.896873713144e-04 1.000000000000e-03 1.047197551197e-05 -2.859081018188e-10 -1.086243021797e-10 1.328279984043e-11
106 2 1.097686737080e-02 8.839398401072e-03 3.292509138608e-03 1.438036879796e-07 4.108815547652e-07 1.468287345723e-07 4.148216314974e-04 -5.296631793373e-04 -1.936028313762e-04 1.000000000000e-03 1.047197551197e-05 -2.173453150194e-10 -3.226764750045e-10 -3.883288103748e-10
107 2 3.599553987081e-03 4.447865838434e-03 4.141642483395e-03 7.529627783042e-08 2.751139848116e-07 4.109854341733e-08 7.964186769943e-05 -4.286599040180e-05 4.977683371069e-05 1.000000000000e-03 1.047197551197e-05 1.266163065021e-10 -3.374203283689e-10 -1.542182695507e-10
108 2 6.128740446363e-04 1.075828610248e-02 4.112851357269e-03 7.610418091940e-07 6.872701448137e-07 5.907651344886e-07 -1.948519872615e-04 1.872828869349e-03 1.498961894558e-03 1.000000000000e-03 1.047197551197e-05 -7.219324916461e-10 -4.778114308377e-10 -5.027657012754e-10
109 2 4.594019183444e-03 2.487416669183e-03 1.044999839849e-02 -1.450996662014e-07 3.742777468524e-07 -4.912225265214e-08 -3.349510923010e-05 -2.814405317405e-05 -6.993895068722e-05 1.000000000000e-03 1.047197551197e-05 1.610735389196e-10 -4.313545561095e-10 5.461739675957e-11
110 2 1.156315473254e-02 1.285127594328e-02 1.314176301947e-02 4.359460272242e-08 2.123212905320e-07 1.539907717897e-08 1.870018351602e-04 5.804087378072e-05 8.299375083514e-05 1.000000000000e-03 1.047197551197e-05 -2.142192760836e-11 -2.472675167065e-10 -3.841827899292e-11
111 2 3.143743342369e-03 1.352079696072e-02 8.578118879239e-03 -2.014869695143e-07 7.030962005022e-07 -2.518037789527e-07 1.371369755724e-04 -9.452268890502e-05 -5.126422311055e-04 1.000000000000e-03 1.047197551197e-05 2.440587313462e-10 -7.013069489616e-10 2.123434127814e-10
112 2 1.166732249586e-02 6.459843360262e-03 1.445699302161e-02 -5.841691767342e-08 1.429445417971e-07 -3.257319225562e-08 1.296754671199e-04 6.673037873704e-05 -7.619982672237e-05 1.000000000000e-03 1.047197551197e-05 7.977234144600e-11 -1.647253307978e-10 1.897106739593e-12
113 2 1.317627819140e-02 9.880710815993e-03 8.986434411489e-04 6.770420890474e-07 -6.104035113408e-07 1.566876930270e-07 6.598733550313e-04 5.668316941805e-04 6.501509451615e-04 1.000000000000e-03 1.047197551197e-05 -9.288653607491e-10 7.326501566662e-10 -3.015504395332e-10
114 2 4.268106850063e-03 1.449427250394e-02 4.807662758263e-03 3.874559621662e-07 5.005200796014e-07 -9.931774223505e-08 4.511459078867e-05 2.442446710467e-04 1.787301830479e-04 1.000000000000e-03 1.047197551197e-05 -2.912086263975e-10 -4.928516409426e-10 8.275326702373e-11
115 2 1.039706854968e-02 4.616102716274e-04 6.532776617811e-03 -2.685715558341e-07 1.879862049041e-07 1.400674235978e-08 -2.710732730654e-04 -1.411799377551e-04 9.999301204510e-05 1.000000000000e-03 1.047197551197e-05 3.876613612843e-10 -3.914446690749e-10 -9.068683178847e-12
116 2 5.135771098520e-03 6.553541511143e-04 3.987824775303e-03 2.668599821570e-07 3.134480185528e-07 -2.409541632174e-08 -2.632774404201e-05 -3.789310105771e-04 -2.022199615304e-04 1.000000000000e-03 1.047197551197e-05 -1.771668195591e-10 -3.308675314312e-10 7.626642892833e-12
117 2 6.022433405121e-03 1.366490389424e-02 4.414635220465e-03 6.144222129209e-07 3.588675761762e-07 -1.131192166492e-07 -1.031527302421e-04 3.076261640037e-04 9.848069419491e-05 1.000000000000e-03 1.047197551197e-05 -5.109309611443e-10 -3.592977165773e-10 1.037371475601e-10
118 2 8.959871647844e-03 9.009254485822e-03 1.023802469516e-02 -3.968181142779e-07 1.260711907640e-07 3.870779909134e-07 -6.840547534683e-06 7.041422102229e-05 1.695113986719e-04 1.000000000000e-03 1.047197551197e-05 3.254669646820e-10 -1.615697853507e-10 -3.389659212732e-10
119 2 1.451124876324e-02 1.128572798364e-02 9.258870673153e-04 5.636972941430e-07 -8.251773469022e-09 -2.057287776105e-07 -1.538721816899e-04 5.297665369507e-04 -8.184323377033e-05 1.000000000000e-03 1.047197551197e-05 -4.462460029439e-10 3.433001825391e-11 4.722571634168e-11
120 2 1.457737720037e-02 2.348003192781e-03 5.404485235662e-03 3.187456782687e-08 1.638806764116e-07 7.018249131033e-08 -2.179646016409e-04 6.173473462785e-06 2.014606546077e-04 1.000000000000e-03 1.047197551197e-05 1.771697906424e-10 -1.936204312377e-10 -2.373758805633e-11
121 2 1.133078893473e-02 6.294769680334e-04 1.264350624446e-02 -3.425297964532e-08 2.051231823741e-07 2.478641491405e-08 -7.605021684565e-05 -4.657437601063e-06 2.306278571300e-05 1.000000000000e-03 1.047197551197e-05 8.129637498451e-11 -2.284065084930e-10 -3.275894130643e-11
122 2 1.468043599618e-02 1.506194526590e-02 4.012236778493e-03 4.431585785135e-07 4.738270654134e-07 4.234501565141e-07 -3.453749359380e-04 1.275038402024e-04 3.084796315497e-04 1.000000000000e-03 1.047197551197e-05 -2.857530204289e-10 -4.524885772709e-10 -4.395880793434e-10
123 2 1.696735579217e-04 3.868564478927e-03 7.710472311997e-03 -1.208250034265e-07 5.881027009470e-07 2.038965345872e-08 2.405696248843e-04 -3.509188474219e-04 2.316096575528e-04 1.000000000000e-03 1.047197551197e-05 2.031144584294e-10 -8.332167354758e-10 -1.518966155896e-10
124 2 1.290996238978e-02 5.188712200464e-03 1.336997271643e-02 -4.351790020172e-08 2.117218025575e-07 -3.212198108906e-08 2.301216335204e-04 4.870859061994e-05 5.755823800123e-06 1.000000000000e-03 1.047197551197e-05 1.230551498000e-10 -2.054044105708e-10 -5.798876520818e-11
125 2 2.918044301453e-03 1.488482170114e-02 9.845597276206e-03 -6.879606042537e-08 4.344626227284e-07 -7.932575789613e-08 2.311880858180e-04 -1.700090593794e-04 2.152098214273e-05 1.000000000000e-03 1.047197551197e-05 1.049402826845e-10 -4.338629233754e-10 1.035210695078e-10
126 2 6.124269787452e-03 3.162571561286e-03 1.139986423481e-02 -1.163989864414e-07 2.082452337015e-07 -3.338357554613e-08 1.320425920038e-04 2.669732531513e-05 -5.513876266620e-05 1.000000000000e-03 1.047197551197e-05 1.335839917531e-10 -2.434945284533e-10 4.167284475091e-11
127 2 1.193441261704e-02 1.536650139467e-02 1.439466763639e-02 -1.573199892860e-08 1.531005669964e-07 1.706626095028e-08 1.343115064095e-04 2.828606718998e-05 1.295765543242e-04 1.000000000000e-03 1.047197551197e-05 4.363705849166e-11 -1.665328670201e-10 -2.706247027691e-11
128 2 8.498734428197e-03 3.962195544870e-03 8.774545353258e-03 -1.867253407544e-08 2.621626902241e-07 -1.450581144633e-07 5.891933299616e-05 6.056157629367e-05 1.984345955385e-04 1.000000000000e-03 1.047197551197e-05 6.971199846153e-11 -3.071184307515e-10 1.849094210428e-10
129 2 4.143086339112e-03 1.089067535889e-02 9.872636474588e-03 -2.633103362211e-07 7.467911953014e-07 4.963522112670e-07 -2.918748727892e-04 -4.583781863411e-04 -3.490566186946e-04 1.000000000000e-03 1.047197551197e-05 2.113827526122e-10 -7.718526559976e-10 -5.332832386049e-10
130 2 1.332513147999e-02 1.322602635245e-03 8.329081751744e-03 -2.622577653724e-08 3.963755173227e-07 -7.420637695196e-08 -9.125060495749e-05 3.632693445325e-04 -1.735589966176e-04 1.000000000000e-03 1.047197551197e-05 7.569051169223e-11 -5.495610444568e-10 -2.731010783855e-11
131 2 9.036435941706e-03 1.466706232475e-02 7.259543555335e-03 -5.110215608431e-07 3.777342881461e-07 1.644183138612e-07 1.332665250989e-04 2.886878282698e-04 -2.255673647759e-04 1.000000000000e-03 1.047197551197e-05 6.964759053791e-10 -5.258285080806e-10 -3.874797020216e-11
132 2 9.901977045488e-03 3.868617582805e-03 5.108696520716e-03 5.071060480328e-08 1.790987650753e-07 -4.491403441181e-09 -1.531788292236e-04 -3.725809837781e-05 1.129534704221e-05 1.000000000000e-03 1.047197551197e-05 9.522814771849e-11 -2.447264927176e-10 2.344516029153e-11
133 2 6.328604466253e-03 2.185868043080e-03 9.577769461365e-04 1.297135307153e-07 5.453067570432e-08 9.277982675762e-08 -4.423361803835e-05 1.076832201496e-04 2.043735265082e-05 1.000000000000e-03 1.047197551197e-05 -8.143829381007e-11 -4.728796706197e-11 -7.262866300662e-11
134 2 1.516805635933e-02 2.436411500186e-03 9.052559603903e-03 -1.209288011721e-07 4.288095410469e-07 -2.920338661304e-08 -2.107845425242e-04 1.450398470557e-04 -2.126538275578e-05 1.000000000000e-03 1.047197551197e-05 1.326859484246e-10 -4.557836333119e-10 9.329557104643e-12
135 2 2.794997616389e-03 2.164638342874e-03 7.089715246174e-03 -1.233774917380e-07 4.914035808358e-07 9.570521087050e-08 -2.285918581139e-04 1.263868560386e-04 -1.727393401462e-04 1.000000000000e-03 1.047197551197e-05 2.290069697995e-10 -4.893516691974e-10 -5.643139098125e-11
136 2 1.602351065451e-03 1.065135400684e-02 1.110561274194e-03 3.103158576368e-07 2.164232061383e-08 2.844048321034e-07 4.869603251012e-04 4.965460944071e-04 3.708498188792e-04 1.000000000000e-03 1.047197551197e-05 -8.466909655838e-11 -7.615913160930e-11 -3.667588742049e-10
137 2 1.464337780465e-02 7.369651967980e-03 1.302131888812e-02 -1.377648622854e-07 2.894380729453e-07 -2.700375657709e-07 1.190829344603e-04 -1.339649585119e-05 1.636955931651e-04 1.000000000000e-03 1.047197551197e-05 1.230932017436e-10 -3.579807293901e-10 1.341169885170e-10
138 2 7.730516405591e-03 6.573980626522e-03 2.998298298676e-03 2.346858870709e-08 7.667092580347e-08 2.266781131832e-08 3.254287276289e-05 -2.218027155183e-04 1.447182063945e-06 1.000000000000e-03 1.047197551197e-05 9.316051539922e-11 -1.248173964549e-10 -4.764762473821e-11
139 2 7.475946439139e-05 7.789232938780e-03 7.209762024848e-03 6.695601052761e-07 1.845116838922e-06 -5.457152046929e-08 1.885515619572e-03 -3.111209995802e-03 -6.869294119029e-03 1.000000000000e-03 1.047197551197e-05 -1.005750574880e-09 -2.166095498060e-09 -1.467830225415e-09
140 2 1.358215423475e-02 6.761396089920e-03 1.445444700626e-02 -4.570594231490e-08 5.505331945114e-08 -1.411972837714e-07 2.458682330810e-05 6.914479890196e-05 -1.478615821824e-05 1.000000000000e-03 1.047197551197e-05 1.393055400653e-11 -6.816247011446e-11 1.185611263188e-10
141 2 9.431465223848e-03 8.255651822703e-03 6.552976186521e-03 -5.636537061516e-07 1.535872890210e-07 1.531675755096e-07 2.265311305778e-04 -2.339445992075e-04 5.393894770278e-04 1.000000000000e-03 1.047197551197e-05 5.989249870082e-10 -2.016718624575e-10 -1.913070453363e-10
142 2 1.240942700621e-02 5.345376864476e-03 2.674973908382e-03 1.926291824138e-07 3.775865857256e-07 1.634786541980e-07 -1.578243276243e-07 2.062187091504e-05 1.218488171553e-04 1.000000000000e-03 1.047197551197e-05 -7.418881551891e-11 -3.998353104037e-10 -6.723799917922e-11
143 2 1.084849463608e-03 1.094950472460e-02 7.430194625078e-03 1.335612697619e-07 9.844131129045e-08 -6.280929068232e-07 8.399269387494e-05 -1.072492755068e-03 -9.155012820283e-04 1.000000000000e-03 1.047197551197e-05 3.440332093202e-10 -1.792308720509e-10 6.831687798190e-10
144 2 1.501434588803e-02 1.655369944230e-03 1.240540207328e-02 -2.101120026823e-08 3.777204408228e-07 -6.258677916571e-08 9.040620169287e-06 1.047761892570e-06 3.519995181047e-05 1.000000000000e-03 1.047197551197e-05 5.882223835917e-11 -4.166637487261e-10 4.930672979902e-11
145 2 1.131984699997e-02 4.350863324690e-03 9.697432701062e-04 1.094220837074e-07 1.084094479688e-07 1.726789412620e-08 -1.251390115994e-04 9.090143763058e-05 2.229919010910e-04 1.000000000000e-03 1.047197551197e-05 -7.342330406955e-12 -7.492521721673e-11 3.279754192198e-12
146 2 3.837693920514e-03 3.769685601658e-03 6.896363619459e-03 -1.226334429132e-07 4.680818984330e-07 -2.473178168538e-07 1.108297331854e-05 -1.592460058267e-06 3.369354029435e-05 1.000000000000e-03 1.047197551197e-05 3.354414273211e-10 -5.174862423651e-10 3.881824212997e-10
147 2 1.267417789461e-02 5.945352758533e-03 8.902384689048e-04 7.017610425394e-08 2.425837767872e-07 8.775958021766e-08 -2.012659821538e-04 6.477551855881e-05 3.627648941820e-05 1.000000000000e-03 1.047197551197e-05 -6.578609721336e-11 -3.010799954666e-10 -4.499084776344e-11
148 2 7.102936023053e-03 1.066802348093e-02 1.111490755436e-02 -3.344265143577e-07 1.910345970771e-07 4.110822783332e-07 2.030175827523e-04 1.194944608154e-04 -3.398816555145e-04 1.000000000000e-03 1.047197551197e-05 3.612534790521e-10 -2.196074921207e-10 -4.135277071572e-10
149 2 7.090373495233e-03 1.461445289254e-02 9.756231616703e-04 1.575771458072e-07 7.990503066258e-08 -6.131764237016e-08 -2.330296607877e-05 9.438011789379e-05 -6.455580256698e-05 1.000000000000e-03 1.047197551197e-05 -1.808997941195e-10 -7.570234273355e-11 2.143806353106e-11
150 2 7.294758002939e-03 5.494344379020e-03 8.045271748505e-03 4.410789575688e-08 1.665055211369e-08 -1.275591522652e-07 -1.000175483882e-05 1.129871183553e-04 4.277398300536e-05 1.000000000000e-03 1.047197551197e-05 -2.598922394567e-11 -9.605469181941e-11 1.714409422038e-10
151 2 1.048416183662e-02 7.244465231541e-03 7.767304831264e-03 -4.469637170753e-07 1.740594345735e-07 2.803789973006e-07 7.198965677053e-04 -5.219089869070e-04 5.611455744469e-04 1.000000000000e-03 1.047197551197e-05 2.948233635777e-10 -2.834569266690e-10 -2.178801686927e-10
152 2 1.516848279424e-02 5.361268070370e-03 1.446858647667e-02 -4.939363628192e-08 3.093533778529e-07 -1.615862403362e-08 3.172425506279e-04 7.730752184504e-05 -2.086433126357e-04 1.000000000000e-03 1.047197551197e-05 8.667565654330e-11 -3.295166025335e-10 3.015429213309e-12
153 2 1.579861176219e-03 1.250996987539e-02 4.406105335940e-03 7.324352633324e-07 1.118542846475e-06 -4.142695528981e-08 -5.089840588291e-04 -2.066405604512e-04 1.433242988019e-04 1.000000000000e-03 1.047197551197e-05 -7.121803078767e-10 -1.045406940408e-09 -4.442088986122e-11
154 2 7.285307203477e-03 3.772315115665e-03 7.256120992359e-03 3.505326918170e-08 8.665496099002e-08 -1.147694988086e-07 3.639207760142e-06 1.006215744231e-06 8.155164068511e-05 1.000000000000e-03 1.047197551197e-05 2.298355196394e-11 -1.313591854170e-10 1.720322889597e-10
155 2 1.118001746535e-02 1.516284473926e-02 2.471909149682e-03 3.578582586333e-07 -2.764990544546e-07 5.707000389297e-08 1.595128510486e-04 1.283892846618e-04 2.151808520449e-04 1.000000000000e-03 1.047197551197e-05 -2.954263728211e-10 2.219827822857e-10 -6.271399472062e-11
156 2 5.764892863497e-03 7.268769351113e-03 1.062015012389e-02 -2.015553487793e-07 2.420349538859e-07 1.646426923546e-07 -3.613910552231e-05 -2.060148209404e-04 -3.348574250088e-05 1.000000000000e-03 1.047197551197e-05 1.888304132433e-10 -3.110514129194e-10 -1.842564625179e-10
157 2 1.913435794490e-03 1.153884386607e-02 1.271597774706e-02 -2.923692781151e-07 3.828481199076e-07 -5.886420411398e-08 1.652435990052e-05 1.218561633214e-04 4.808501591880e-05 1.000000000000e-03 1.047197551197e-05 2.545666993230e-10 -3.294531022245e-10 6.549747255302e-12
158 2 9.077023100974e-03 5.908609399986e-03 8.496408756894e-03 -5.349831228379e-08 3.102820699001e-07 6.566183990124e-08 1.626006888251e-04 -2.377980573886e-04 3.141319686203e-04 1.000000000000e-03 1.047197551197e-05 1.529244168092e-10 -3.588363566953e-10 6.217324918606e-12
159 2 2.218809871555e-03 4.951899930844e-03 1.439083209737e-02 -1.334929640563e-07 8.357973673871e-08 1.230390333392e-08 6.890275110925e-05 1.232222446210e-04 3.187322751429e-06 1.000000000000e-03 1.047197551197e-05 1.653370415579e-10 -8.587698484425e-11 -2.354294731924e-11
160 2 7.272292593189e-03 1.528791692639e-02 7.728473991257e-03 -1.594575749510e-07 3.093981531418e-07 4.143323942848e-07 -1.278792349844e-05 2.185151719940e-05 4.128471078946e-05 1.000000000000e-03 1.047197551197e-05 2.639909319958e-10 -4.178148011826e-10 -4.910981738830e-10
161 2 1.351994570600e-02 1.375301901003e-02 1.050378546740e-02 -1.094168371207e-07 4.641462766554e-07 -3.974222679261e-07 1.254129579039e-04 3.575759245756e-04 3.553602435778e-04 1.000000000000e-03 1.047197551197e-05 9.343015165016e-11 -5.426442359157e-10 2.987570272634e-10
162 2 2.757829412774e-03 9.897066533928e-03 1.278358139382e-02 -7.859332558565e-08 5.096059233659e-07 -7.331563639345e-08 -4.427574830257e-05 1.947409384043e-05 1.678716819603e-04 1.000000000000e-03 1.047197551197e-05 4.993754178360e-11 -4.984455143747e-10 5.915527592420e-11
163 2 7.978769480248e-03 8.645952947179e-03 9.513593965595e-04 4.856651307896e-08 1.136417921650e-07 -6.092109833901e-09 -1.130928106896e-04 4.147653939896e-05 -1.433402380472e-05 1.000000000000e-03 1.047197551197e-05 -5.948365959275e-11 -1.506802023696e-10 -4.299701394864e-12
164 2 7.245343881743e-03 8.895007440585e-03 1.287462716728e-02 -6.442866123872e-08 1.688232701396e-08 9.753951099656e-08 -4.605874283932e-05 2.937221544934e-05 -6.117571991510e-05 1.000000000000e-03 1.047197551197e-05 3.395250558931e-11 -4.404484223737e-11 -9.802550067495e-11
165 2 3.485500335052e-03 2.102024018403e-03 9.257263630769e-04 5.767751168327e-08 2.007510416603e-07 -2.549069627852e-08 -1.884240348920e-04 4.086923828830e-05 -7.779462922378e-05 1.000000000000e-03 1.047197551197e-05 -3.595820836907e-11 -1.767666925219e-10 -1.668770485266e-11
166 2 1.224989949491e-02 2.462523247413e-03 1.080167336787e-02 -9.109364291507e-08 3.797467342928e-07 -1.103537697157e-07 -8.046545344372e-05 -5.041052996268e-06 2.399724972803e-04 1.000000000000e-03 1.047197551197e-05 1.190573527203e-10 -4.110362893092e-10 6.641656658742e-11
167 2 3.859077599935e-03 1.080014948115e-02 5.805901763759e-03 4.402536496354e-07 5.484395470579e-07 -8.115468629379e-08 1.591442572426e-04 5.426060541364e-04 -8.595956192896e-05 1.000000000000e-03 1.047197551197e-05 -3.905344728552e-10 -5.592467667038e-10 1.240222457492e-10
168 2 2.180606896003e-03 1.526045111480e-02 7.180529598249e-03 -6.516022088255e-08 4.000918755771e-07 -2.678037420229e-07 1.326155524663e-04 2.588731623834e-04 1.027188420556e-05 1.000000000000e-03 1.047197551197e-05 1.041703158479e-10 -4.470196186963e-10 2.690088559357e-10
169 2 8.288036817896e-04 4.985059948995e-03 3.358095852673e-03 -8.412715605672e-08 2.163758698969e-07 -2.193476083120e-07 -1.820686690965e-04 -9.230026183415e-05 2.000109030722e-04 1.000000000000e-03 1.047197551197e-05 1.343011135744e-10 -2.309252402361e-10 2.435239254520e-10
170 2 4.740070465944e-03 6.006190909040e-03 9.634394329586e-03 -3.617472008918e-08 3.167643529556e-07 -7.808120222307e-08 6.654811763483e-05 -1.142977879020e-04 -2.127974480323e-05 1.000000000000e-03 1.047197551197e-05 7.529513839774e-11 -3.706603386646e-10 1.107424340820e-10
171 2 3.612090347062e-03 1.026344526869e-02 1.445198660128e-02 -8.283666586041e-09 1.810997682055e-07 4.250600630222e-08 1.726579585589e-04 -5.352401394542e-05 -6.818396695760e-04 1.000000000000e-03 1.047197551197e-05 -8.239236252291e-12 -1.402881420656e-10 -7.608627785650e-11
172 2 5.190704514987e-03 1.514293114217e-03 8.869459823364e-03 -1.088911384889e-07 3.838755044408e-07 -1.713187293050e-08 3.867315288737e-05 -4.506351593840e-05 1.108751332364e-05 1.000000000000e-03 1.047197551197e-05 1.803078815327e-10 -4.588661750687e-10 3.908801223076e-11
173 2 7.133190719784e-03 2.896907436423e-04 5.405348809492e-03 8.374313574261e-07 2.017214568773e-07 4.380705566347e-07 -6.734639292171e-04 -5.884760562170e-04 6.829683592112e-04 1.000000000000e-03 1.047197551197e-05 -7.021516119921e-10 -2.063390988591e-10 -4.162789713489e-10
174 2 9.908781614952e-03 3.551409417448e-03 1.072220474802e-02 -1.277109386656e-07 1.056693221692e-07 -9.146226862531e-08 -1.713206972673e-04 1.622096409564e-04 -5.411686436719e-05 1.000000000000e-03 1.047197551197e-05 1.198285172370e-10 -1.361523192167e-10 1.551151388097e-10
175 2 5.117235974235e-03 9.517366357036e-03 6.338103791656e-03 2.862282480132e-07 2.678074790432e-07 -3.710790294584e-07 -5.701316673947e-05 -2.602282738087e-04 -1.903587906094e-04 1.000000000000e-03 1.047197551197e-05 -2.802919094075e-10 -2.624932308097e-10 3.532091614940e-10
176 2 1.281221237330e-02 1.120682020566e-02 2.189900926524e-03 4.046940532886e-08 -3.589526156021e-07 -1.270953213946e-07 -1.545490290028e-03 7.570663270770e-04 1.325180353272e-03 1.000000000000e-03 1.047197551197e-05 -5.947632075735e-11 4.642620070132e-10 -3.557533718786e-10
177 2 9.373800827901e-03 6.237141200089e-03 6.579830931209e-03 -5.424716808490e-08 2.198311552340e-07 -7.381771524629e-09 -2.286703860100e-04 2.274459034866e-04 -9.667428209260e-05 1.000000000000e-03 1.047197551197e-05 9.052944341234e-11 -2.868826350000e-10 1.537738960340e-11
178 2 8.560735482329e-03 3.852221711825e-03 3.678109834357e-03 1.367288248169e-07 9.802080738546e-08 4.860360573909e-09 -4.852495919704e-05 -5.349016878847e-06 -8.252633991054e-05 1.000000000000e-03 1.047197551197e-05 8.384706221321e-12 -1.558897082862e-10 2.940567916339e-11
179 2 1.227581345769e-02 4.029149142708e-03 5.890317664032e-03 -1.403879808894e-07 2.181717868715e-07 -1.151443001722e-07 -1.879175918247e-06 1.416613389252e-05 -8.050932592569e-05 1.000000000000e-03 1.047197551197e-05 2.290993545534e-10 -2.882088251587e-10 1.590287140079e-10
180 2 3.377368426157e-03 8.767006645574e-03 9.360481993046e-03 4.329327064294e-07 5.735652597001e-07 -8.309613390924e-08 -1.442442456425e-04 -5.514612113939e-04 5.527568564912e-04 1.000000000000e-03 1.047197551197e-05 -5.193935837089e-10 -3.888799657659e-10 5.801529033024e-11
181 2 2.776016990053e-03 8.287613562998e-03 1.442990224524e-02 -3.138372993120e-08 1.197356846029e-07 7.430908067879e-08 1.033039654731e-04 1.149191683270e-05 -3.927971047836e-05 1.000000000000e-03 1.047197551197e-05 7.278405717850e-12 -1.368357504455e-10 -1.131454710580e-10
182 2 7.625845296994e-04 1.247100640338e-02 9.881338426121e-04 7.335867444913e-08 -1.108436961457e-07 9.021820855951e-08 1.432042656292e-04 2.288945587062e-05 6.871763643486e-05 1.000000000000e-03 1.047197551197e-05 4.421210123079e-11 1.292738475693e-10 -1.293517016140e-10
183 2 8.030141644730e-03 1.416103946166e-02 4.699627688889e-03 1.542121753785e-06 -4.278951850314e-08 3.156079330943e-07 3.935301338386e-04 1.303362688187e-03 -7.003786319849e-05 1.000000000000e-03 1.047197551197e-05 -1.347527261880e-09 9.866416644999e-12 -2.986864144659e-10
184 2 1.083699237122e-02 2.388338783006e-03 9.789245252097e-04 3.725622785155e-08 -1.267840420903e-08 2.384336061735e-09 -2.156711806592e-05 -1.040848687872e-05 -1.637719052630e-04 1.000000000000e-03 1.047197551197e-05 1.502544906525e-11 2.906656058089e-11 -2.274420965741e-11
185 2 1.305138533971e-02 3.158215098087e-03 1.214243641181e-03 -1.461075439116e-07 1.065397559535e-07 1.413816087230e-08 7.550726589697e-05 6.428405356333e-05 8.439603032277e-05 1.000000000000e-03 1.047197551197e-05 1.568545801509e-10 -1.070603766398e-10 -1.140363277563e-11
186 2 2.268830620768e-03 2.005376102308e-03 2.632433824263e-03 1.293695708068e-07 3.735861779531e-07 -1.089757072378e-07 -1.876104153049e-05 -8.947751528751e-06 -7.709914488986e-05 1.000000000000e-03 1.047197551197e-05 1.395641844722e-11 -4.099693484180e-10 4.428422085103e-11
187 2 1.434588775070e-02 1.300416567102e-02 1.866245187652e-03 4.216130696743e-07 8.989021302040e-08 -2.230743633169e-07 5.550964503138e-05 -4.535810798318e-06 6.914749651306e-04 1.000000000000e-03 1.047197551197e-05 -4.002498712251e-10 -3.154402187661e-11 1.755392228549e-10
188 2 1.139452098498e-02 9.181139077654e-03 1.108805432491e-02 -2.175074561059e-07 4.343044329723e-07 1.858432098350e-09 1.894313774828e-04 2.097937975645e-04 1.742359458310e-04 1.000000000000e-03 1.047197551197e-05 1.236433055680e-10 -3.864144719895e-10 1.548374732217e-10
189 2 3.400577385299e-03 2.078276301162e-03 8.908179600066e-03 -8.410396151246e-08 4.479265414264e-07 -3.078240226324e-08 1.177821905028e-04 -3.984922827014e-05 -5.023103136281e-05 1.000000000000e-03 1.047197551197e-05 1.243792755502e-10 -5.166523710693e-10 4.697295379721e-11
190 2 5.105584324208e-03 3.747978307589e-03 3.140208244476e-03 1.818955251671e-07 1.993667827749e-07 2.448664592113e-08 6.497338158786e-05 -8.649279843551e-05 -2.227736956275e-04 1.000000000000e-03 1.047197551197e-05 -3.382086544804e-11 -2.692789720727e-10 -7.383635075426e-11
191 2 1.528495411316e-02 1.113388673692e-02 1.285448948374e-02 -8.426836789013e-08 2.889796205497e-07 -9.590955759791e-08 1.538470804477e-06 -1.166061642960e-04 6.055462035775e-05 1.000000000000e-03 1.047197551197e-05 4.375276518127e-11 -2.995533060980e-10 1.060071487848e-11
192 2 5.067815651969e-03 1.130703994887e-02 9.811635247209e-04 9.051985238608e-08 6.702150142311e-08 8.560253871597e-08 -8.817104679608e-06 3.761612927235e-05 -1.457090987008e-04 1.000000000000e-03 1.047197551197e-05 -6.909629913648e-11 -7.956479203147e-11 -6.583377397085e-11
193 2 4.584943176508e-03 1.214720988183e-02 8.326952975550e-03 -6.463954833872e-07 -1.138629836735e-07 3.708611178473e-07 -4.104171335476e+03 2.631363949971e+03 3.102556040946e+03 1.000000000000e-03 1.047197551197e-05 4.527157823903e-10 7.974504090582e-11 -2.597403824581e-10
194 2 9.733886149170e-03 1.180802610767e-02 1.290426897302e-02 -9.130220925520e-08 2.527644335579e-07 1.276053548512e-07 -5.162270368259e-05 2.298317705522e-04 1.501619219636e-04 1.000000000000e-03 1.047197551197e-05 1.096035865297e-10 -2.295261166032e-10 -8.092735230338e-11
195 2 7.561060017331e-03 1.049830440172e-02 6.557004444138e-03 -4.798024877963e-07 1.519053377767e-07 2.472419441291e-07 1.975098356010e-04 4.160168102282e-04 -1.053216632126e-04 1.000000000000e-03 1.047197551197e-05 5.389096216062e-10 -2.115816840168e-10 -2.896049458248e-10
196 2 1.429158297148e-02 9.348823809615e-03 6.793979490017e-03 2.914397751555e-03 1.920531864712e-03 -8.873129817354e-04 -3.442459349835e+01 4.501542110504e+01 -1.567153196611e+01 1.000000000000e-03 1.047197551197e-05 -2.706559375449e-06 -2.156292908835e-06 -2.477619424924e-07
197 2 1.355916580053e-02 1.394281483775e-02 1.400305153745e-02 -1.087593668304e-07 3.081679330370e-07 -8.623905283537e-08 -4.397213347786e-05 1.340621138431e-04 8.750807906470e-05 1.000000000000e-03 1.047197551197e-05 1.018823470860e-10 -3.498228472969e-10 7.287036457032e-11
198 2 1.269628862718e-02 9.556620337599e-03 3.007482315670e-03 8.667805087212e-07 -2.144602987969e-09 1.019532265163e-06 5.584782532204e-04 4.285767075591e-05 -5.313128871931e-04 1.000000000000e-03 1.047197551197e-05 -8.299316690199e-10 -7.665185515632e-11 -1.455282742587e-09
199 2 1.428433187624e-02 1.118536011509e-02 7.708805120694e-03 2.259462547091e-06 5.872558514038e-06 -9.487475266882e-07 6.231431002811e-03 -4.302475256907e-03 -7.428572348204e-04 1.000000000000e-03 1.047197551197e-05 -2.289762749382e-09 -7.050661018468e-09 6.800895843450e-10
200 2 4.819859561489e-03 1.455870615909e-02 8.512400316044e-03 -1.371982123298e-07 3.925160033561e-07 -1.208310007873e-07 1.027257410298e-04 1.927439839923e-05 1.651124150603e-04 1.000000000000e-03 1.047197551197e-05 1.740649718589e-10 -4.331280589077e-10 1.142220179870e-10
201 2 8.326506771739e-03 1.204246723071e-02 1.158001403831e-02 -2.387102439319e-07 5.951582949970e-08 4.372426640960e-07 -1.082085970532e-05 -7.309039290388e-07 1.744893149127e-04 1.000000000000e-03 1.047197551197e-05 2.431116070610e-10 -9.259342514204e-11 -3.670237090096e-10
202 2 9.722218990340e-04 8.815635945199e-03 5.816350784980e-03 -1.612177750867e-07 4.738862881076e-07 2.490874263386e-06 1.186636192239e-03 2.795822572431e-03 6.648646955363e-04 1.000000000000e-03 1.047197551197e-05 1.682796152217e-10 -1.160928051496e-09 -2.833195165014e-09
203 2 1.422950562969e-02 1.159924198281e-02 3.447433282345e-03 1.339132002880e-06 7.097691308634e-07 -1.860277044024e-06 9.892091244777e-04 8.001896653604e-04 -6.868363710365e-04 1.000000000000e-03 1.047197551197e-05 -8.514732459814e-10 -6.157366010828e-10 7.045364116956e-10
204 2 2.359428378605e-03 5.776496998218e-05 1.303097926969e-02 -1.638629255696e-07 3.357630686582e-07 -3.972810333777e-08 -5.098203533178e-05 -4.376486022108e-05 -1.158387301133e-04 1.000000000000e-03 1.047197551197e-05 1.810804977289e-10 -3.861088887111e-10 1.674602837053e-11
205 2 9.411135044156e-03 1.855807837416e-03 9.886352696217e-03 -7.587561493973e-08 9.555587365890e-08 8.417170153490e-08 7.593851978995e-05 8.201724605442e-06 1.632370598520e-04 1.000000000000e-03 1.047197551197e-05 1.155270258275e-10 -1.033945120461e-10 -5.633271791963e-11
206 2 1.042283103535e-02 1.017536099502e-04 4.625898015624e-03 -7.569315247562e-08 -6.972003494549e-07 3.762129099438e-07 -7.550160027169e-04 7.876054042594e-05 -2.870448719881e-04 1.000000000000e-03 1.047197551197e-05 1.879923577305e-10 4.556725859476e-10 -3.850996235148e-10
207 2 1.352287583430e-02 7.024720547270e-03 1.010264698102e-02 -5.014274906714e-07 6.744001240342e-07 -6.609057420687e-07 -9.571595352564e-05 3.395917655801e-04 3.122266968774e-04 1.000000000000e-03 1.047197551197e-05 7.095044160207e-10 -5.287842009336e-10 4.518095747392e-10
208 2 1.129570328651e-02 5.896022002362e-03 1.265439588962e-02 -5.661847587043e-08 2.304305245693e-07 -2.111029621072e-08 -5.819904717799e-05 -7.700584154651e-05 3.099758029238e-05 1.000000000000e-03 1.047197551197e-05 7.138543865862e-11 -2.829373990661e-10 -3.353562076041e-11
209 2 4.936398875118e-03 7.569637369467e-03 1.444057614317e-02 -2.996392854790e-08 7.219331758819e-08 -4.620116725707e-10 4.176182840281e-05 -1.016628545229e-05 -1.690537859831e-05 1.000000000000e-03 1.047197551197e-05 2.353303962146e-11 -7.142211340348e-11 4.928678089170e-13
210 2 1.362049276379e-02 7.314273142195e-03 6.858310793042e-03 3.872871020845e-07 3.697309193295e-06 -1.731072195242e-07 -2.299471498927e-03 2.546825856811e-03 4.303695413051e-03 1.000000000000e-03 1.047197551197e-05 -4.376733709959e-10 -4.462822164754e-09 -1.366264110068e-09
211 2 1.124416592041e-02 1.512305564956e-02 9.364305484666e-03 -1.180035170521e-07 1.346072636508e-07 1.024790516678e-07 -6.770047828574e-05 -1.173462998286e-04 -2.047521205127e-05 1.000000000000e-03 1.047197551197e-05 1.818974836372e-10 -2.298071300444e-10 -1.114685064734e-10
212 2 9.047809886855e-03 4.348452814310e-03 6.753619118908e-03 -4.194347777896e-08 1.994974850080e-07 2.508186783381e-08 2.106920327455e-04 -4.383257685689e-05 6.515190335700e-06 1.000000000000e-03 1.047197551197e-05 9.690522656148e-11 -2.458270944529e-10 1.166024683254e-11
213 2 1.350023818314e-02 1.496742195562e-02 1.208010786875e-02 -6.945283856663e-08 3.485798043286e-07 -1.765841746379e-07 -5.708683479516e-05 2.193284768357e-05 1.032828875958e-04 1.000000000000e-03 1.047197551197e-05 1.051644463206e-10 -3.555833499828e-10 1.196828237256e-10
214 2 5.224615485671e-03 8.736842085359e-03 2.372626490464e-03 1.312648618254e-08 3.916234873264e-08 -7.680165148668e-08 5.825755495270e-06 -2.468416178679e-04 2.329926618745e-05 1.000000000000e-03 1.047197551197e-05 -6.438628678413e-11 -1.812449912908e-11 6.116184599841e-11
215 2 1.491297231660e-02 1.044447920700e-02 1.112227798544e-02 -2.122959210360e-07 5.338779042204e-07 -2.691312452163e-07 4.011118993219e-04 2.659436227177e-04 6.295801239015e-05 1.000000000000e-03 1.047197551197e-05 1.540158724674e-10 -6.810165419933e-10 1.497278944997e-10
216 2 7.351152463290e-03 3.068128613347e-03 2.340907762730e-03 1.650937702542e-07 5.159624259504e-08 8.769919900251e-08 -2.982301294210e-05 -1.274817570170e-05 5.848026755600e-07 1.000000000000e-03 1.047197551197e-05 -3.787950513518e-11 -7.185473881739e-11 -4.130368298923e-11
217 2 7.857136829426e-03 7.100096805732e-03 1.318738810044e-02 -1.855734532158e-08 4.794011383272e-08 1.054093862067e-07 -9.823225078620e-06 -4.569907505479e-05 6.721249120113e-05 1.000000000000e-03 1.047197551197e-05 5.714809065889e-11 -6.698601912833e-11 -1.155149376421e-10
218 2 1.052150409015e-02 2.015987396445e-03 1.150623702023e-02 -2.804423141150e-08 1.401886565583e-07 -1.918995114185e-08 6.287853805997e-06 5.980944422789e-05 5.348313642644e-05 1.000000000000e-03 1.047197551197e-05 8.106674238460e-11 -1.521955181782e-10 4.654890258804e-11
219 2 9.516051619620e-03 1.821873211882e-03 5.396543800713e-03 -8.451140668866e-08 9.328614293007e-08 -6.760404852799e-08 2.386208120354e-04 2.292689231202e-05 -2.683763322944e-04 1.000000000000e-03 1.047197551197e-05 1.586958109752e-10 -2.384838398865e-10 9.111035398254e-11
220 2 1.092428034014e-02 4.592427906020e-03 3.682633593460e-03 1.875275384497e-07 1.839104102324e-07 2.785995779086e-08 6.106599957330e-05 -1.127414663964e-04 4.790198154073e-06 1.000000000000e-03 1.047197551197e-05 6.315266351464e-12 -2.226360145837e-10 8.702610048443e-11
221 2 6.815801435148e-03 2.470599916803e-03 1.305536564217e-02 -1.031768164561e-07 2.313085731649e-07 9.072786209009e-10 -2.024072927209e-04 3.101024710008e-05 -6.211960971492e-05 1.000000000000e-03 1.047197551197e-05 1.260169559005e-10 -2.954069515932e-10 7.344234968846e-12
222 2 9.832092979595e-03 7.063493301213e-04 8.378249599802e-03 -8.739576986201e-08 2.338240332577e-07 2.620248108514e-08 4.937786322464e-05 1.936015090715e-04 -5.392126322024e-05 1.000000000000e-03 1.047197551197e-05 1.493562458195e-10 -2.873837186817e-10 2.731333141011e-11
223 2 6.912044786696e-03 1.927742517003e-03 6.311373268923e-03 -3.813424511543e-08 3.148452794059e-07 6.786565387191e-08 2.345714615605e-04 9.061445162182e-05 1.520485547156e-05 1.000000000000e-03 1.047197551197e-05 1.367148989874e-10 -3.810629552925e-10 -6.441222253905e-11
224 2 1.577972544781e-03 1.179640192739e-02 2.655486625038e-03 5.087375158506e-07 7.410182019381e-08 2.664684132586e-07 -4.755215443216e-04 2.548304695392e-04 1.248598262997e-04 1.000000000000e-03 1.047197551197e-05 -3.630312030931e-10 -3.805286800957e-11 -3.682414556908e-10
225 2 1.075877720800e-02 1.185147353390e-02 8.128042249256e-03 -8.800538290877e-07 1.173646258576e-07 4.769973695563e-07 -1.263343790903e-03 2.811455229287e-04 7.560938505975e-05 1.000000000000e-03 1.047197551197e-05 7.673469066028e-10 -3.006563135576e-10 -3.631850376459e-10
226 2 1.214953519108e-02 9.591943370594e-03 1.448508992614e-02 -5.444722278197e-08 1.116717333902e-07 -1.899743919862e-08 8.304620694604e-05 5.087377844819e-05 -6.010447684153e-06 1.000000000000e-03 1.047197551197e-05 2.358536253500e-11 -1.053986827075e-10 2.536306420698e-11
227 2 1.484632109520e-02 1.300097575706e-02 1.289493406637e-02 -2.351515414760e-07 3.604857293434e-07 -1.368555163912e-07 -1.068882582471e-04 1.308782786273e-04 6.591937841862e-07 1.000000000000e-03 1.047197551197e-05 2.384126294203e-10 -4.630296033521e-10 9.295337155709e-11
228 2 9.507289292558e-03 5.318237696113e-03 2.743101080850e-03 1.641284450898e-07 1.386390838748e-07 -5.116325459158e-09 4.788104272262e-05 2.867034640118e-05 9.804997840562e-05 1.000000000000e-03 1.047197551197e-05 -6.723567700504e-11 -1.487494266999e-10 4.505882868499e-11
229 2 1.929503788065e-03 8.805346403351e-03 9.121143008830e-04 -5.479221428447e-08 1.334736354252e-07 -4.211822840734e-08 -1.818334547116e-04 -1.200927763163e-04 -5.892758160135e-04 1.000000000000e-03 1.047197551197e-05 2.461982594964e-11 -1.268256678736e-10 3.022410288446e-11
230 2 5.700292673271e-03 4.299943291785e-03 9.914195194855e-03 -9.496213593601e-08 2.931725102946e-07 -4.297892674915e-08 -8.855257300550e-05 1.260456414386e-05 -6.397728783902e-05 1.000000000000e-03 1.047197551197e-05 1.346550041893e-10 -3.398172825516e-10 9.769451832100e-11
231 2 1.080482924680e-02 1.772015937252e-03 1.446557561892e-02 -8.208485356372e-08 1.211620549926e-07 -1.279226859336e-08 6.576188019928e-05 1.102670549997e-04 2.040739333016e-05 1.000000000000e-03 1.047197551197e-05 1.310336546603e-10 -7.409261333976e-11 2.812740536773e-11
232 2 9.223042461008e-03 7.227638761285e-03 1.600111774401e-03 1.493833819043e-07 1.260488391975e-07 1.029409641204e-08 2.782796896077e-04 -2.482641580701e-04 1.731117287236e-04 1.000000000000e-03 1.047197551197e-05 -1.433426756041e-10 -1.726564566867e-10 -4.113704740880e-11
233 2 3.640199168766e-03 1.411243639229e-02 6.920165590152e-03 2.244456680954e-07 4.822317099627e-07 -2.875567689145e-07 -3.180353713271e-04 -2.172025289597e-04 2.607549236997e-04 1.000000000000e-03 1.047197551197e-05 -1.882174798156e-10 -4.810584218365e-10 3.290094147902e-10
234 2 1.406458883470e-02 3.050280520692e-03 1.059956824167e-02 -4.619604151100e-08 5.804137805996e-07 -9.485932480611e-08 6.576614566871e-05 -7.078144591655e-05 -1.077480881225e-04 1.000000000000e-03 1.047197551197e-05 9.594595355131e-11 -5.090431669654e-10 1.008851010529e-10
235 2 8.274795832335e-03 7.931432574916e-03 1.157843774430e-02 -8.662409154939e-08 5.711181748195e-08 1.889343133500e-07 3.649146070580e-05 -5.823726802958e-06 1.333346443688e-04 1.000000000000e-03 1.047197551197e-05 2.594001691059e-11 -9.290341504570e-11 -1.771076603037e-10
236 2 3.470827698847e-03 5.945392745411e-03 7.340516789708e-03 1.574590299512e-07 3.457469568678e-07 1.377160612836e-07 7.339693055640e-05 4.928822771340e-04 1.283572616757e-04 1.000000000000e-03 1.047197551197e-05 5.629218867620e-11 -4.716006834330e-10 -1.481371824865e-10
237 2 8.250013671455e-03 1.049693044650e-02 1.270878768474e-02 -8.184328351789e-08 7.826069999625e-09 2.587559646870e-07 1.280579595665e-04 -1.497111022951e-04 1.022432499319e-04 1.000000000000e-03 1.047197551197e-05 1.018437481272e-10 -3.781526564744e-11 -2.177847849098e-10
238 2 1.562426736386e-03 1.364216855997e-02 1.043319716376e-02 -1.280942075694e-07 2.515847874744e-07 -2.558603461449e-07 1.529994341808e-05 1.876747406202e-04 1.548885505895e-05 1.000000000000e-03 1.047197551197e-05 8.015138519448e-11 -2.731920595604e-10 2.001520163226e-10
239 2 1.505896863613e-02 1.126147490206e-02 5.913215958917e-03 3.680249177641e-06 4.941835038915e-06 -9.353517189824e-07 -3.870226799963e-03 7.753521655273e-04 -4.473821366195e-03 1.000000000000e-03 1.047197551197e-05 -3.313284090792e-09 -5.033757510466e-09 9.075045192637e-10
240 2 9.562663930909e-03 1.058864588309e-02 1.125710466208e-02 -1.511303514918e-07 2.139060526986e-07 3.125061962227e-07 6.521476399927e-05 1.807962607305e-04 -1.500964081981e-05 1.000000000000e-03 1.047197551197e-05 1.442016501565e-10 -2.379159333536e-10 -2.767459462313e-10
241 2 3.054342910906e-03 1.188048507021e-02 9.103141177034e-04 1.259725015989e-07 1.261117415692e-07 6.155149666582e-08 -2.249396262575e-05 1.425165132575e-04 -1.769222204349e-04 1.000000000000e-03 1.047197551197e-05 -1.040511950362e-10 -1.103687447980e-10 -8.150808476965e-11
242 2 7.461833850613e-03 1.361688834350e-03 1.446746589782e-02 -1.050568897341e-07 1.752491293524e-07 -6.955844574981e-09 1.695433170820e-04 1.039781111659e-04 -9.979315131904e-05 1.000000000000e-03 1.047197551197e-05 1.266690047388e-10 -2.060701958201e-10 2.797969989308e-12
243 2 1.522930281409e-02 1.407327155498e-02 1.127907743743e-02 -1.253744871737e-07 4.679802696844e-07 -2.755142252734e-07 -5.813640592217e-08 -3.060428256081e-04 -2.666366307594e-04 1.000000000000e-03 1.047197551197e-05 1.511229850979e-10 -5.063390432496e-10 2.176567897017e-10
244 2 1.302878630670e-02 1.429065216101e-02 1.275777118570e-03 2.204779983015e-07 -1.801699900783e-08 -1.945789776712e-07 1.027562251665e-04 2.272840255060e-04 -1.839815808900e-04 1.000000000000e-03 1.047197551197e-05 -2.606282676379e-10 5.471313452255e-11 1.307156142687e-10
245 2 8.107370878273e-03 3.199207525246e-03 5.499277611252e-03 1.508891398839e-08 2.903164389929e-07 1.618171865806e-08 -1.726813534866e-04 -3.807101081802e-05 -4.913305791455e-05 1.000000000000e-03 1.047197551197e-05 1.069956137054e-10 -3.662534195714e-10 9.197211895978e-13
246 2 1.604143773452e-03 2.709427801231e-03 9.255658426170e-04 9.844333311836e-08 1.769034520915e-07 -3.858497556368e-08 -1.200926630426e-04 9.127040288788e-05 6.916333733335e-05 1.000000000000e-03 1.047197551197e-05 -2.843500392202e-11 -1.756828876790e-10 1.689188848236e-11
247 2 9.161228571010e-03 1.316054761740e-02 5.834979158783e-03 1.453298635477e-06 -1.053785180029e-06 1.130107077005e-06 -8.860719409827e-04 -1.546224602233e-03 -1.524146730762e-03 1.000000000000e-03 1.047197551197e-05 -1.283747937384e-09 9.860750595588e-10 -1.016902373471e-09
248 2 3.303250509177e-03 1.404459473793e-02 3.211837733012e-03 3.357354291554e-07 5.229128086329e-07 -1.873349852549e-07 -1.490355099493e-04 -1.625855142734e-04 -6.011580878162e-05 1.000000000000e-03 1.047197551197e-05 -2.875464571341e-10 -5.477444251985e-10 1.994448279514e-10
249 2 9.761172743594e-03 5.559044159782e-03 8.826138715913e-04 1.134080661812e-07 1.037949129410e-07 -3.108125111522e-08 -9.983199539609e-05 6.919399170483e-05 -2.320909653363e-04 1.000000000000e-03 1.047197551197e-05 -5.554067068702e-11 -1.285559980752e-10 4.091550568289e-11
250 2 2.713728525775e-03 1.206337075804e-02 9.671467442494e-03 -3.017465030889e-07 6.008636179463e-07 -1.763085819979e-07 -9.776432157748e-05 -5.484792013566e-05 4.823934403846e-04 1.000000000000e-03 1.047197551197e-05 2.571892611392e-10 -5.966646325278e-10 1.285422280147e-10
251 2 3.408220141246e-03 6.433067670967e-03 1.444357763541e-02 -1.095567304112e-07 9.051603527222e-08 -3.087691755548e-08 5.765984963249e-05 1.075740887873e-04 -1.848702159860e-05 1.000000000000e-03 1.047197551197e-05 1.143243147113e-10 -8.667028391214e-11 2.481496329951e-11
252 2 8.300385697223e-04 4.554963726044e-03 9.747362891362e-04 2.635727505346e-08 3.838185568934e-08 -3.574018903175e-08 -3.595866608544e-05 4.226238045048e-05 3.019874163401e-04 1.000000000000e-03 1.047197551197e-05 -1.997597393454e-11 -8.619503226337e-11 1.618937204440e-11
253 2 1.442663204850e-02 7.974592575531e-03 8.755733660763e-03 -1.080264481726e-06 1.592837164346e-06 -7.061064864228e-07 1.459343018897e-03 5.987663923872e-04 -5.976433524318e-04 1.000000000000e-03 1.047197551197e-05 2.578072552821e-10 -1.181072833713e-09 -3.374208860362e-10
254 2 4.384494575686e-03 3.999007546145e-03 1.013162475791e-03 8.076743186468e-124 1.644035024381e-123 1.142736680383e-124 -3.047898820710e+02 2.142112697329e+03 -1.076830197655e+02 1.000000000000e-03 1.047197551197e-05 -8.084463280228e-125 -1.645606462799e-124 -1.143828956577e-125
255 2 4.712164511751e-03 1.860127160510e-04 1.014384047916e-02 -1.107917567403e-07 3.312633456288e-07 -5.312660461901e-09 1.534096753212e-05 1.151322084209e-04 -4.255674314551e-05 1.000000000000e-03 1.047197551197e-05 1.266615016139e-10 -3.733039091594e-10 3.653650169574e-11
256 2 1.320157178135e-02 7.786060924368e-03 1.178594819191e-02 -1.715241128007e-07 3.761984738740e-07 -3.245584667311e-07 2.791972087716e-04 1.237726725475e-04 3.523551624640e-05 1.000000000000e-03 1.047197551197e-05 1.436076872169e-10 -2.625020417408e-10 1.507298096917e-10
257 2 6.590621197893e-03 9.565953050770e-03 4.789946518728e-03 1.198757124864e-07 2.305652579203e-07 -7.234029281076e-08 -6.363952806814e-05 -7.434798752644e-05 -1.155518802714e-04 1.000000000000e-03 1.047197551197e-05 2.629278279977e-11 -2.615444014096e-10 -3.086045740827e-11
258 2 2.491262756440e-03 1.819771439602e-03 1.227813981863e-02 -2.407838673889e-07 3.964935967347e-07 6.976109376623e-08 2.093623457770e-04 7.026654914871e-05 1.636539303080e-04 1.000000000000e-03 1.047197551197e-05 2.630657671815e-10 -4.287003815744e-10 -3.806650520619e-11
259 2 1.534031078546e-02 6.250090943979e-03 1.010096113987e-02 -2.706571952877e-07 9.338150394405e-07 -6.163869827805e-07 8.396805164219e-04 -1.524305059592e-04 -5.994101305991e-05 1.000000000000e-03 1.047197551197e-05 2.202126115337e-10 -7.031229445172e-10 3.905615283836e-10
260 2 7.126189700025e-03 1.123870129333e-02 1.570606985425e-03 4.469132758459e-07 1.511952343551e-07 2.995758473696e-07 2.805490832440e-04 -4.576415234102e-05 3.438567683101e-05 1.000000000000e-03 1.047197551197e-05 -3.715936091895e-10 -1.353876146733e-10 -2.618844250146e-10
261 2 1.393591899372e-02 4.788815159784e-03 7.400674003626e-03 -2.785835403838e-07 2.817522586479e-07 -1.822823696276e-07 4.814978688408e-05 9.105361073849e-05 3.078496722110e-04 1.000000000000e-03 1.047197551197e-05 3.920309283392e-10 -3.774701521888e-10 1.053854039101e-10
262 2 1.743030534598e-03 1.440799658447e-02 1.449964656491e-02 -1.594325692135e-07 2.877201115539e-07 -4.203098278006e-08 2.530592077512e-04 1.581686910821e-04 -9.889153359552e-05 1.000000000000e-03 1.047197551197e-05 1.666966740743e-10 -3.297866436434e-10 4.202562184790e-11
263 2 1.024373467204e-02 7.037205666995e-03 3.275570578613e-03 1.213075021026e-08 1.870806783692e-07 -4.866830491818e-08 -3.600072529334e-05 1.076200554123e-04 9.497674133234e-05 1.000000000000e-03 1.047197551197e-05 9.675820593459e-11 -1.661100069353e-10 2.639402588195e-11
264 2 1.210035216359e-02 1.258430918468e-02 1.084556479084e-03 1.374769643528e-07 -1.181620179120e-07 -4.487690780626e-08 -8.249249850169e-04 -3.721797616374e-04 1.862351311822e-04 1.000000000000e-03 1.047197551197e-05 -2.725359086711e-10 2.451200691862e-10 -5.322328484360e-11
265 2 1.497473771253e-02 1.196199115999e-02 1.456302824584e-02 -1.096310457893e-07 1.679359316769e-07 -5.605650707499e-08 1.312793941812e-04 1.535723327654e-04 2.581383703290e-04 1.000000000000e-03 1.047197551197e-05 9.225120588845e-11 -2.013629080722e-10 5.280743447352e-11
266 2 8.092445865206e-03 1.257855212951e-02 1.333840206344e-02 -1.192251106354e-07 8.461687891724e-08 3.783623402933e-07 -8.973537909037e-05 2.003523479952e-04 8.528075241216e-05 1.000000000000e-03 1.047197551197e-05 1.140218470378e-10 -1.214819098044e-10 -3.724763509106e-10
267 2 4.880229329386e-03 5.357105018027e-03 5.730515539238e-03 -2.129713557096e-08 3.201373058700e-07 -5.348777351224e-08 1.602969245146e-04 2.466433941371e-04 1.068147818842e-04 1.000000000000e-03 1.047197551197e-05 2.178215552521e-10 -3.775387876859e-10 5.263899121145e-11
268 2 5.039060367949e-03 9.728521146849e-03 1.330842467286e-02 -1.295669258206e-07 1.429299045394e-07 9.854695704006e-08 2.497496548924e-04 3.918610456697e-06 2.533185436127e-04 1.000000000000e-03 1.047197551197e-05 8.596487257530e-11 -1.513264927830e-10 -1.373515996919e-10
269 2 5.473463185885e-03 1.051247077444e-02 3.048883828971e-03 1.035722627504e-07 1.248172536653e-07 -2.566265546165e-07 -2.322115936807e-04 1.857773026190e-04 -1.021761519863e-04 1.000000000000e-03 1.047197551197e-05 -9.092464009745e-11 -1.304992641701e-10 2.213546094557e-10
270 2 4.976083859474e-03 3.012591785092e-03 1.448941789790e-02 -4.181145442936e-08 1.032426285997e-07 -2.382467233713e-08 8.539677912737e-05 4.609996060194e-05 6.209188623177e-06 1.000000000000e-03 1.047197551197e-05 3.246240327108e-11 -1.268231158263e-10 3.116608737717e-11
271 2 5.952181547645e-03 7.662620399015e-03 9.325612096845e-04 1.077729307566e-07 2.706100574412e-08 -9.607258002516e-09 -9.557897939349e-06 1.120828076555e-04 -2.913521181138e-05 1.000000000000e-03 1.047197551197e-05 -1.341124925790e-10 -4.617593779551e-11 7.333332585968e-12
272 2 1.085688535077e-02 8.009657224917e-03 1.362378782736e-02 1.704902288656e-08 2.009940721341e-07 6.066845611724e-09 -8.253255365332e-05 -4.614448733171e-05 4.254742634735e-06 1.000000000000e-03 1.047197551197e-05 -3.895766576962e-11 -2.110598974030e-10 -3.564557798790e-11
273 2 1.081479310148e-02 5.083383999102e-03 6.299713708814e-03 -1.367152097196e-07 2.273644927738e-07 -4.555704582086e-08 1.101099227989e-04 -4.894440899886e-05 1.258465015349e-04 1.000000000000e-03 1.047197551197e-05 2.038905957506e-10 -2.745556011142e-10 9.255618657211e-11
274 2 1.965746086514e-04 3.412935648118e-03 1.174529590565e-02 -7.147874258075e-08 4.777451302342e-07 -1.269754501103e-07 -5.660026182245e-05 3.383099430297e-05 5.091190221184e-05 1.000000000000e-03 1.047197551197e-05 1.049804857325e-10 -5.556480679495e-10 1.395481088947e-10
275 2 6.477809409857e-03 1.170683068118e-02 7.854601441201e-03 -4.231590393858e-07 2.576005992540e-07 5.705494245058e-07 -1.139532710790e-04 2.737969786809e-04 -2.495324385311e-04 1.000000000000e-03 1.047197551197e-05 4.451619339450e-10 -2.932298240551e-10 -5.539332474847e-10
276 2 3.067325894472e-04 1.224183802119e-02 1.129971190592e-02 -2.628812778058e-07 3.902755332124e-07 -2.166858843143e-07 -8.169184363617e-05 2.456198482969e-04 1.540045075971e-04 1.000000000000e-03 1.047197551197e-05 2.092578908969e-10 -4.556392210767e-10 1.314874905159e-10
277 2 6.266846433780e-03 1.287395802480e-02 9.321321173231e-04 1.972864073507e-07 5.509207509266e-08 9.235346323725e-08 -1.405637937249e-04 1.057855653831e-05 3.971057048118e-05 1.000000000000e-03 1.047197551197e-05 -1.657736153756e-10 -4.610337866737e-11 -7.651386619675e-11
278 2 8.011854203120e-03 7.088203829430e-03 7.534459186753e-03 -1.895671673037e-07 1.711340001171e-07 9.616030078902e-08 2.156112950707e-04 -2.376484351004e-04 2.319656002596e-04 1.000000000000e-03 1.047197551197e-05 1.702470544776e-10 -1.297513323630e-10 -1.763951404377e-10
279 2 8.851393199533e-03 1.038622804960e-02 8.897215030537e-03 -5.790134524232e-07 4.928842441473e-08 4.684213927918e-07 -3.160629117492e-05 5.225342206246e-05 -1.029225535508e-04 1.000000000000e-03 1.047197551197e-05 5.493529334214e-10 -3.595876436543e-11 -4.191770207319e-10
280 2 6.447446771026e-03 4.143806853923e-03 9.235187531061e-04 9.772633552581e-08 3.530218076221e-08 2.442348530287e-08 -2.555608473161e-05 8.663826743376e-05 1.093574018037e-05 1.000000000000e-03 1.047197551197e-05 -1.101664965165e-11 -4.553571841027e-11 -1.972150123452e-11
281 2 4.377077907362e-03 1.326267767261e-02 8.253986833769e-04 1.757517409259e-07 8.924117907688e-08 -1.243656486041e-08 -8.257676067603e-05 7.443627461120e-05 2.267535118036e-05 1.000000000000e-03 1.047197551197e-05 -1.483360504350e-10 -1.206424785029e-10 -1.708068585302e-11
282 2 1.219244957373e-02 1.304285516014e-02 9.093282493415e-03 -3.725707682739e-07 2.982428147795e-07 -4.645337474005e-07 1.208690628984e-05 2.527722017440e-04 -2.984612238850e-04 1.000000000000e-03 1.047197551197e-05 2.959908662624e-10 -3.339069066099e-10 4.098654335867e-10
283 2 8.180497072773e-03 9.300758212244e-03 1.449999816807e-02 -2.888261644855e-08 3.992923027365e-08 3.847343945514e-08 1.181612365420e-05 1.802174446530e-05 2.374875686529e-05 1.000000000000e-03 1.047197551197e-05 4.068196340224e-11 -6.022313870824e-11 -4.520165454373e-11
284 2 1.009500832566e-04 6.152164657539e-03 2.087885447417e-03 -3.513358752873e-08 2.323074847303e-07 -1.113704426141e-07 1.782098417295e-06 3.166972831680e-04 -6.510723671308e-04 1.000000000000e-03 1.047197551197e-05 7.121209583745e-11 -2.859487455857e-10 1.530709149082e-10
285 2 1.052426965090e-03 1.275636523071e-02 1.382454987953e-02 -2.572233187972e-07 4.171244057753e-07 -1.347851456680e-07 -1.146011056503e-04 -7.565575202518e-05 -1.842148392562e-05 1.000000000000e-03 1.047197551197e-05 2.675136208652e-10 -4.618126820764e-10 8.252906286688e-11
286 2 1.246487445444e-02 2.883814357697e-03 4.436763132904e-03 -4.183492866948e-08 1.347780726955e-07 -4.705498081095e-08 -2.098849489614e-06 -1.167166877100e-04 2.960775513295e-05 1.000000000000e-03 1.047197551197e-05 8.102526997317e-11 -2.193732391424e-10 7.139210000188e-11
287 2 9.634642512231e-03 6.967604040175e-03 1.260393716106e-02 -7.791848321955e-09 1.617152599201e-07 5.425843475018e-08 6.876591007444e-05 9.709565288088e-05 2.429779970117e-05 1.000000000000e-03 1.047197551197e-05 -3.668871080419e-11 -1.654263098687e-10 -3.215982135269e-11
288 2 7.215675700602e-03 1.273840385479e-02 2.808798558781e-03 4.683972954224e-07 3.660232768541e-07 3.821564293532e-07 -6.706329094557e-04 -1.390179051852e-04 3.429854353630e-04 1.000000000000e-03 1.047197551197e-05 -4.162546509653e-10 -2.755944894107e-10 -3.468274376711e-10
289 2 1.141427466501e-03 9.186552766429e-03 3.038055935396e-03 1.111416870884e-07 4.262384742280e-07 1.354597084276e-06 -1.786458431329e-03 1.544265426743e-03 1.455093810665e-05 1.000000000000e-03 1.047197551197e-05 -2.526030286086e-10 9.858092231524e-12 -1.151215809592e-09
290 2 8.877052707369e-03 8.581193572546e-03 8.326935306710e-03 -6.493459148142e-07 -2.901121456048e-08 3.871811550405e-07 6.607680236054e-05 1.393337180971e-05 -4.650928936940e-05 1.000000000000e-03 1.047197551197e-05 5.916706819892e-10 -5.844013644238e-11 -3.904035504158e-10
291 2 5.924897511138e-03 5.297738587300e-04 1.902098674087e-03 2.074823480090e-07 1.459532817187e-07 3.443617716002e-08 8.121874569161e-05 -1.367634742674e-04 -2.813137169898e-06 1.000000000000e-03 1.047197551197e-05 -1.434454605074e-10 -1.354548820432e-10 -4.493137982211e-11
292 2 1.374086796972e-02 3.365556579857e-03 1.249532618424e-02 -4.299736623820e-08 3.849544745790e-07 -6.793958499421e-08 1.867675486104e-04 5.403638484124e-05 -7.555470964678e-05 1.000000000000e-03 1.047197551197e-05 5.715790536574e-11 -4.135024552836e-10 5.099626986982e-11
293 2 9.513250750115e-03 9.895275477128e-03 3.998160634441e-03 -5.741135395404e-07 -5.098890406265e-07 -3.274529528453e-08 -4.495956890268e-04 -1.391686881411e-04 1.641945986925e-04 1.000000000000e-03 1.047197551197e-05 6.221305158173e-10 5.939514733798e-10 -1.766511927066e-10
294 2 5.576787004222e-03 1.107657409562e-02 4.868700620641e-03 3.339504402136e-07 4.518662219579e-07 -2.701340578387e-07 -2.950864281193e-05 -6.880243950302e-05 -1.667568080711e-04 1.000000000000e-03 1.047197551197e-05 -2.334793284643e-10 -4.310786744849e-10 2.864620692294e-10
295 2 1.299431711615e-03 8.380518237838e-03 1.315202925954e-02 -9.106323794602e-09 3.509483271741e-07 -1.147345130916e-08 -1.674073753337e-05 -1.903312952484e-04 -1.855529441070e-04 1.000000000000e-03 1.047197551197e-05 -3.704405785216e-11 -3.940490054510e-10 -8.476657038972e-11
296 2 1.072856512816e-02 1.173644194399e-02 2.694595949878e-03 6.627151601392e-07 8.974475617306e-07 9.798665420889e-07 -1.388104746016e-03 -7.624150590320e-04 1.803901711078e-03 1.000000000000e-03 1.047197551197e-05 -7.514360727422e-10 -3.417590067332e-10 -7.906994239119e-10
297 2 1.312640148841e-02 1.082191824755e-02 6.154586349630e-03 4.963603734665e-06 4.008708254915e-06 1.211947049864e-07 -7.134976715968e-04 8.726235580912e-03 1.796854096339e-02 1.000000000000e-03 1.047197551197e-05 -4.891965945045e-09 -4.298954792294e-09 -1.836169700471e-09
298 2 3.632124617115e-03 1.490467469113e-02 1.444710486174e-02 -1.223349269815e-07 1.744871650299e-07 -3.870473425835e-08 9.728713829847e-05 1.314222769873e-04 3.875575977204e-05 1.000000000000e-03 1.047197551197e-05 1.308636703121e-10 -2.726394743197e-10 5.838691270723e-11
299 2 1.452564361078e-03 8.257571778720e-03 9.345631408434e-03 6.947327436213e-07 7.196783553174e-07 4.718854169700e-07 8.097064605184e-04 -1.160461619412e-03 1.159033337456e-04 1.000000000000e-03 1.047197551197e-05 -8.633627480309e-10 -9.842368282237e-10 -7.534604385835e-10
300 2 4.221434514794e-03 4.944112940915e-03 1.124669187519e-02 -7.629251306051e-08 3.806433597028e-07 -7.433545964737e-08 4.249030821248e-05 -5.484093196181e-05 -1.144340184500e-05 1.000000000000e-03 1.047197551197e-05 7.821598176478e-11 -4.196878867365e-10 9.523996653939e-11
301 2 1.382643916301e-02 3.486045009898e-03 1.442648930929e-02 4.040470433015e-08 9.591205136316e-08 -3.681379393004e-08 5.037769551003e-05 -1.359110764675e-05 -3.009803352350e-04 1.000000000000e-03 1.047197551197e-05 -5.515887278646e-11 -9.146981893179e-11 4.260143908267e-11
302 2 1.396518747317e-02 1.154902863397e-02 9.614418926814e-03 -2.635635321896e-07 6.028135168042e-07 -1.112626610855e-07 7.471101560375e-05 1.032713034726e-03 -3.965368521764e-04 1.000000000000e-03 1.047197551197e-05 2.075986802358e-10 -7.226291719272e-10 5.460467844324e-11
303 2 1.854083494661e-03 1.274521036081e-02 7.422545000329e-03 -8.474419671115e-08 5.053646676142e-07 -3.384528187561e-07 -2.114726744909e-04 6.598554624681e-05 9.490393701437e-04 1.000000000000e-03 1.047197551197e-05 1.825929487737e-10 -5.237027194542e-10 3.334494642532e-10
304 2 1.783072154991e-03 6.757913571907e-03 1.038621723233e-02 -1.125157292741e-07 3.781806664777e-07 -6.521651404670e-09 1.403802086962e-04 -5.702814773860e-06 -2.539323340122e-04 1.000000000000e-03 1.047197551197e-05 2.134187218539e-10 -3.368557769968e-10 -1.248259596873e-10
305 2 1.639796919892e-03 1.114007115969e-02 5.664533901021e-03 1.629077562176e-06 9.999219371201e-07 -3.609461631308e-07 9.402622844706e-04 -2.472405702472e-04 7.342011625998e-04 1.000000000000e-03 1.047197551197e-05 -1.359501933207e-09 -8.867619901648e-10 4.220134236238e-10
306 2 1.413643004166e-02 4.208087297599e-03 5.551019594828e-03 -1.367718066807e-07 1.853136744429e-07 -1.306768750612e-07 7.146421712710e-05 -6.993106133093e-05 -2.126333920357e-05 1.000000000000e-03 1.047197551197e-05 1.857563275993e-10 -2.196413019762e-10 7.181748372008e-11
307 2 1.378856166937e-02 1.004453601264e-02 4.521932979084e-03 1.516891484884e-06 2.734364749665e-06 -2.846991855105e-07 -4.884553360650e-03 1.004094402104e-03 -1.394722669132e-03 1.000000000000e-03 1.047197551197e-05 -1.434883031057e-09 -1.366862314398e-09 -1.110985853574e-09
308 2 1.127505120731e-02 7.498003101176e-03 1.178238341217e-02 -7.864010326713e-08 2.645147993533e-07 -9.208142497526e-08 6.562064148223e-06 6.951378347504e-05 -2.459258699190e-06 1.000000000000e-03 1.047197551197e-05 4.152588030935e-11 -1.616654736866e-10 3.188279894835e-11
309 2 3.605698842541e-03 1.002846907357e-02 9.622761234981e-04 -4.351174855116e-08 7.683495143254e-08 -7.642899923377e-09 3.005767508064e-05 -1.121417543050e-04 2.784896759839e-05 1.000000000000e-03 1.047197551197e-05 -7.313423313554e-12 -1.047001632790e-10 -1.633340553689e-11
310 2 6.905129044656e-03 9.125105452029e-03 3.035314370127e-03 -1.090686260093e-07 7.841585837186e-08 -1.578256445709e-07 -1.365748319149e-04 2.712455070642e-04 2.478417436841e-05 1.000000000000e-03 1.047197551197e-05 6.707491431281e-11 -1.086496037796e-10 1.071087478727e-10
311 2 1.278913539983e-02 1.241054991409e-02 7.280794662922e-03 -9.748242269678e-07 3.096502518929e-06 -8.175014558966e-07 -4.190254833528e-03 4.312225330457e-03 2.091385412107e-03 1.000000000000e-03 1.047197551197e-05 8.242803992924e-10 -5.110065826105e-09 5.617041764819e-10
312 2 1.245252516420e-02 1.088096405028e-02 8.510064923404e-03 4.754834875356e-07 2.211606452431e-06 2.906570284191e-07 2.459222670078e-03 -1.620625724602e-03 9.864842973106e-04 1.000000000000e-03 1.047197551197e-05 -6.702321619743e-10 -2.216801444580e-09 3.831340851752e-10
313 2 8.325336246529e-03 1.005354832487e-02 2.549696914942e-03 -1.663046505991e-08 -2.191910568719e-07 -1.231812262081e-07 4.089694958213e-04 -2.292309272462e-04 -4.315126795102e-04 1.000000000000e-03 1.047197551197e-05 -2.395081437376e-11 1.537169077007e-10 1.017172773641e-10
314 2 5.034671132329e-03 1.358168194779e-02 1.261191675778e-02 -1.832444527314e-07 4.015389384443e-07 7.219349211565e-08 6.010053084903e-05 -9.900139232180e-05 2.391826306058e-04 1.000000000000e-03 1.047197551197e-05 1.811989829299e-10 -4.198704570445e-10 -6.782011622669e-11
315 2 4.099959643978e-03 1.011428887037e-02 8.018692712548e-03 1.204250021508e-25 -4.806819685756e-26 1.268684185669e-25 -4.712181758416e+01 -7.653152391779e+00 -3.087583725659e+01 1.000000000000e-03 1.047197551197e-05 -1.205401094763e-26 4.811414247921e-27 -1.269896847833e-26
316 2 7.659473481452e-03 5.487174838870e-03 6.073899758518e-03 -4.590454887327e-08 1.473097406322e-07 1.150753131552e-07 3.640965062017e-05 -1.019760117987e-04 1.507802960895e-04 1.000000000000e-03 1.047197551197e-05 1.361356889463e-10 -2.075575663173e-10 -1.111649406544e-10
317 2 1.382953548282e-02 4.289505995377e-04 1.447366760707e-02 -3.724423399491e-08 2.289450655565e-07 3.150024485901e-09 2.007996178080e-04 3.790007841369e-05 -5.692292267346e-05 1.000000000000e-03 1.047197551197e-05 8.929403970144e-11 -2.858341801693e-10 -2.462626065317e-11
318 2 1.397203745754e-02 2.849113325424e-03 7.402443547523e-03 6.827061808173e-09 3.156058782071e-07 -3.371565812233e-07 5.290739417862e-06 1.992874164926e-05 1.096461068050e-05 1.000000000000e-03 1.047197551197e-05 -4.547870706877e-11 -5.191127096800e-10 1.971300095838e-10
319 2 3.185809520090e-03 1.213419186791e-02 1.152473976895e-02 -3.340895126510e-07 4.490394981261e-07 -1.127427442651e-07 2.135791617911e-04 1.895415044823e-05 -2.213068185273e-04 1.000000000000e-03 1.047197551197e-05 3.341050386197e-10 -5.183125505006e-10 5.728850332899e-11
320 2 6.784562845581e-03 9.085403578206e-03 1.009888810658e-02 -2.901391610498e-07 1.255748987866e-07 2.256959374315e-07 -8.205497944038e-05 -8.293180737119e-05 3.787889879620e-04 1.000000000000e-03 1.047197551197e-05 2.526370790917e-10 -1.459181168669e-10 -2.485320424202e-10
321 2 6.696215098182e-03 1.289904147876e-02 1.197627367063e-02 -2.028539887092e-07 2.850425118844e-07 2.634996189423e-07 -3.610189024446e-04 2.929500541719e-05 -2.848097464247e-04 1.000000000000e-03 1.047197551197e-05 1.980726291688e-10 -3.162932500535e-10 -2.391707028213e-10
322 2 1.492819777009e-02 6.198551034648e-03 8.222226794350e-03 -1.358508768687e-06 1.586892059954e-06 -1.050930026269e-06 -4.996861931498e-04 1.282285848427e-03 2.122314354452e-03 1.000000000000e-03 1.047197551197e-05 1.058448368683e-09 -1.333273801039e-09 6.812122211091e-10
323 2 1.013960417974e-02 9.611592081225e-03 1.442332929180e-02 -3.992023233967e-08 1.578066672970e-07 1.346318242557e-08 1.450027881024e-04 3.394339139350e-05 8.013912263861e-05 1.000000000000e-03 1.047197551197e-05 2.987727338280e-11 -1.521734946983e-10 -3.437392134821e-13
324 2 1.360768293796e-03 9.113858528077e-03 7.673829697871e-03 1.397508465438e-06 1.260642525610e-07 9.412105292923e-07 -1.530501289732e-03 4.667963016468e-05 2.339049423231e-03 1.000000000000e-03 1.047197551197e-05 -1.709415546302e-09 -3.146673701350e-10 -1.359591103180e-09
325 2 7.239071497589e-04 7.115348084374e-03 1.447830533661e-02 -4.594813103367e-08 2.117682055880e-07 -7.838353629090e-08 1.427747761456e-04 2.930001166737e-05 2.437589261463e-04 1.000000000000e-03 1.047197551197e-05 -2.444529653173e-12 -2.210374996322e-10 3.119607809187e-11
326 2 7.438841580036e-04 6.978770979461e-03 1.189415444772e-02 -7.266508596149e-08 4.264758095600e-07 -1.856044220439e-07 1.045305233562e-04 -2.210222320082e-04 -2.095500222364e-04 1.000000000000e-03 1.047197551197e-05 8.508290660349e-11 -4.641300119586e-10 -1.717677256763e-11
327 2 6.078529402943e-03 1.448624058637e-02 1.110445067039e-02 -8.948839903498e-08 2.459083984121e-07 -2.590028609392e-08 1.524197865357e-05 -3.581452184360e-05 1.889387275989e-05 1.000000000000e-03 1.047197551197e-05 1.313539184522e-10 -2.875202100867e-10 2.077926583714e-11
328 2 9.537317705396e-03 1.423881278472e-02 9.070108120564e-03 -4.339051107460e-07 2.522950133678e-07 1.703196156074e-07 -2.234497026881e-04 -5.205222635776e-05 -3.629238911786e-04 1.000000000000e-03 1.047197551197e-05 3.975121467615e-10 -2.482407964951e-10 -5.792475683005e-11
329 2 1.789442434404e-03 7.325958590408e-04 9.310259218121e-04 7.202788844782e-08 1.211912341573e-07 -5.467763012037e-08 -5.584376158248e-05 4.144807455088e-05 -1.162572665573e-04 1.000000000000e-03 1.047197551197e-05 -4.326944546939e-11 -1.073791602699e-10 4.037861526759e-11
330 2 2.483771762069e-03 6.845504063782e-03 1.279290151955e-02 -8.092918714736e-09 3.253977972714e-07 -1.322678770790e-07 1.486176144498e-04 -3.090231336088e-04 -8.748743339923e-05 1.000000000000e-03 1.047197551197e-05 1.025244615565e-11 -3.513938174762e-10 5.972945834750e-11
331 2 5.411108950620e-03 1.139323894082e-02 1.431948665664e-02 -2.060384131842e-07 1.150814665127e-07 1.035534988286e-07 -2.558285126504e-04 -9.973380218889e-05 -1.802204441850e-04 1.000000000000e-03 1.047197551197e-05 1.875312732727e-10 -1.538920286500e-10 -1.389319423767e-10
332 2 1.291895887312e-02 7.879537971875e-03 4.413470578723e-03 -2.400204583194e-08 7.136828176991e-07 5.041301690781e-07 -1.647539573512e-04 -6.148069830651e-04 -2.278289498536e-04 1.000000000000e-03 1.047197551197e-05 2.648100655496e-11 -5.041232382508e-10 -6.215688336261e-10
333 2 5.224877726215e-03 6.625681030674e-04 1.189266603047e-02 -1.280989393390e-07 2.237343426037e-07 -8.171555939841e-09 6.099975645940e-05 -1.254146896373e-04 -1.518363136014e-05 1.000000000000e-03 1.047197551197e-05 1.578963848262e-10 -2.745672595225e-10 3.174189701518e-12
334 2 1.631580509119e-03 7.151323190150e-03 6.484515984667e-03 -8.850951655643e-08 -3.530110312907e-07 5.478391859244e-07 1.191752739757e-03 1.073669106258e-04 1.494636615796e-04 1.000000000000e-03 1.047197551197e-05 7.941002749663e-10 -2.115146383368e-10 -5.012144302119e-11
335 2 1.150769838847e-02 1.597313974147e-03 8.866292558788e-03 -6.576827045022e-08 3.000782140612e-07 1.973890182746e-07 2.016031167984e-04 -1.864894423206e-04 1.524462665610e-04 1.000000000000e-03 1.047197551197e-05 1.431451495688e-10 -4.304185051917e-10 -1.753851074850e-10
336 2 3.446877406226e-03 1.242053938507e-02 4.173199271581e-03 3.758857216295e-07 7.340452464547e-07 5.661028745561e-08 -1.941616605706e-04 2.345400045462e-04 -2.881789932854e-04 1.000000000000e-03 1.047197551197e-05 -2.796721827347e-10 -7.649484587864e-10 -7.974718917778e-11
337 2 5.757560030115e-03 1.038350379466e-02 9.104917971858e-03 -3.639105340838e-07 2.484315817073e-07 5.550267796216e-07 3.761136953351e-04 2.910546049587e-04 -2.866284592828e-04 1.000000000000e-03 1.047197551197e-05 3.523008956033e-10 -1.878996881890e-10 -4.807597328677e-10
338 2 1.200225730250e-02 1.119796674985e-02 4.034257157938e-03 1.337553614588e-06 -6.821433872193e-07 7.411317203722e-07 3.124599604965e-03 1.488370964150e-03 -2.692004086665e-03 1.000000000000e-03 1.047197551197e-05 -1.531673409503e-09 6.092788444239e-10 -8.677525575487e-10
339 2 1.147299837000e-02 1.512058305324e-03 5.289037110981e-03 -1.032959112960e-07 -5.009799914485e-08 -1.193006894223e-07 -1.746810590081e-04 -2.430483509566e-04 2.496162975406e-04 1.000000000000e-03 1.047197551197e-05 1.194999512957e-10 -1.192059798978e-10 1.092208290730e-10
340 2 1.378814239097e-03 6.971691712744e-03 9.453436623892e-04 -1.030402966094e-07 1.012328786272e-07 -5.777327981141e-08 8.126385924639e-06 -1.708881551610e-04 5.202011188861e-04 1.000000000000e-03 1.047197551197e-05 -1.600312814665e-11 -8.029962619412e-11 9.644283308011e-11
341 2 3.084730942578e-03 5.646111997104e-03 9.185135716268e-04 -2.409807359051e-08 2.077204498347e-07 -5.351350161813e-08 -1.691149592934e-04 -3.033343856327e-05 1.233374279862e-04 1.000000000000e-03 1.047197551197e-05 -4.283452832634e-11 -1.314551269879e-10 1.830209429267e-11
342 2 1.218802876192e-02 2.351021482537e-03 6.878220058606e-03 -1.153174796109e-07 2.759346262734e-07 -9.440735187976e-08 -6.373089320565e-05 2.795443951487e-04 -4.555342958246e-05 1.000000000000e-03 1.047197551197e-05 1.094299511532e-10 -4.068251807031e-10 9.552384694834e-11
343 2 3.774078162771e-03 6.831653802986e-03 1.110360446093e-02 2.027141147017e-08 4.130259150241e-07 -8.783264490380e-08 -7.411747953274e-05 1.203392122407e-04 -1.578100994549e-04 1.000000000000e-03 1.047197551197e-05 6.167768718449e-12 -4.659433148126e-10 5.437089991497e-11
344 2 1.141726478519e-03 2.729859488288e-03 1.328107272044e-02 -4.005492155575e-07 2.919327891736e-07 5.693195884193e-08 -2.481037719308e-04 -1.219590355972e-04 3.772354255053e-05 1.000000000000e-03 1.047197551197e-05 4.297389526795e-10 -2.817505687253e-10 -4.572959305436e-11
345 2 8.011873515479e-03 1.430653446690e-02 1.428080474958e-02 -3.698559379789e-08 1.409538678704e-07 2.290563206959e-07 -9.296378194399e-05 1.752569966494e-04 -1.509463938077e-05 1.000000000000e-03 1.047197551197e-05 4.694773437377e-11 -1.344413442774e-10 -2.229298327869e-10
346 2 9.260579192770e-03 8.470963131367e-04 3.408093050882e-03 2.623061476319e-07 -1.569272894564e-07 -1.333337867672e-08 3.527445584760e-04 -2.883454678146e-04 -1.713470545559e-04 1.000000000000e-03 1.047197551197e-05 -1.497028475406e-10 1.424249046532e-10 1.307802035859e-11
347 2 9.882111527830e-03 8.869367055416e-03 1.213694796744e-02 -6.353080551954e-08 1.658647578923e-07 1.295654710933e-07 6.776220532535e-05 8.499371550523e-05 2.093002981220e-05 1.000000000000e-03 1.047197551197e-05 -2.442231757194e-11 -1.719946356110e-10 -9.496269033361e-11
348 2 1.130997814647e-04 1.059705601174e-02 2.284052257129e-03 1.786335455523e-07 -6.719974910350e-09 9.050151376207e-08 -3.699109584880e-04 -9.859690269773e-04 -5.112533945962e-04 1.000000000000e-03 1.047197551197e-05 9.678289645975e-12 3.333444779225e-10 -3.401061797776e-10
349 2 1.514585076381e-02 2.237199426514e-04 5.857513401206e-03 7.489396048406e-07 1.051943382671e-06 -1.304692604000e-07 -2.597257299504e-04 5.718592915677e-04 1.062057000454e-03 1.000000000000e-03 1.047197551197e-05 -6.318218736297e-10 -1.037646112032e-09 9.412666317053e-11
350 2 8.202554703654e-03 1.298826465582e-02 9.463940871766e-04 2.224089666669e-07 1.350489755172e-07 9.815246486547e-08 -3.139933498547e-04 8.923298225869e-05 2.624664428945e-04 1.000000000000e-03 1.047197551197e-05 -1.847353475021e-10 -8.036309235508e-11 -1.136555758181e-10
351 2 6.540923397747e-03 1.305100587292e-02 1.406369779020e-02 -1.249403953512e-07 1.680366135141e-07 2.204489605785e-07 -5.287928746266e-05 -3.243912656288e-04 -8.951670592384e-05 1.000000000000e-03 1.047197551197e-05 8.745168839661e-11 -1.829371363182e-10 -1.649416661601e-10
352 2 4.128306837603e-03 4.670647754539e-03 1.413496207302e-02 -8.925764182751e-08 1.079450107646e-07 -3.769340704962e-08 -4.792962060146e-05 -6.732007342587e-05 1.114955839358e-05 1.000000000000e-03 1.047197551197e-05 9.336070948493e-11 -1.356923655677e-10 4.379296508508e-11
353 2 1.044147688057e-02 4.307259578067e-03 1.235364083843e-02 -3.249571105142e-08 1.646911369885e-07 -1.097359173770e-07 8.246722218964e-05 -7.346672695849e-05 3.834907163390e-06 1.000000000000e-03 1.047197551197e-05 1.101506993894e-11 -1.663374715269e-10 8.294159495966e-11
354 2 2.635789629212e-03 7.624984150957e-03 8.010993555391e-03 9.593058451139e-07 2.129816635371e-07 4.099531119151e-07 -5.488364839971e-04 7.117695415837e-04 -4.615498358384e-04 1.000000000000e-03 1.047197551197e-05 -7.440554415405e-10 -2.763029146210e-10 -4.270470140453e-10
355 2 6.190181600550e-03 9.639934670802e-03 9.484902221456e-04 2.090936656069e-07 5.797020692490e-08 5.896919094134e-09 1.649233535781e-05 1.324027799615e-04 -1.294706474014e-04 1.000000000000e-03 1.047197551197e-05 -1.914238640310e-10 -5.216669145904e-11 -2.056209497606e-11
356 2 4.467898523462e-03 6.065567996043e-03 3.874059659066e-03 1.453312065549e-07 1.640364935822e-07 9.860043110977e-08 -4.315966610807e-05 3.089926094872e-05 -1.098546255121e-04 1.000000000000e-03 1.047197551197e-05 -3.421027772395e-11 -2.433439377139e-10 -1.682433150938e-10
357 2 7.247538979806e-03 9.546154128410e-03 8.322466583103e-03 -4.969960977582e-07 1.291165887553e-07 2.649024398811e-07 3.620064290536e-05 -1.319036826724e-04 -2.101467286325e-05 1.000000000000e-03 1.047197551197e-05 4.233060670349e-10 -1.817202745110e-10 -2.884736215432e-10
358 2 3.158793941721e-03 1.222492176471e-03 1.060548445599e-02 -1.709620540762e-07 4.375028056376e-07 1.208716090322e-08 -1.517992973585e-04 -3.073304019151e-05 3.118055988566e-05 1.000000000000e-03 1.047197551197e-05 1.878754450349e-10 -4.779450623753e-10 -1.915561376213e-11
359 2 1.820517253251e-03 3.171384407184e-03 8.357471105710e-03 -4.142953560291e-08 6.231288024273e-07 5.838999888060e-08 1.520495238295e-04 1.813456336329e-05 -2.560798044090e-05 1.000000000000e-03 1.047197551197e-05 8.630422562035e-11 -7.150270629678e-10 -3.403835127666e-11
360 2 4.480012628671e-03 1.468132218925e-02 1.939319238170e-03 2.638702597454e-07 2.563180232893e-07 -9.976236461070e-08 -8.694830310357e-05 2.556842279473e-05 -2.730152385341e-05 1.000000000000e-03 1.047197551197e-05 -1.854426312074e-10 -2.425489872550e-10 7.069463669203e-11
361 2 9.310101638430e-03 1.006579105271e-02 5.893309617689e-03 -1.132362763411e-06 1.910328299724e-07 1.856420502178e-08 -2.606410613214e-04 -3.165445904570e-04 3.338060444712e-04 1.000000000000e-03 1.047197551197e-05 1.169634075703e-09 -2.880704163160e-10 -1.268250745343e-10
362 2 4.319479801570e-03 9.618471942919e-03 4.344366638116e-03 1.454955013500e-07 3.984310250238e-07 -1.187408949296e-07 -2.867654070209e-04 -1.644296623294e-04 1.278726365321e-04 1.000000000000e-03 1.047197551197e-05 -1.452854770839e-10 -4.141243625493e-10 8.883161917015e-11
363 2 4.856285003426e-03 1.327841618082e-02 1.453099968728e-02 -1.453164845569e-07 1.498549947213e-07 -1.423905252381e-08 1.506087815740e-04 9.723982632901e-05 6.491429056784e-05 1.000000000000e-03 1.047197551197e-05 1.749070952971e-10 -1.905273938043e-10 7.802807499959e-12
364 2 7.519074044343e-03 6.465910846292e-03 9.757909813961e-04 1.582496169806e-07 4.263386919784e-08 -8.146237486631e-08 -7.638981707505e-05 1.550362845864e-04 -5.195314970298e-07 1.000000000000e-03 1.047197551197e-05 -1.527577928106e-10 -1.028977705978e-10 9.762128692191e-11
365 2 5.944344394004e-03 1.351866527206e-02 7.377920292556e-03 1.364958364798e-07 3.601632168208e-07 1.654594373510e-07 -1.915877389505e-04 -5.513519423086e-04 -1.955326285962e-04 1.000000000000e-03 1.047197551197e-05 -7.071181096401e-11 -3.842604490548e-10 -1.510305358468e-10
366 2 8.716603268459e-03 8.276266232102e-03 3.086597217114e-03 -2.346467730552e-07 -9.018763995982e-08 -1.178701267830e-07 -3.058540018330e-04 3.813958064003e-05 2.621865830985e-04 1.000000000000e-03 1.047197551197e-05 2.908826808631e-10 9.148373358881e-11 8.347831635042e-11
367 2 1.498400964396e-03 1.383296869795e-02 1.231683909207e-02 -1.173176194389e-07 3.025529748568e-07 -1.870594864207e-07 -1.740034183850e-05 -1.474288335402e-04 1.044406228677e-04 1.000000000000e-03 1.047197551197e-05 1.496054925305e-10 -3.828769726169e-10 1.420151412738e-10
368 2 9.810073070087e-03 5.761102643806e-03 4.723618118570e-03 -6.422361931733e-08 1.070231891851e-07 -4.113186048011e-08 9.096716022546e-05 -1.256259170528e-04 1.193762088611e-04 1.000000000000e-03 1.047197551197e-05 1.776773007157e-10 -1.973754116166e-10 7.224495474923e-11
369 2 3.940169385563e-03 7.380579228978e-03 1.110697550861e-03 -9.289423368314e-09 1.579506992366e-07 -7.601859834263e-09 1.734948723768e-04 -3.412994697552e-05 -1.610098323555e-04 1.000000000000e-03 1.047197551197e-05 -5.651169496165e-11 -9.999019220824e-11 -5.071824972333e-12
370 2 3.947461112047e-03 8.153874233820e-03 1.286634178633e-02 -2.818244468631e-08 1.914353636237e-07 4.681668290151e-08 3.238106252748e-05 9.719973201194e-05 -8.429323784111e-05 1.000000000000e-03 1.047197551197e-05 4.087965725296e-11 -2.030496810257e-10 -8.056856556397e-11
371 2 1.415541505500e-02 1.325235243671e-02 8.793290034150e-03 -1.486902040925e-07 2.642048233720e-07 -6.475431319735e-07 -4.760178162311e-04 -2.515817262431e-04 9.092531757207e-05 1.000000000000e-03 1.047197551197e-05 1.088898012202e-10 -4.548362768923e-10 4.120074112696e-10
372 2 9.554105388385e-03 1.305388535854e-02 1.438981386516e-02 1.120158481767e-08 1.423333008049e-07 9.892367778149e-08 8.585991816936e-05 7.005743310265e-05 1.573308605601e-05 1.000000000000e-03 1.047197551197e-05 9.826697262394e-12 -1.158253865738e-10 -6.486379079509e-11
373 2 1.019840761095e-02 4.749271897946e-03 9.340719886023e-03 -7.507238218738e-08 2.713968445831e-07 -8.446932897198e-09 3.997559255179e-04 -1.477793894224e-04 -3.083741254601e-05 1.000000000000e-03 1.047197551197e-05 8.101689706838e-11 -2.845507570243e-10 6.486841270201e-11
374 2 1.218486443766e-04 1.306186755906e-02 3.357977812023e-03 7.448834453945e-07 5.906904334813e-07 -3.100318922453e-07 1.004651485849e-03 -6.546223187532e-05 9.177620225645e-04 1.000000000000e-03 1.047197551197e-05 -6.313335882291e-10 -3.579525353653e-10 2.343472768977e-10
375 2 2.609728144233e-05 8.738003395896e-03 1.173121195918e-02 8.774007286665e-08 4.654476156957e-07 -3.876442872447e-07 -2.444309032173e-05 -1.496373993941e-04 1.446173265968e-04 1.000000000000e-03 1.047197551197e-05 -1.881134306797e-10 -5.268365793906e-10 3.168138679307e-10
376 2 9.737171601978e-03 7.012889629236e-03 1.061636852340e-02 -1.912842930542e-07 6.048645238862e-08 1.505676196853e-07 -2.339298526941e-04 1.359885355830e-04 -2.862760277314e-05 1.000000000000e-03 1.047197551197e-05 1.318515181376e-10 -1.079341691631e-10 -1.257037060208e-10
377 2 1.053152533850e-02 9.937730094680e-03 9.690843349034e-03 -5.347838589965e-07 1.660507958750e-07 2.493591363210e-07 -3.069665489568e-04 1.665217231441e-04 5.157693548756e-05 1.000000000000e-03 1.047197551197e-05 4.730024181461e-10 -1.952646104339e-10 -1.674703305049e-10
378 2 9.618376258829e-03 1.336593216855e-02 1.148776301593e-02 -2.074475726269e-07 1.564389221653e-07 3.283763896547e-07 -3.122156149911e-06 2.135417741127e-04 -1.604514086626e-04 1.000000000000e-03 1.047197551197e-05 1.763237066454e-10 -1.604360270174e-10 -3.015459978649e-10
379 2 2.280340361886e-03 9.751549396856e-03 4.484677596361e-03 1.190796210459e-06 1.037305213858e-06 -2.105867455282e-07 -5.456514446665e-04 -3.317133318615e-04 -1.671751277420e-03 1.000000000000e-03 1.047197551197e-05 -1.041102297333e-09 -8.084387044991e-10 1.198778116844e-10
380 2 1.023405572662e-02 8.182740553236e-03 4.863690315974e-03 -3.197411487512e-07 3.841812246664e-07 -2.034250978529e-07 -6.167587352492e-04 7.113277774499e-05 6.199846273655e-04 1.000000000000e-03 1.047197551197e-05 4.150887359089e-10 -2.276965864087e-10 8.564126548009e-11
381 2 2.154484200128e-03 1.308273938652e-03 1.447982187315e-02 -8.308854324012e-08 2.158724915792e-07 1.549576710326e-08 2.012004918292e-04 6.508301161571e-05 -1.819814021527e-05 1.000000000000e-03 1.047197551197e-05 1.046354080519e-10 -2.482103905361e-10 -1.780190538322e-11
382 2 1.306967887611e-02 1.501108953644e-03 1.231027428933e-02 -3.884387629052e-08 3.160896261947e-07 -6.118719715057e-08 1.661582362806e-04 5.481929090758e-05 -4.525114079328e-05 1.000000000000e-03 1.047197551197e-05 6.235644782746e-11 -3.189175359673e-10 3.850091780185e-11
383 2 1.460515692872e-02 1.523660396254e-03 9.815525530852e-04 2.432554916925e-08 9.535639155845e-08 -4.412294143757e-08 -6.570271195617e-05 3.329689249175e-05 -4.925470595655e-05 1.000000000000e-03 1.047197551197e-05 -6.274453417982e-12 -7.779794802410e-11 3.512290446663e-11
384 2 1.422601467036e-02 4.724821326506e-03 9.848769043801e-04 1.489843406500e-08 2.788228120283e-08 4.695236593045e-08 3.337949357941e-05 4.381578870649e-05 -2.891355112059e-04 1.000000000000e-03 1.047197551197e-05 -4.221073676235e-11 -3.375175045286e-11 -5.799959515365e-11
385 2 1.031301193785e-02 1.420904622769e-02 1.301715111014e-02 -1.994825515133e-08 1.553082576046e-07 1.304155659527e-07 -9.413474176885e-05 -2.481451039691e-05 5.988228580816e-06 1.000000000000e-03 1.047197551197e-05 3.871990867201e-11 -1.635948414437e-10 -1.545778401922e-10
386 2 7.976418995777e-03 1.417812369202e-02 1.097858096239e-02 -1.151124739972e-07 2.096355129173e-07 2.590865860322e-07 -2.969072987456e-04 -1.317078222137e-04 -3.741065018384e-05 1.000000000000e-03 1.047197551197e-05 1.636506039895e-10 -2.044885290938e-10 -2.670056723067e-10
387 2 4.686401055910e-03 1.985334730756e-03 7.098521413346e-03 -6.583034442718e-08 3.942082439683e-07 -6.009252244421e-08 7.758247714208e-05 -4.366077974561e-05 2.579981551024e-04 1.000000000000e-03 1.047197551197e-05 1.459935674954e-10 -4.797907820930e-10 4.095508399915e-11
388 2 1.302348358088e-02 1.479314114664e-02 8.691470511343e-03 -1.858114868063e-07 2.313513979866e-07 -2.882018478366e-07 5.540319528655e-04 5.311973637010e-04 -7.554356549286e-05 1.000000000000e-03 1.047197551197e-05 2.400179083798e-10 -3.960693596586e-10 1.956238657725e-10
389 2 8.086143208044e-04 4.518020957696e-03 1.320180643522e-02 -1.648025459666e-07 3.696138697597e-07 -1.316492148765e-07 8.491988204027e-05 -2.287850546987e-04 -2.512720513216e-04 1.000000000000e-03 1.047197551197e-05 2.102225166856e-10 -4.250531270114e-10 1.424409680783e-10
390 2 6.772040420954e-03 4.870742633031e-03 1.203589339223e-02 -8.798387782171e-08 9.297467207156e-08 2.059476193163e-08 -3.609516434510e-05 2.923545427045e-05 3.765866950088e-05 1.000000000000e-03 1.047197551197e-05 8.598115766166e-11 -1.386179627614e-10 3.538524027987e-12
391 2 1.352259577267e-02 3.905235153123e-03 3.187617754077e-03 1.027713410915e-07 2.240598923397e-07 2.030285605224e-09 1.156784868341e-04 9.123583485383e-05 -1.823173795759e-04 1.000000000000e-03 1.047197551197e-05 -1.105368732913e-11 -1.974398570065e-10 9.616051297302e-11
392 2 7.781836191882e-03 4.892670800048e-03 2.170959279948e-03 1.532473626363e-07 8.159772250133e-08 3.407381401127e-09 -3.864330197148e-05 -2.239238413329e-05 -3.326464955394e-05 1.000000000000e-03 1.047197551197e-05 -1.377709646586e-11 -8.505486400750e-11 4.861220355456e-11
393 2 6.695366541705e-03 3.311263947949e-03 4.029175179088e-03 2.115308824762e-07 1.119128824728e-07 1.078981207727e-07 -1.566141367460e-04 5.092531037891e-05 1.720105177616e-04 1.000000000000e-03 1.047197551197e-05 -9.975631182691e-11 -1.892828438966e-10 -9.593347762923e-11
394 2 6.185240848469e-03 1.203559555712e-02 1.005686373532e-02 -2.095091984843e-07 2.657967722224e-07 4.513609769933e-07 -2.854124203974e-04 -1.183347963549e-04 2.347392893095e-04 1.000000000000e-03 1.047197551197e-05 2.871556092587e-10 -2.244025807728e-10 -4.219760599148e-10
395 2 7.362275637099e-03 1.110355002226e-02 1.440118720963e-02 -1.580474965631e-07 1.738365049422e-08 9.035292340601e-08 3.298446813250e-05 1.461172216168e-04 9.600239956087e-05 1.000000000000e-03 1.047197551197e-05 1.300062255843e-10 -4.572390077021e-11 -9.383805515115e-11
396 2 2.956629413813e-03 3.102106343975e-03 1.438699355830e-02 -5.844115180887e-08 1.678371908163e-07 3.309027898416e-08 -6.456757984219e-05 9.023827483962e-05 -2.838942054275e-06 1.000000000000e-03 1.047197551197e-05 6.859426474149e-11 -1.953453611667e-10 -3.752790101766e-11
397 2 3.999567652205e-04 4.284546818359e-03 9.654833911185e-03 -2.677514988493e-07 8.666282905765e-07 -3.611570191360e-07 -1.490949905913e-04 2.125242139431e-04 1.881954177367e-04 1.000000000000e-03 1.047197551197e-05 2.839155149989e-10 -7.447892207351e-10 3.919240647795e-10
398 2 1.512141639848e-02 1.006407607731e-03 7.659406947244e-03 1.516825502207e-07 5.845274229090e-07 -1.275447221774e-07 4.971610486392e-04 -4.641785030972e-04 1.461074951530e-04 1.000000000000e-03 1.047197551197e-05 -1.095228541390e-10 -6.748622650808e-10 1.133889156950e-10
399 2 1.402535747948e-02 1.398357280187e-02 7.034472218343e-03 -1.367447463995e-08 8.180019054072e-07 -6.099863814860e-07 1.497433213336e-03 3.935764064687e-05 1.025147902119e-03 1.000000000000e-03 1.047197551197e-05 1.276860742006e-10 -8.761299276447e-10 3.789229241408e-10
400 2 6.655529734522e-03 6.648186024951e-03 1.448291946046e-02 -2.043856490987e-08 2.410265045339e-08 2.660566626489e-08 1.340500176767e-05 -7.913166161856e-06 -8.185554747132e-06 1.000000000000e-03 1.047197551197e-05 -7.821644825191e-12 -5.524385791967e-11 1.480144623681e-11
401 3 4.125994644525e-03 1.376652122342e-03 1.355109186107e-02 -1.527734354338e-07 2.196046168098e-07 -4.995631125217e-08 2.070224244765e-05 3.817626822996e-05 -8.606113681956e-05 1.250000000000e-03 2.045307717181e-05 3.364557326218e-10 -4.570444117825e-10 8.060720745504e-11
402 3 1.078260674437e-02 8.719857317777e-03 1.126190016220e-03 2.005176370069e-07 3.932319502538e-07 9.979852616580e-08 -3.398412968445e-04 1.577691534092e-04 -6.175667829727e-05 1.250000000000e-03 2.045307717181e-05 -3.574139377129e-10 -9.471879043941e-10 -4.096202211492e-10
403 3 8.627369029215e-03 1.209401603370e-02 7.546448214932e-03 -5.222140042941e-07 4.787849646275e-08 5.895808708316e-07 9.610704163777e-05 -2.091569649777e-04 6.252844892185e-05 1.250000000000e-03 2.045307717181e-05 9.957496102184e-10 -1.418957897289e-10 -1.030001861069e-09
404 3 1.369991151998e-02 4.903121173191e-03 9.571653100742e-03 -1.381980752984e-07 6.334079191064e-07 -3.281387597577e-07 -2.789942128775e-04 1.092598749005e-04 1.796899815250e-04 1.250000000000e-03 2.045307717181e-05 3.441838550400e-10 -1.028087861770e-09 6.411963690696e-10
405 3 5.149757044012e-04 1.352196124781e-02 5.952126132934e-03 4.127072039958e-07 1.625764435635e-06 -6.623553950819e-07 8.863907140972e-04 -8.335043073177e-04 -1.488502440944e-03 1.250000000000e-03 2.045307717181e-05 -4.959694814662e-10 -3.226968730430e-09 1.015079169325e-09
406 3 1.470247923542e-02 8.184918260173e-03 1.238012309358e-03 -3.828061936179e-07 1.224808522568e-07 -7.347306319628e-08 -3.749206694649e-05 -3.059954891623e-04 -4.398112692814e-04 1.250000000000e-03 2.045307717181e-05 5.085367591115e-10 -1.648437357739e-10 1.082265242249e-10
407 3 2.027797713262e-03 4.985290781623e-03 1.151584525340e-02 -8.221322551019e-08 3.490092260018e-07 -5.139168590223e-08 -3.794408561401e-05 8.475232503698e-05 1.008016045579e-04 1.250000000000e-03 2.045307717181e-05 1.577962497654e-10 -6.949530388012e-10 2.887952949523e-11
408 3 1.843859099092e-03 2.873213209945e-03 1.047117007446e-02 -9.059693201256e-08 4.743939248397e-07 -9.206216653809e-08 6.379920182925e-05 -7.298524302915e-05 -1.055788082888e-04 1.250000000000e-03 2.045307717181e-05 2.373119404699e-10 -1.024547842941e-09 1.314206008367e-10
409 3 1.297906167673e-02 1.160378003510e-02 1.407910010640e-02 2.002949686977e-08 1.053376509930e-07 -3.566139516146e-08 -2.618334410202e-05 -8.582629338058e-05 -9.513549966231e-05 1.250000000000e-03 2.045307717181e-05 -3.656441277481e-11 -2.553566609049e-10 1.700737076754e-11
410 3 1.320498034824e-02 9.604691056304e-03 1.018580372259e-02 -4.468075023296e-07 9.007827270514e-07 -3.372559263412e-07 4.474406291138e-04 2.362110140728e-04 -1.801625169626e-04 1.250000000000e-03 2.045307717181e-05 5.013869569989e-10 -1.655118225461e-09 8.827494650148e-10
411 3 1.534720250076e-02 1.501736832405e-02 1.326766047611e-02 -1.191167577923e-07 2.871297620209e-07 -1.745885291802e-07 1.174166555573e-04 1.232405226480e-05 -1.202618577223e-04 1.250000000000e-03 2.045307717181e-05 2.154194459723e-10 -6.066352832313e-10 3.209690831970e-10
412 3 2.415699194100e-03 6.487194251506e-03 2.847839633180e-03 1.621182737546e-08 2.641112093125e-07 -4.094052285294e-08 2.966101254442e-05 9.575880774937e-05 -2.607469511619e-05 1.250000000000e-03 2.045307717181e-05 -6.848551385773e-11 -5.798938025157e-10 1.575842698793e-10
413 3 1.452701551923e-03 1.467404568217e-02 4.091712184495e-03 6.679253667056e-07 9.767254832843e-07 -2.213917529686e-07 -2.984324324393e-04 6.466168327799e-04 4.921868145450e-05 1.250000000000e-03 2.045307717181e-05 -9.857677652693e-10 -1.779029264476e-09 3.479718341580e-10
414 3 3.813029957255e-03 2.315322237913e-03 4.197769167193e-03 2.212898414794e-07 3.564618792214e-07 -1.622555340225e-07 7.879634692071e-05 3.880104732208e-05 3.644266340554e-05 1.250000000000e-03 2.045307717181e-05 -2.059741379461e-10 -7.635017754814e-10 1.499076064406e-10
415 3 1.209882520485e-03 1.026167784588e-02 1.426442611092e-02 -5.763208816941e-08 2.133002210271e-07 -2.114588231116e-08 1.203771316390e-04 4.219392916197e-05 9.831548471461e-05 1.250000000000e-03 2.045307717181e-05 5.633866219606e-11 -5.122319204801e-10 -1.648048786040e-11
416 3 5.236906588644e-03 6.615096206915e-05 6.515733857732e-03 3.122141338389e-07 3.813438418150e-07 -6.883461561776e-08 -9.561827554810e-06 -3.357242810672e-04 -1.443732171052e-04 1.250000000000e-03 2.045307717181e-05 -4.489150577948e-10 -7.552609454230e-10 1.267192767545e-10
417 3 5.166183338806e-03 1.136349170311e-02 1.190592413518e-02 -3.336882514001e-07 3.462046454882e-07 2.805965781314e-07 -5.163959274959e-05 -2.814779698134e-04 1.556196048613e-04 1.250000000000e-03 2.045307717181e-05 6.623716473765e-10 -7.734412100767e-10 -6.054397344495e-10
418 3 8.964877563960e-03 3.483707361439e-03 1.091917169275e-03 9.964615168281e-08 6.200237250991e-08 2.422965273618e-08 -2.350731096633e-05 7.207248639295e-05 5.967116459673e-05 1.250000000000e-03 2.045307717181e-05 -7.296148440008e-11 -1.838256085276e-10 -2.736294621079e-11
419 3 2.423725729017e-03 8.470468639275e-03 1.131194031859e-02 -3.486379490667e-08 3.630953497685e-07 5.719543082863e-08 -6.064597536772e-05 2.400391387556e-04 2.199718230287e-04 1.250000000000e-03 2.045307717181e-05 1.543930729730e-10 -6.634719668207e-10 -2.677430821477e-10
420 3 4.718748475456e-03 9.131086832712e-03 1.106485327788e-02 -8.050328994490e-08 4.243338936394e-07 1.031257889976e-07 1.593041250443e-04 -1.962394443168e-04 -1.746182074588e-04 1.250000000000e-03 2.045307717181e-05 2.256219568541e-10 -9.042628068447e-10 -3.044185003516e-10
421 3 4.696880478837e-03 1.269702827124e-02 5.856775488227e-03 5.888712619896e-07 5.028745776610e-07 -1.195752494783e-07 9.681992040423e-05 2.464923342654e-05 -6.008568405957e-05 1.250000000000e-03 2.045307717181e-05 -8.949369293799e-10 -1.028124515264e-09 2.257732478166e-10
422 3 8.030001739751e-03 1.917152727716e-03 8.133683787410e-03 -8.493634696365e-09 2.603219732293e-07 5.530530624009e-08 -2.138390459432e-04 1.608671219559e-05 -1.049435888963e-04 1.250000000000e-03 2.045307717181e-05 1.704793485563e-10 -6.546924408832e-10 -7.127652829239e-11
423 3 1.351186893154e-02 1.195185768403e-02 1.170163284995e-02 -1.549907782827e-07 4.063917861115e-07 -2.095228464783e-07 -6.811516313294e-05 -3.959297705848e-04 -2.326783166800e-05 1.250000000000e-03 2.045307717181e-05 3.662432733971e-10 -9.085735159460e-10 2.798990810955e-10
424 3 3.038037347386e-03 8.910262013723e-03 6.332791273692e-03 4.787446171034e-07 5.509391009691e-07 -6.684692292504e-08 2.495622573781e-04 4.365273375623e-04 -2.481665243919e-04 1.250000000000e-03 2.045307717181e-05 -9.920854493370e-10 -1.238649991105e-09 -1.670100779599e-10
425 3 1.459157764987e-02 5.357969990638e-03 1.193652697403e-02 -1.300354057121e-07 4.166739820111e-07 -3.395633381854e-07 -2.315058432640e-04 2.042386881054e-04 1.058968892836e-04 1.250000000000e-03 2.045307717181e-05 5.601019691506e-10 -1.044253571971e-09 4.049503509142e-10
426 3 1.201837258633e-02 6.012184604037e-03 4.748309598867e-03 -1.656691683934e-07 5.636890057006e-07 2.314978909242e-07 -9.708370582740e-05 -2.182037611539e-04 2.936695653973e-04 1.250000000000e-03 2.045307717181e-05 3.671305527669e-10 -7.869147720756e-10 -1.726639325157e-10
427 3 1.258490476981e-02 1.310233431825e-02 3.088908410649e-03 1.779885338124e-08 -7.229876498407e-08 -4.444570033784e-07 5.111899870634e-04 -1.174391579905e-04 -1.030247271622e-03 1.250000000000e-03 2.045307717181e-05 1.115204847156e-10 -7.111444411290e-11 6.926576878856e-10
428 3 1.256855218874e-02 1.756091686424e-04 6.645298422346e-03 -4.308827301755e-07 2.647266447872e-07 2.842159885867e-07 -2.847106395893e-04 -1.397241172274e-04 -1.978250907949e-04 1.250000000000e-03 2.045307717181e-05 1.091421597899e-09 -8.077495989077e-10 -7.675918408438e-10
429 3 4.636027623545e-04 9.120196535983e-04 2.638566504621e-03 1.045032507825e-07 3.652329915892e-07 -9.085442730263e-08 -1.284420981723e-04 3.953938889081e-05 9.148967608588e-05 1.250000000000e-03 2.045307717181e-05 -5.605228521643e-11 -5.780270707823e-10 1.467148732745e-10
430 3 8.485356198456e-03 1.445635886139e-02 2.597233343618e-03 2.548080822288e-07 1.910271427213e-07 -1.200920734287e-07 -1.264124128498e-04 -3.990839659221e-06 -3.353877626801e-05 1.250000000000e-03 2.045307717181e-05 -4.844176594427e-10 -3.436473463451e-10 1.168398680404e-10
431 3 9.288153861218e-03 5.858671341452e-04 1.354752201171e-02 -7.432206536983e-08 1.665194732469e-07 5.726352387449e-08 2.752147212556e-05 2.950956549180e-06 2.038057611394e-05 1.250000000000e-03 2.045307717181e-05 1.816604848694e-10 -3.551986226667e-10 -1.534614408436e-10
432 3 1.085901746435e-02 1.339669243985e-02 4.629721987842e-03 1.922869916482e-06 -1.193319909759e-06 9.710596545483e-07 2.305988441976e-05 1.788871569532e-03 1.816447595579e-03 1.250000000000e-03 2.045307717181e-05 -3.105996589826e-09 1.834347601645e-09 -1.614781964827e-09
433 3 1.145696244792e-02 1.164085386403e-02 1.066247943408e-02 -2.093096188774e-07 3.683191420222e-07 -1.906573397455e-07 2.163669362207e-05 3.532203434494e-04 -6.290376835999e-05 1.250000000000e-03 2.045307717181e-05 3.567984905546e-10 -6.872934310877e-10 3.261700072077e-10
434 3 2.913367712498e-03 6.175316749059e-03 5.239421938160e-03 -2.968064638679e-08 3.856450195090e-07 -3.504705505553e-09 -3.924685794591e-05 -1.887948380426e-04 -1.213933294558e-04 1.250000000000e-03 2.045307717181e-05 5.641889119045e-10 -1.199243545103e-09 -2.316639244996e-10
435 3 7.359190732908e-03 1.353955574113e-02 9.008749674812e-03 -2.704335197695e-07 1.431420101985e-07 4.166949463498e-07 4.797845364350e-05 1.129459257225e-04 -2.792034814270e-04 1.250000000000e-03 2.045307717181e-05 5.853382229882e-10 -2.934612956569e-10 -8.599999957035e-10
436 3 1.103827701007e-02 1.145539178674e-02 6.015137825592e-03 1.323685000595e-06 -2.560815411371e-06 1.502849337202e-06 -4.123004317125e-05 -2.401500809006e-03 -4.096823092281e-03 1.250000000000e-03 2.045307717181e-05 -2.310603220290e-09 4.324748666471e-09 -2.341662341813e-09
437 3 7.181991813564e-03 1.274378630386e-03 3.480710673146e-03 3.926696572771e-07 1.741692954198e-08 7.750242385108e-08 1.207666883926e-04 3.173902214640e-04 3.259408647721e-05 1.250000000000e-03 2.045307717181e-05 -5.655278390319e-10 -8.560079877102e-11 -1.298893155723e-10
438 3 9.385187409962e-03 1.220620154057e-02 9.753622251275e-03 -5.423660174296e-07 2.410154629660e-07 4.458277283284e-07 2.644423904361e-05 1.926459643070e-04 2.663492325946e-04 1.250000000000e-03 2.045307717181e-05 9.000646378986e-10 -4.845274870544e-10 -7.204735787510e-10
439 3 1.544276846099e-03 1.025565354975e-03 8.932724193403e-03 -3.617160838403e-08 4.121293429775e-07 -7.098325573984e-08 -4.973995568827e-05 3.965396690806e-05 7.171826428074e-05 1.250000000000e-03 2.045307717181e-05 7.543038385155e-11 -9.692010854729e-10 1.878195317344e-10
440 3 1.050760070469e-02 2.533175032998e-03 3.519567688738e-03 1.642872393574e-07 5.607132878595e-09 1.240153500283e-07 -1.668753840612e-04 3.858007137882e-05 6.717484676072e-05 1.250000000000e-03 2.045307717181e-05 -1.432239438271e-10 -2.228612575490e-10 -2.021380860553e-10
441 3 2.534395216645e-03 4.103950957739e-03 2.313672527939e-03 8.610436740270e-08 3.300739782851e-07 -6.771329671114e-08 2.893550057990e-05 -4.087325399822e-05 5.583210346185e-05 1.250000000000e-03 2.045307717181e-05 -4.267201153387e-11 -6.368309902747e-10 2.125279519943e-11
442 3 6.880776911181e-03 6.824529413562e-04 9.846399223218e-03 -9.184787373222e-08 3.826149162813e-07 7.320079428998e-08 8.382605628416e-05 -7.943570202034e-05 8.567872766245e-05 1.250000000000e-03 2.045307717181e-05 2.306105922013e-10 -8.494568100494e-10 -1.651679737584e-10
443 3 1.645888114570e-03 1.063118412645e-02 1.082912651719e-02 -2.395047648817e-07 4.308863238490e-07 -1.532122728914e-07 3.241615898327e-06 -1.834516816944e-04 -1.482992315080e-04 1.250000000000e-03 2.045307717181e-05 4.098472533481e-10 -1.067551472386e-09 1.717983080206e-10
444 3 5.071665237614e-03 1.261074198125e-02 2.753885675346e-03 3.125341728544e-07 2.172799906610e-07 5.916833497025e-08 -5.095450280395e-05 -4.185568386058e-05 -1.279223611652e-04 1.250000000000e-03 2.045307717181e-05 -4.988043627075e-10 -3.954866327052e-10 -1.269288272861e-10
445 3 1.058312038178e-02 9.736246088628e-03 7.654195476874e-03 -1.374973203106e-06 -1.290702579400e-08 3.926439414880e-07 1.648681358180e-04 5.443103951921e-04 2.949845045834e-04 1.250000000000e-03 2.045307717181e-05 2.440783835252e-09 -1.641470087855e-10 -7.346169058765e-10
446 3 9.684990091515e-03 1.237411465690e-04 1.123586165739e-02 -6.825964635330e-08 1.344446349444e-07 9.745094855566e-08 -8.119596948411e-05 -2.443473251252e-06 -8.731181084146e-05 1.250000000000e-03 2.045307717181e-05 1.670796131900e-10 -3.434427223546e-10 -1.353177681194e-10
447 3 1.025898523690e-02 1.345966506468e-02 1.442914222525e-03 9.042839888835e-08 1.393610366917e-08 -2.498611328797e-07 2.738374621318e-04 1.170941153935e-04 -2.763231765077e-04 1.250000000000e-03 2.045307717181e-05 -3.281723420288e-10 2.374740446950e-10 2.111092330556e-10
448 3 1.898433079313e-03 4.409580875721e-03 6.575956274245e-03 -2.670953955634e-07 7.051829401211e-07 9.723374382143e-08 -5.799048837547e-05 3.833345830976e-04 -1.538067722845e-04 1.250000000000e-03 2.045307717181e-05 8.830607651664e-10 -1.849286415678e-09 -8.579540603344e-11
449 3 2.399537550900e-03 1.397785253237e-02 1.246717189561e-03 1.341460273169e-07 1.058386798744e-07 -8.151262744205e-09 -2.092789562914e-04 1.728454886962e-04 8.577585300699e-05 1.250000000000e-03 2.045307717181e-05 -1.630035930678e-10 -1.639761369309e-10 -2.199463738671e-11
450 3 1.254414129438e-02 1.519157302761e-02 4.234980260290e-03 2.826538245913e-07 -1.963401656717e-07 2.514559918226e-07 8.018856116964e-05 -2.861945899140e-04 3.737020557204e-04 1.250000000000e-03 2.045307717181e-05 -2.282606929525e-10 1.787798613055e-10 -5.194523474970e-10
451 3 1.018823734492e-02 2.794127022455e-03 7.675807943200e-03 -4.959793389825e-08 2.408132162603e-07 3.216604759507e-08 -5.716813429698e-05 -1.185619690514e-04 1.288355297784e-04 1.250000000000e-03 2.045307717181e-05 2.846090803198e-10 -5.669828054081e-10 6.459571503189e-11
452 3 8.283534082095e-03 7.272228847604e-03 4.968349180111e-03 -1.025485362686e-07 1.061691691974e-07 6.956564426000e-08 -2.479458320322e-05 5.053685164261e-05 -1.194374050086e-04 1.250000000000e-03 2.045307717181e-05 4.748136269218e-10 -3.476990225238e-10 -1.343422633897e-10
453 3 5.216897746867e-03 6.301491583012e-03 1.268476145842e-02 -6.553742237946e-08 1.605612465210e-07 -1.021928661478e-08 5.274160035654e-05 -1.133510834351e-04 -1.670668380832e-04 1.250000000000e-03 2.045307717181e-05 1.053606443603e-10 -3.337359242953e-10 4.557524873855e-11
454 3 6.435372151725e-04 1.218250857996e-02 9.130693818390e-03 -2.198066875902e-07 2.914645520913e-07 -4.955223470903e-07 1.487277456243e-04 -1.873136538452e-04 -6.098454090838e-05 1.250000000000e-03 2.045307717181e-05 4.661489092675e-10 -7.678943390661e-10 9.194305942461e-10
455 3 5.235293913974e-04 1.435981927246e-02 8.171144955999e-03 -7.191007963352e-08 3.849390564559e-07 -2.946124946468e-07 1.342105808863e-04 -1.187812463661e-04 -1.295868216264e-04 1.250000000000e-03 2.045307717181e-05 1.021533896458e-10 -1.018838795748e-09 4.434228521522e-10
456 3 6.963976935353e-03 8.481989231216e-03 6.524044754380e-03 -1.285511363393e-07 1.770820881287e-07 7.183902240480e-08 4.527538015079e-05 -1.670187895646e-04 8.409115972557e-05 1.250000000000e-03 2.045307717181e-05 4.597614130432e-10 -4.222307677957e-10 -2.789918897065e-10
457 3 1.539480215902e-03 3.165805496196e-03 4.329218323121e-03 2.606636814600e-07 5.055787008313e-07 3.746291928539e-08 -2.163321955718e-04 2.339364320605e-04 1.177739621813e-04 1.250000000000e-03 2.045307717181e-05 -2.327638962019e-10 -1.072032244971e-09 -2.551535117562e-10
458 3 1.369236891626e-02 9.674778653195e-03 1.280745474414e-02 -3.161562317060e-08 1.855226723140e-07 -1.656737840435e-07 1.080920329286e-04 1.270627023578e-04 1.944891627804e-05 1.250000000000e-03 2.045307717181e-05 -2.945846169113e-11 -4.105671664667e-10 3.559782287129e-10
459 3 6.471946546428e-03 4.464495323915e-03 1.416931003929e-02 -3.381254515348e-08 7.073319699430e-08 -4.580429439368e-09 3.367100224150e-05 2.213000599035e-05 -1.941962513785e-05 1.250000000000e-03 2.045307717181e-05 7.192673170871e-11 -1.570869223868e-10 2.229408244066e-11
460 3 8.925224703540e-03 1.198052560547e-02 4.005575511958e-03 8.096635091405e-07 -3.732654760471e-07 7.293322031878e-07 1.175544292862e-03 -1.059236201546e-04 -1.301105471986e-03 1.250000000000e-03 2.045307717181e-05 -1.614953251797e-09 7.466104086979e-10 -1.250210870886e-09
461 3 1.125820000710e-03 4.607990992468e-04 1.126062654477e-02 -2.783910773291e-08 3.987695517778e-07 -7.474755029917e-08 3.152782201344e-05 -5.597496874040e-05 5.083147962225e-05 1.250000000000e-03 2.045307717181e-05 8.452988844383e-11 -8.760975859769e-10 1.496027480531e-10
462 3 5.928225868294e-03 1.517781923363e-02 1.412061000580e-02 -1.666063507963e-07 1.945250206871e-07 2.861020069648e-09 -8.226560350273e-05 -5.315801956741e-05 3.856358478328e-05 1.250000000000e-03 2.045307717181e-05 3.527910609908e-10 -4.610396485726e-10 -2.386954816946e-11
463 3 1.428488164410e-02 5.906841141648e-03 3.979715537784e-03 -6.887415646110e-08 4.862588704371e-07 -9.472150265334e-08 6.402859807094e-04 2.398828677640e-04 -5.128734017281e-04 1.250000000000e-03 2.045307717181e-05 4.940392253449e-10 -5.124636656200e-10 3.989386233452e-10
464 3 1.368029851550e-02 1.703078163492e-03 3.168994388259e-03 4.352607192928e-08 1.550957778952e-07 -3.065402047329e-08 -2.431247824837e-05 4.214116366350e-05 1.000299959536e-04 1.250000000000e-03 2.045307717181e-05 1.472176889504e-10 -3.548197374729e-10 1.028648317642e-10
465 3 1.768175605972e-03 1.156204173750e-03 5.580123120885e-03 3.336053695212e-07 8.369711242676e-07 -8.295568961366e-08 2.813864591622e-04 -5.925108585856e-04 -7.131991690712e-05 1.250000000000e-03 2.045307717181e-05 -4.435217493064e-10 -1.603912118654e-09 6.548127987238e-11
466 3 8.978916607331e-03 2.812070046920e-03 1.287462494636e-02 -6.585013679106e-08 1.318364883331e-07 -7.186091308292e-08 -1.242523856567e-04 -1.955799568106e-05 2.837730771921e-06 1.250000000000e-03 2.045307717181e-05 1.713654738445e-10 -2.502480442230e-10 1.729670290259e-10
467 3 3.111488000644e-03 1.306219879670e-02 1.350045210840e-02 -2.099642354152e-07 2.741255667729e-07 -4.700177457130e-08 8.516615649558e-06 -3.929467916116e-05 -1.017853074821e-04 1.250000000000e-03 2.045307717181e-05 4.164517853577e-10 -6.603611209087e-10 5.354235729879e-11
468 3 3.559878413477e-03 4.166608810967e-03 9.309644676473e-03 -4.859322429308e-08 4.174167777064e-07 -2.969658664658e-08 -3.257918113542e-05 7.622640973143e-05 -4.836241248174e-06 1.250000000000e-03 2.045307717181e-05 2.241194423402e-10 -9.776386664098e-10 5.510375256285e-11
469 3 1.151833512339e-02 3.762271733178e-03 1.414732702690e-02 -7.524076507397e-08 1.612109360371e-07 -3.675973060454e-08 5.378905650754e-05 1.014704222701e-04 -7.000885843646e-05 1.250000000000e-03 2.045307717181e-05 2.347491625304e-10 -4.115777511911e-10 8.599141373897e-12
470 3 7.711881134510e-03 7.209448813133e-03 9.625063525934e-03 -2.277622158389e-07 8.788538180414e-08 2.022890101623e-07 7.600475471410e-07 1.826762201740e-04 -8.573262048036e-05 1.250000000000e-03 2.045307717181e-05 3.691948913120e-10 -2.449210435498e-10 -3.967726679761e-10
471 3 1.243043512505e-02 7.521099932045e-03 2.342081624084e-03 2.114510435965e-07 4.324067654296e-07 1.938932553378e-07 9.492060607349e-05 1.172312869110e-04 -9.435473949746e-05 1.250000000000e-03 2.045307717181e-05 -6.629433361419e-10 -8.436436605258e-10 -5.940494311906e-10
472 3 1.176570725216e-04 1.460086270410e-02 1.086136901302e-03 6.098876049736e-08 1.723243979585e-07 7.154398864330e-09 -8.565028041828e-05 -4.984256209241e-05 -1.544458720083e-04 1.250000000000e-03 2.045307717181e-05 -9.683956697492e-11 -2.570042863175e-10 -9.047607703867e-11
473 3 1.103166697907e-02 1.376213668526e-02 7.145985959193e-03 -1.069609710295e-06 3.674331538946e-07 -1.052789275083e-07 4.926515532983e-04 -3.008328461548e-04 -4.867137358558e-05 1.250000000000e-03 2.045307717181e-05 2.559401174424e-09 -1.485483729801e-09 -1.706741717299e-10
474 3 8.274357390220e-03 1.118101150150e-03 1.217358221235e-03 1.769686805228e-07 6.111677349500e-08 -3.026451264886e-08 5.541458380823e-05 8.274255877789e-05 2.601490500023e-05 1.250000000000e-03 2.045307717181e-05 -3.117283689267e-10 -9.102324661343e-11 3.796921530238e-11
475 3 4.442700726791e-03 1.333031091751e-02 1.029630353436e-02 -1.927171507768e-07 3.067521828923e-07 -6.869351259630e-08 -8.319845476362e-05 -4.453200867873e-05 -1.212207821033e-04 1.250000000000e-03 2.045307717181e-05 3.771423248003e-10 -7.113598002843e-10 8.970473576299e-11
476 3 7.130253825000e-03 1.236071522376e-02 5.653069885553e-03 4.560916697678e-07 2.281472335427e-07 1.554943507797e-07 -1.286804056057e-04 -4.844835026323e-04 -3.822545917842e-04 1.250000000000e-03 2.045307717181e-05 -7.497591013056e-10 -4.137515510810e-10 -3.366130079528e-10
477 3 8.411018254269e-03 5.144222454007e-03 1.062626414900e-02 -1.356789772122e-07 1.010934749979e-07 -8.426084285817e-09 6.163013008468e-05 2.971680985970e-05 3.367528065388e-05 1.250000000000e-03 2.045307717181e-05 2.641883028832e-10 -2.889856033506e-10 7.829523799611e-11
478 3 3.164011824658e-03 8.800355420165e-03 2.687529393599e-03 3.536563947830e-08 6.822824122665e-08 -5.218641232831e-08 -1.150524992713e-07 2.364209939896e-04 -3.578819914040e-05 1.250000000000e-03 2.045307717181e-05 -1.818941871966e-10 -1.227036633051e-10 9.043988674837e-11
479 3 5.827581279501e-03 7.649578105726e-03 4.227235733276e-03 1.319950086663e-07 1.379802151666e-07 -1.313193170870e-08 1.014214433470e-05 3.689850360339e-05 9.405892993981e-05 1.250000000000e-03 2.045307717181e-05 -1.093696538682e-10 -3.219716056929e-10 -1.405294012726e-10
480 3 1.165395349668e-02 5.900376301109e-03 1.037222490291e-02 -1.724064775078e-07 2.340219503280e-07 -9.455871074768e-09 -1.299195779330e-04 2.773483697117e-04 2.237839788216e-04 1.250000000000e-03 2.045307717181e-05 3.634157136568e-10 -2.496657487047e-10 -5.462661038648e-11
481 3 1.226379751075e-02 8.132888836513e-03 8.566277004362e-03 -1.060242227975e-06 9.390555636352e-07 2.586428515797e-07 -6.209047401834e-04 5.523473254203e-04 5.567385980688e-04 1.250000000000e-03 2.045307717181e-05 8.927252458772e-10 -1.610408929953e-09 2.192189761793e-10
482 3 1.367093299375e-02 1.281200643363e-02 5.217283122397e-03 1.670593006912e-06 8.567450557571e-07 -1.208449742009e-06 -1.763268045957e-04 1.422724214297e-03 3.913651022054e-03 1.250000000000e-03 2.045307717181e-05 -2.693536180081e-09 -2.279288106289e-09 1.908860721758e-09
483 3 1.249204262935e-02 9.929493324045e-04 1.149569249990e-03 7.873751167892e-08 4.387330607616e-09 1.004476837718e-08 5.152969521966e-06 3.493460794632e-05 1.602167417059e-04 1.250000000000e-03 2.045307717181e-05 -6.297974685210e-11 -3.201192554756e-11 -2.874829561810e-11
484 3 5.439861422285e-03 3.305302233515e-03 5.659621767191e-03 3.150235965240e-08 3.486610730689e-07 -2.130694390793e-08 -1.593667701075e-04 -2.144817549882e-04 -4.986943903830e-05 1.250000000000e-03 2.045307717181e-05 1.544915658863e-10 -7.513412707466e-10 -6.104038196929e-11
485 3 4.818858249628e-03 7.373927241512e-03 6.413493448707e-03 9.645584611414e-09 3.077005513949e-07 -1.523172056694e-07 -2.238963201997e-04 -2.143840184837e-04 -8.910616790463e-05 1.250000000000e-03 2.045307717181e-05 2.451144222382e-10 -7.242737857830e-10 1.434859483974e-10
486 3 9.306300622674e-03 1.111706708016e-02 1.165006429900e-03 5.194991601245e-07 -2.062224172290e-07 2.269344546694e-07 2.227139190456e-04 2.356647386986e-04 -4.926304543535e-04 1.250000000000e-03 2.045307717181e-05 -7.593070788638e-10 3.381626634758e-10 -4.539868904139e-10
487 3 1.196839387343e-02 8.559527334638e-03 6.168416464386e-03 -1.162127770316e-06 6.297317415556e-07 2.531407440329e-07 7.788163881148e-04 -9.505747663250e-04 -6.685143939683e-04 1.250000000000e-03 2.045307717181e-05 2.655504130405e-09 -7.303410861956e-10 -3.850101483480e-10
488 3 5.380345617301e-03 8.233181245136e-03 8.638336155046e-03 1.239590992661e-07 3.434182034097e-07 1.167415475409e-07 1.449784568105e-04 2.917541114347e-05 -4.928706761786e-04 1.250000000000e-03 2.045307717181e-05 -3.639378660025e-10 -6.108586778592e-10 -3.565044912616e-10
489 3 1.535910846505e-02 9.888216647784e-03 9.132325825837e-03 -1.899542035796e-07 6.140957961734e-07 -4.148305368494e-07 -4.922257742302e-04 -3.984011132369e-04 -5.320486525411e-05 1.250000000000e-03 2.045307717181e-05 2.125486449118e-10 -1.320080085984e-09 2.711796999430e-10
490 3 5.812360388613e-03 5.633546972543e-03 2.359062663855e-03 1.349839106192e-07 7.661593875901e-08 1.092873443973e-08 -6.623620373434e-05 7.877282971976e-05 8.579552801648e-05 1.250000000000e-03 2.045307717181e-05 3.280806245013e-11 -1.867113986172e-10 -2.777235941108e-11
491 3 1.161987026762e-02 1.411829889005e-02 1.127124775698e-02 -8.994927815620e-08 8.732758594475e-08 6.371270663643e-08 9.375780546243e-06 9.289637837731e-05 4.191911681413e-05 1.250000000000e-03 2.045307717181e-05 3.047378052728e-10 -2.206813362157e-10 -2.141944011359e-10
492 3 1.535064742259e-02 5.877814495450e-03 6.117662541688e-03 -6.753110810882e-07 5.041440758551e-07 -4.157609714027e-07 -1.006060177478e-03 -8.604044444349e-04 2.741448595514e-04 1.250000000000e-03 2.045307717181e-05 2.219508463719e-09 -1.534897916630e-09 1.118448821530e-09
493 3 1.393694605934e-02 8.712611616061e-04 1.033867566237e-02 4.494401109110e-08 4.407039583215e-07 -1.480598024407e-07 3.043784077914e-05 -1.909140811408e-04 1.042751743867e-04 1.250000000000e-03 2.045307717181e-05 7.721871967643e-11 -8.914537487992e-10 1.820961004360e-10
494 3 8.602792362164e-03 5.126525693231e-03 1.326431846643e-02 -2.022062190039e-08 8.531839337679e-08 -4.635998348672e-08 1.300362124718e-04 5.091994241367e-05 -3.186319440788e-05 1.250000000000e-03 2.045307717181e-05 2.909963394327e-11 -2.486465391843e-10 1.310071279253e-10
495 3 5.310521836012e-03 4.902252773643e-03 7.854402225173e-03 3.953829801005e-08 2.287442752858e-07 -1.085329922971e-07 -1.868529966942e-05 -9.207169284808e-05 -2.289537304390e-04 1.250000000000e-03 2.045307717181e-05 2.219804594030e-10 -6.598497812698e-10 3.009429413056e-10
496 3 1.702553284989e-03 5.674690320497e-03 8.579042465343e-03 -6.891849097502e-08 8.345893596510e-07 -1.017657446940e-07 1.572019782065e-04 -6.880419176087e-04 -6.797427251040e-04 1.250000000000e-03 2.045307717181e-05 3.222194717852e-10 -1.473874388820e-09 1.571496759633e-10
497 3 1.194565924416e-02 4.369115248010e-03 8.028440361679e-03 -8.218085971340e-08 3.769184211908e-07 -1.219531180298e-07 -1.752056558633e-04 6.882115016071e-05 -1.436041079836e-04 1.250000000000e-03 2.045307717181e-05 3.039747194168e-10 -7.776956399572e-10 3.146157666897e-10
498 3 7.345422838195e-03 5.028064458873e-04 1.222065774686e-02 -1.354870562517e-07 2.265904013251e-07 6.644684711659e-08 9.652215097493e-05 2.722487784359e-05 2.616964540683e-05 1.250000000000e-03 2.045307717181e-05 2.824517376417e-10 -5.355601421891e-10 -1.599328726062e-10
499 3 1.496173052056e-02 8.201662021370e-03 4.035205241520e-03 5.026201330703e-07 8.568252211234e-07 2.268378017994e-06 8.887216040383e-04 -7.323662320937e-04 6.097096038978e-05 1.250000000000e-03 2.045307717181e-05 -1.324249885287e-09 -9.804214028899e-10 -4.121392255161e-09
500 3 1.134473123326e-02 1.044971374618e-02 1.275228170317e-02 -2.231195290483e-08 2.657068556098e-07 -1.334852414840e-09 -2.350092341541e-05 -9.679103263894e-06 -9.875868637219e-05 1.250000000000e-03 2.045307717181e-05 -2.059976193518e-11 -4.590770966695e-10 1.200844701340e-10
