ITEM: TIMESTEP
200000
ITEM: NUMBER OF ATOMS
500
ITEM: BOX BOUNDS pp pp ff
0.0000000000000000e+00 1.5370634520482899e-02
0.0000000000000000e+00 1.5370634520482899e-02
0.0000000000000000e+00 1.5370634520482899e-02
ITEM: ATOMS id type x y z radius mass fx fy fz
1 1 0.00642808 0.00850785 0.0115569 0.00075 4.41786e-06 4.88953e-11 -2.27954e-11 -3.77319e-11
2 1 0.0120993 0.00865447 0.0127393 0.00075 4.41786e-06 1.04415e-11 -4.81853e-11 9.86258e-12
3 1 0.0038046 0.0107001 0.00256378 0.00075 4.41786e-06 -1.93597e-11 -3.94977e-11 -8.22643e-12
4 1 0.000882812 0.00667697 0.00411837 0.00075 4.41786e-06 -4.76719e-135 4.31996e-135 5.77812e-135
5 1 0.0143451 0.0094767 0.00275256 0.00075 4.41786e-06 -8.64459e-11 -2.53149e-11 -1.86663e-10
6 1 0.0151944 0.00208165 0.0146206 0.00075 4.41786e-06 1.11614e-10 -1.45204e-11 1.03126e-11
7 1 0.007736 0.0137346 0.00683211 0.00075 4.41786e-06 3.03844e-11 -6.82553e-11 -2.80646e-11
8 1 0.00651416 0.00667835 0.00581867 0.00075 4.41786e-06 1.17405e-11 -2.50985e-11 -1.35021e-11
9 1 0.00398258 0.00278295 0.00234325 0.00075 4.41786e-06 -2.16571e-11 -6.28208e-11 2.5062e-11
10 1 0.00675508 0.0147449 0.00334001 0.00075 4.41786e-06 -5.07903e-11 -4.67944e-11 2.56943e-11
11 1 0.0082447 0.00308038 0.0102432 0.00075 4.41786e-06 9.6587e-12 -2.04918e-11 1.93617e-11
12 1 0.00471972 0.00882049 0.000690137 0.00075 4.41786e-06 -1.36131e-11 -1.72111e-11 -1.06761e-11
13 1 0.00888319 0.0084004 0.013332 0.00075 4.41786e-06 -1.40947e-11 -2.94937e-11 -1.44694e-12
14 1 0.0146381 0.00632593 0.000671169 0.00075 4.41786e-06 2.63923e-11 -1.88456e-11 -4.76059e-12
15 1 0.00343829 0.00039352 0.00114378 0.00075 4.41786e-06 -2.61847e-11 -3.28936e-11 6.3236e-12
16 1 0.0138119 0.00618114 0.00212578 0.00075 4.41786e-06 1.24916e-11 -1.22663e-10 -1.38579e-11
17 1 0.00114487 0.00491132 0.00496572 0.00075 4.41786e-06 3.63765e-11 -8.20276e-11 3.02958e-12
18 1 0.0047474 0.00718742 0.00263053 0.00075 4.41786e-06 -9.53086e-12 -2.85532e-11 1.97684e-12
19 1 0.00906804 0.0109464 0.0142583 0.00075 4.41786e-06 1.62383e-11 -1.90746e-11 -2.11056e-11
20 1 0.0093147 0.00643334 0.0146206 0.00075 4.41786e-06 4.72711e-11 -5.12233e-11 7.25658e-12
21 1 0.00538414 0.0145883 0.0032387 0.00075 4.41786e-06 -4.55372e-11 -5.08471e-11 2.27968e-11
22 1 1.95902e-05 0.00795921 0.0102128 0.00075 4.41786e-06 -1.80009e-13 -8.55855e-11 6.03302e-11
23 1 0.00304871 0.00577446 0.0100454 0.00075 4.41786e-06 2.52462e-11 -6.57288e-11 1.56134e-12
24 1 0.0117395 0.00256314 0.0125983 0.00075 4.41786e-06 7.25928e-12 -3.96236e-11 3.62464e-12
25 1 0.0116455 0.0062419 0.00848989 0.00075 4.41786e-06 7.89185e-12 -6.57984e-11 -2.58203e-11
26 1 0.0125226 0.00613472 0.00736303 0.00075 4.41786e-06 -2.82408e-10 -2.52795e-10 -1.898e-10
27 1 0.00519271 0.00279148 0.0127897 0.00075 4.41786e-06 2.37988e-11 -2.94431e-11 1.47494e-11
28 1 0.00712106 0.00778574 0.00212049 0.00075 4.41786e-06 -1.16276e-11 -1.43962e-11 1.00827e-11
29 1 0.0147217 0.00314671 0.000656865 0.00075 4.41786e-06 1.54095e-11 -1.5281e-12 1.03432e-11
30 1 0.0060996 0.0026863 0.0076389 0.00075 4.41786e-06 6.5901e-12 -5.7015e-11 -5.70411e-13
31 1 0.00687267 0.00686366 0.0118414 0.00075 4.41786e-06 1.93899e-11 -2.51342e-11 -2.04775e-11
32 1 0.00104496 0.00610336 0.0132362 0.00075 4.41786e-06 1.11101e-11 -3.44191e-11 2.25815e-11
33 1 0.00872168 0.000245843 0.00957164 0.00075 4.41786e-06 -1.88489e-11 -5.11222e-11 -6.77114e-12
34 1 0.0113902 0.0148176 0.000693742 0.00075 4.41786e-06 -3.48113e-11 1.57011e-12 1.01827e-11
35 1 0.0109401 0.00598879 0.00207743 0.00075 4.41786e-06 -2.81151e-11 -3.15765e-11 -3.58808e-12
36 1 0.000591021 0.00369357 0.0146665 0.00075 4.41786e-06 -4.60598e-12 -9.93961e-12 1.33371e-11
37 1 0.00884155 0.000201353 0.00577441 0.00075 4.41786e-06 -2.84558e-10 6.69361e-10 5.18343e-10
38 1 0.00476023 0.000881586 0.000707315 0.00075 4.41786e-06 -2.91192e-11 -3.44045e-11 3.37954e-12
39 1 0.00663215 0.00466229 0.00508471 0.00075 4.41786e-06 -3.4091e-11 -3.28209e-11 -5.08421e-12
40 1 0.0137217 0.000933779 0.0052833 0.00075 4.41786e-06 1.20515e-11 -1.56935e-12 -5.46647e-11
41 1 0.0152175 0.00973284 0.00518296 0.00075 4.41786e-06 -1.85268e-11 -2.77141e-10 -4.15947e-10
42 1 0.0121289 0.00392921 0.0121523 0.00075 4.41786e-06 1.22734e-11 -5.43543e-11 7.4546e-12
43 1 0.00747626 0.00212588 0.0110825 0.00075 4.41786e-06 2.85559e-11 -4.26089e-11 3.16512e-12
44 1 0.00959909 0.0146924 0.0147973 0.00075 4.41786e-06 -4.89053e-12 6.62251e-12 -2.86715e-11
45 1 0.00880302 0.00231363 0.00266004 0.00075 4.41786e-06 -2.98714e-11 -2.65866e-12 -1.41572e-11
46 1 0.0108399 0.00979099 0.00501462 0.00075 4.41786e-06 1.0447e-10 1.76502e-10 5.37954e-11
47 1 0.0152443 0.0149189 0.00987744 0.00075 4.41786e-06 -2.49434e-11 -5.61695e-11 3.88303e-11
48 1 7.34972e-05 0.00202894 0.0107569 0.00075 4.41786e-06 1.03728e-11 -7.52997e-11 3.99792e-12
49 1 0.0136284 0.00513488 0.014764 0.00075 4.41786e-06 1.05028e-11 -1.52021e-11 -3.14207e-11
50 1 0.00342795 0.00320626 0.0117655 0.00075 4.41786e-06 1.33519e-11 -3.99322e-11 3.96333e-11
51 1 0.00933445 0.00381482 0.0146206 0.00075 4.41786e-06 -2.86754e-13 7.73407e-14 5.94002e-13
52 1 0.00313421 0.0152634 0.0115823 0.00075 4.41786e-06 2.5446e-11 -4.97516e-11 -4.66615e-12
53 1 0.0030031 0.00418865 0.0129802 0.00075 4.41786e-06 3.01195e-12 -4.36452e-11 1.31353e-11
54 1 0.0124763 0.00736174 0.0132726 0.00075 4.41786e-06 6.55189e-12 -1.69347e-11 2.68564e-11
55 1 0.00776602 0.00353625 0.0115583 0.00075 4.41786e-06 1.28316e-11 -1.08036e-11 1.21483e-11
56 1 0.0124548 0.00797211 0.0146631 0.00075 4.41786e-06 1.82696e-11 -1.2802e-11 6.07454e-12
57 1 0.0050941 0.0111239 0.00699144 0.00075 4.41786e-06 1.72533e-11 -5.43664e-11 -3.66792e-11
58 1 0.00716683 0.0110802 0.003366 0.00075 4.41786e-06 2.68057e-11 -2.0156e-12 -2.44112e-11
59 1 0.00950464 0.0150695 0.000703828 0.00075 4.41786e-06 -2.2708e-11 -3.55977e-11 6.75537e-12
60 1 0.00441645 0.0039621 0.0126031 0.00075 4.41786e-06 1.76954e-11 -2.46537e-11 1.72664e-11
61 1 0.0118346 0.00377227 0.00248707 0.00075 4.41786e-06 -3.31619e-11 -4.01893e-11 -1.652e-11
62 1 0.01049 0.00556438 0.00784145 0.00075 4.41786e-06 5.25883e-12 -7.38935e-11 5.84193e-12
63 1 0.00320212 0.0120724 0.00255199 0.00075 4.41786e-06 -7.10773e-11 -4.79818e-11 9.8624e-13
64 1 0.0119568 0.000804158 0.0105054 0.00075 4.41786e-06 -1.93657e-11 -3.41125e-11 8.79206e-13
65 1 0.0126913 0.00525232 0.0117669 0.00075 4.41786e-06 -4.41033e-12 -6.55811e-11 2.64313e-11
66 1 0.00786966 0.00306976 0.0146206 0.00075 4.41786e-06 -2.14266e-13 -1.45637e-13 5.18151e-13
67 1 0.0132544 0.00572846 0.00619181 0.00075 4.41786e-06 -2.78998e-11 -4.6361e-11 6.36304e-12
68 1 0.00476754 0.003067 0.0083478 0.00075 4.41786e-06 2.78226e-11 -5.37473e-11 1.20238e-11
69 1 0.0054026 0.00607702 0.000617244 0.00075 4.41786e-06 1.78354e-12 -4.52182e-12 2.53908e-11
70 1 0.0109845 0.0115551 0.000593239 0.00075 4.41786e-06 -7.96385e-11 6.62636e-11 7.94285e-12
71 1 0.0109032 0.0140394 0.0146512 0.00075 4.41786e-06 -3.16111e-12 -5.37304e-12 -4.62892e-12
72 1 0.00263439 0.0140451 0.00553218 0.00075 4.41786e-06 2.01247e-11 -7.59733e-11 -8.78768e-12
73 1 0.0103195 0.00534655 0.0143771 0.00075 4.41786e-06 3.66917e-11 -4.18467e-11 3.11061e-11
74 1 0.000451424 0.00223555 0.00662947 0.00075 4.41786e-06 -1.59778e-10 -5.0062e-10 -1.803e-10
75 1 0.00388685 0.00795318 0.00474142 0.00075 4.41786e-06 1.99123e-11 -1.22565e-11 3.47371e-11
76 1 0.00407759 0.0149831 0.0126492 0.00075 4.41786e-06 4.85895e-11 -4.71197e-11 1.41689e-11
77 1 0.000105943 0.00989516 0.000723643 0.00075 4.41786e-06 -5.56761e-11 2.98832e-11 -2.54086e-12
78 1 0.0102795 0.00804677 0.00930903 0.00075 4.41786e-06 8.4438e-12 -3.42672e-11 -6.5532e-11
79 1 0.00550008 0.00208333 0.00276184 0.00075 4.41786e-06 -1.49565e-207 6.28476e-208 -3.22954e-208
80 1 0.00743566 0.00555285 0.00430443 0.00075 4.41786e-06 -4.73482e-12 -2.82241e-12 2.05289e-12
81 1 0.0135132 0.012432 0.000571171 0.00075 4.41786e-06 1.29635e-11 3.92504e-12 -2.70357e-11
82 1 0.014937 0.00408346 0.00404732 0.00075 4.41786e-06 -1.22236e-11 -3.8755e-11 1.83858e-11
83 1 0.0033397 0.000505694 0.00463436 0.00075 4.41786e-06 -4.39261e-11 -7.86905e-11 -2.0074e-11
84 1 0.00626333 0.00123138 0.00766311 0.00075 4.41786e-06 1.07916e-12 -5.05258e-11 -2.34364e-11
85 1 0.0110366 0.0124823 0.0147233 0.00075 4.41786e-06 -2.0867e-11 9.64458e-12 -2.05586e-12
86 1 0.000708179 0.00126421 0.0137264 0.00075 4.41786e-06 2.55894e-11 -6.41384e-11 -1.61362e-11
87 1 0.000336763 0.0015382 0.00441614 0.00075 4.41786e-06 -6.27521e-11 -8.35025e-11 4.24856e-11
88 1 0.00658132 0.0141706 0.00595027 0.00075 4.41786e-06 -1.0568e-10 -4.6841e-11 -4.65214e-11
89 1 0.00298775 0.0138353 0.0114749 0.00075 4.41786e-06 2.78686e-11 -8.12292e-11 1.95596e-11
90 1 0.00632399 0.00685793 0.00754821 0.00075 4.41786e-06 1.82898e-11 -1.86627e-11 -5.84124e-13
91 1 0.0051708 0.00588628 0.0146532 0.00075 4.41786e-06 9.66486e-12 -8.13508e-12 2.3388e-12
92 1 0.0120489 0.0023727 0.00237373 0.00075 4.41786e-06 -6.20182e-12 2.48687e-12 -2.27304e-11
93 1 0.00648743 0.00570669 0.0105456 0.00075 4.41786e-06 2.15723e-11 -3.83162e-11 -1.80912e-11
94 1 0.00545978 0.014784 0.00063816 0.00075 4.41786e-06 -7.75231e-12 -1.65858e-11 -8.75517e-12
95 1 0.0121974 0.00963872 0.00462546 0.00075 4.41786e-06 -1.08709e-10 -1.03539e-10 -7.09446e-11
96 1 0.0117894 0.00120062 0.00318993 0.00075 4.41786e-06 -1.52798e-11 1.18682e-11 -1.51239e-11
97 1 0.015149 0.00272339 0.003847 0.00075 4.41786e-06 -9.20907e-12 -6.35815e-11 -1.81636e-11
98 1 0.0121834 0.0133123 0.0146625 0.00075 4.41786e-06 -2.11261e-11 -2.22533e-11 -3.32334e-12
99 1 0.00288108 0.0121096 0.00625359 0.00075 4.41786e-06 -1.20805e-10 -1.49807e-10 -6.83682e-12
100 1 0.00160417 0.00798898 0.00430431 0.00075 4.41786e-06 -1.08694e-322 -1.08694e-322 1.08694e-322
101 2 0.0149719 0.00873799 0.0144021 0.001 1.0472e-05 2.70416e-11 -6.69633e-11 1.98547e-11
102 2 0.0127055 0.00193101 0.014197 0.001 1.0472e-05 3.94303e-11 -7.27128e-11 3.33466e-12
103 2 0.00349233 0.000608479 0.00286218 0.001 1.0472e-05 -1.02398e-10 -1.16155e-10 7.56827e-11
104 2 0.00630069 0.00889598 0.0144732 0.001 1.0472e-05 -3.44708e-12 -2.59093e-11 -1.12558e-11
105 2 0.0152 0.00324794 0.002258 0.001 1.0472e-05 -5.90553e-11 -5.56635e-11 -1.64068e-11
106 2 0.0109769 0.0088394 0.00329251 0.001 1.0472e-05 -4.31067e-11 -1.5055e-10 -3.79923e-11
107 2 0.00359955 0.00444787 0.00414164 0.001 1.0472e-05 -5.32733e-11 -1.29459e-10 -1.96648e-11
108 2 0.000612879 0.0107583 0.00411286 0.001 1.0472e-05 -3.07935e-10 -2.87747e-10 -2.48211e-10
109 2 0.00459402 0.00248742 0.01045 0.001 1.0472e-05 6.13123e-11 -1.4225e-10 2.26047e-11
110 2 0.0115632 0.0128513 0.0131418 0.001 1.0472e-05 -3.56796e-11 -5.57314e-11 -5.79147e-12
111 2 0.00314374 0.0135208 0.00857812 0.001 1.0472e-05 7.02246e-11 -2.5399e-10 1.09459e-10
112 2 0.0116673 0.00645984 0.014457 0.001 1.0472e-05 2.37094e-11 -5.41746e-11 1.06286e-11
113 2 0.0131763 0.00988071 0.000898644 0.001 1.0472e-05 -2.35778e-10 2.44201e-10 -3.86787e-11
114 2 0.00426811 0.0144943 0.00480766 0.001 1.0472e-05 -1.50465e-10 -1.75066e-10 4.80908e-11
115 2 0.0103971 0.000461611 0.00653278 0.001 1.0472e-05 9.97057e-11 -5.80058e-11 -1.85312e-11
116 2 0.00513577 0.000655356 0.00398782 0.001 1.0472e-05 -1.17573e-10 -1.05738e-10 1.49603e-11
117 2 0.00602244 0.0136649 0.00441463 0.001 1.0472e-05 -2.48837e-10 -1.2834e-10 3.23939e-11
118 2 0.00895987 0.00900926 0.010238 0.001 1.0472e-05 1.44044e-10 -5.32711e-11 -1.47719e-10
119 2 0.0145113 0.0112857 0.000925885 0.001 1.0472e-05 -2.1876e-10 -1.14234e-11 1.15403e-10
120 2 0.0145774 0.002348 0.00540449 0.001 1.0472e-05 -2.98499e-11 -5.95113e-11 -2.77762e-11
121 2 0.0113308 0.000629478 0.0126435 0.001 1.0472e-05 6.00672e-12 -7.75251e-11 -1.38282e-11
122 2 0.0146804 0.0150619 0.00401224 0.001 1.0472e-05 -1.91703e-10 -1.87709e-10 -1.55185e-10
123 2 0.000169673 0.00386857 0.00771047 0.001 1.0472e-05 1.2226e-12 -2.12817e-10 1.17245e-11
124 2 0.01291 0.00518871 0.01337 0.001 1.0472e-05 1.32089e-11 -7.50341e-11 2.20199e-11
125 2 0.00291804 0.0148848 0.0098456 0.001 1.0472e-05 2.35423e-12 -1.76219e-10 8.65735e-12
126 2 0.00612427 0.00316257 0.0113999 0.001 1.0472e-05 2.79759e-11 -7.74586e-11 1.47014e-12
127 2 0.0119344 0.0153665 0.0143947 0.001 1.0472e-05 3.64357e-12 -6.39611e-11 -7.96283e-12
128 2 0.00849873 0.0039622 0.00877454 0.001 1.0472e-05 -4.21123e-12 -1.03731e-10 4.79811e-11
129 2 0.00414308 0.0108907 0.00987264 0.001 1.0472e-05 8.79537e-11 -2.57223e-10 -1.92978e-10
130 2 0.0133251 0.0013226 0.00832908 0.001 1.0472e-05 -5.80869e-12 -1.52666e-10 4.497e-11
131 2 0.00903643 0.0146671 0.00725954 0.001 1.0472e-05 1.89697e-10 -1.21542e-10 -7.04058e-11
132 2 0.00990198 0.00386862 0.0051087 0.001 1.0472e-05 -2.4119e-11 -7.87082e-11 -5.53375e-12
133 2 0.00632861 0.00218587 0.000957778 0.001 1.0472e-05 -5.70964e-11 -2.69182e-11 -4.35804e-11
134 2 0.0151681 0.00243641 0.00905256 0.001 1.0472e-05 4.20647e-11 -1.64278e-10 1.85937e-11
135 2 0.002795 0.00216464 0.00708972 0.001 1.0472e-05 3.11074e-12 -1.69e-10 -3.91189e-11
136 2 0.00160235 0.0106514 0.00111056 0.001 1.0472e-05 -1.15927e-10 -1.45717e-11 -1.16034e-10
137 2 0.0146434 0.00736965 0.0130213 0.001 1.0472e-05 6.66444e-11 -1.04523e-10 1.00519e-10
138 2 0.00773052 0.00657398 0.0029983 0.001 1.0472e-05 -2.65424e-11 -5.98829e-11 -4.36935e-11
139 2 7.4763e-05 0.00778924 0.00720976 0.001 1.0472e-05 -2.24e-10 -6.80354e-10 1.33648e-10
140 2 0.0135822 0.0067614 0.0144544 0.001 1.0472e-05 -3.65215e-12 -4.7459e-12 5.61589e-11
141 2 0.00943146 0.00825565 0.00655298 0.001 1.0472e-05 2.23556e-10 -6.40011e-11 -6.93023e-11
142 2 0.0124094 0.00534538 0.00267498 0.001 1.0472e-05 -7.47933e-11 -1.42133e-10 -7.4931e-11
143 2 0.00108485 0.0109495 0.00743019 0.001 1.0472e-05 -7.84533e-11 -4.09031e-11 2.16719e-10
144 2 0.0150143 0.00165537 0.0124054 0.001 1.0472e-05 7.93308e-13 -1.47234e-10 1.54727e-11
145 2 0.0113198 0.00435086 0.000969743 0.001 1.0472e-05 -4.66113e-11 -4.70397e-11 -5.71673e-12
146 2 0.00383769 0.00376969 0.00689636 0.001 1.0472e-05 5.40507e-11 -1.67685e-10 9.57402e-11
147 2 0.0126742 0.00594535 0.000890239 0.001 1.0472e-05 -3.6371e-11 -9.06898e-11 -3.20452e-11
148 2 0.00710293 0.010668 0.0111149 0.001 1.0472e-05 1.1411e-10 -6.5847e-11 -1.65365e-10
149 2 0.00709037 0.0146145 0.000975623 0.001 1.0472e-05 -5.69971e-11 -3.37832e-11 2.53132e-11
150 2 0.00729476 0.00549434 0.00804527 0.001 1.0472e-05 -6.60392e-11 -4.75085e-11 4.27745e-11
151 2 0.0104842 0.00724447 0.00776731 0.001 1.0472e-05 1.73727e-10 -3.87708e-11 -1.1263e-10
152 2 0.0151685 0.00536127 0.0144686 0.001 1.0472e-05 -1.37012e-11 -1.16997e-10 6.94785e-12
153 2 0.00157987 0.01251 0.0044061 0.001 1.0472e-05 -2.65697e-10 -4.66137e-10 4.51913e-11
154 2 0.00728531 0.00377232 0.00725612 0.001 1.0472e-05 -7.30277e-12 -2.00437e-11 4.75662e-11
155 2 0.01118 0.0151628 0.00247191 0.001 1.0472e-05 -1.4565e-10 9.21692e-11 -2.61917e-11
156 2 0.00576489 0.00726877 0.0106202 0.001 1.0472e-05 7.61497e-11 -7.39954e-11 -5.91841e-11
157 2 0.00191343 0.0115388 0.012716 0.001 1.0472e-05 1.01003e-10 -1.66823e-10 -7.76445e-12
158 2 0.00907702 0.00590861 0.00849641 0.001 1.0472e-05 2.57147e-11 -1.19152e-10 -2.17889e-11
159 2 0.00221881 0.0049519 0.0143908 0.001 1.0472e-05 4.16029e-11 -3.36397e-11 4.98659e-12
160 2 0.00727229 0.0152879 0.00772848 0.001 1.0472e-05 7.06017e-11 -1.06643e-10 -1.48368e-10
161 2 0.0135199 0.013753 0.0105038 0.001 1.0472e-05 3.53094e-11 -1.61578e-10 1.70148e-10
162 2 0.00275783 0.00989707 0.0127836 0.001 1.0472e-05 5.20848e-11 -2.57146e-10 1.45849e-12
163 2 0.00797877 0.00864595 0.000951359 0.001 1.0472e-05 -1.55536e-11 -4.15318e-11 4.5172e-13
164 2 0.00724534 0.00889501 0.0128746 0.001 1.0472e-05 2.79597e-11 -1.04789e-11 -3.90239e-11
165 2 0.0034855 0.00210203 0.000925726 0.001 1.0472e-05 -2.45161e-11 -8.17691e-11 1.338e-11
166 2 0.0122499 0.00246253 0.0108017 0.001 1.0472e-05 2.22487e-11 -1.40018e-10 4.37944e-11
167 2 0.00385908 0.0108002 0.0058059 0.001 1.0472e-05 -1.69464e-10 -1.53493e-10 3.11931e-11
168 2 0.00218061 0.0152605 0.00718053 0.001 1.0472e-05 4.02923e-11 -1.27889e-10 6.6725e-11
169 2 0.000828803 0.00498506 0.00335809 0.001 1.0472e-05 3.65174e-11 -1.02826e-10 9.41697e-11
170 2 0.00474007 0.00600619 0.00963439 0.001 1.0472e-05 7.61506e-12 -1.19269e-10 2.68729e-11
171 2 0.00361209 0.0102634 0.014452 0.001 1.0472e-05 -5.58971e-12 -7.01097e-11 -1.30507e-11
172 2 0.0051907 0.0015143 0.00886946 0.001 1.0472e-05 4.79486e-11 -1.16416e-10 1.30425e-11
173 2 0.0071332 0.000289692 0.00540535 0.001 1.0472e-05 -3.26652e-10 -8.60793e-11 -1.82208e-10
174 2 0.00990878 0.00355141 0.0107222 0.001 1.0472e-05 4.87456e-11 -3.27324e-11 4.95685e-11
175 2 0.00511724 0.00951737 0.0063381 0.001 1.0472e-05 -9.69114e-11 -1.04685e-10 1.50519e-10
176 2 0.0128122 0.0112068 0.0021899 0.001 1.0472e-05 -7.96022e-12 6.93468e-11 9.74936e-11
177 2 0.0093738 0.00623714 0.00657983 0.001 1.0472e-05 -4.30989e-12 -7.70634e-11 9.74204e-12
178 2 0.00856074 0.00385222 0.00367811 0.001 1.0472e-05 -5.84162e-11 -3.38876e-11 -5.23906e-12
179 2 0.0122758 0.00402915 0.00589032 0.001 1.0472e-05 1.18298e-11 -4.73025e-11 7.45083e-11
180 2 0.00337737 0.00876701 0.00936048 0.001 1.0472e-05 -1.66915e-10 -2.32884e-10 8.36044e-12
181 2 0.00277602 0.00828761 0.0144299 0.001 1.0472e-05 1.59698e-11 -4.75166e-11 -2.01119e-11
182 2 0.000762585 0.012471 0.000988134 0.001 1.0472e-05 -4.06131e-11 4.2517e-11 -2.96069e-11
183 2 0.00803015 0.014161 0.00469963 0.001 1.0472e-05 -6.01817e-10 1.69177e-11 -1.2779e-10
184 2 0.010837 0.00238834 0.000978925 0.001 1.0472e-05 -9.01339e-12 5.16781e-12 -2.11194e-12
185 2 0.0130514 0.00315822 0.00121424 0.001 1.0472e-05 5.04062e-11 -4.17454e-11 -6.24157e-12
186 2 0.00226883 0.00200538 0.00263243 0.001 1.0472e-05 -6.80059e-11 -1.34831e-10 3.71972e-11
187 2 0.0143459 0.0130042 0.00186624 0.001 1.0472e-05 -1.30322e-10 -2.06245e-11 9.12819e-11
188 2 0.0113945 0.00918114 0.0110881 0.001 1.0472e-05 1.11582e-10 -2.56531e-10 -3.55998e-12
189 2 0.00340058 0.00207828 0.00890818 0.001 1.0472e-05 3.77586e-11 -1.54501e-10 1.96645e-11
190 2 0.00510559 0.00374798 0.00314021 0.001 1.0472e-05 -6.99114e-11 -7.99598e-11 8.7512e-12
191 2 0.015285 0.0111339 0.0128545 0.001 1.0472e-05 3.41408e-11 -1.29249e-10 4.67589e-11
192 2 0.00506782 0.011307 0.000981164 0.001 1.0472e-05 -3.67133e-11 -2.0901e-11 -2.88605e-11
193 2 0.00458494 0.0121472 0.00832696 0.001 1.0472e-05 2.64867e-10 4.66565e-11 -1.51964e-10
194 2 0.00973389 0.011808 0.0129043 0.001 1.0472e-05 8.21132e-11 -1.2747e-10 -5.54821e-11
195 2 0.00756106 0.0104983 0.00655701 0.001 1.0472e-05 1.73831e-10 -7.38889e-11 -1.07713e-10
196 2 0.0143108 0.0093607 0.00678585 0.001 1.0472e-05 -1.11843e-06 -7.1106e-07 4.15177e-07
197 2 0.0135592 0.0139428 0.0140031 0.001 1.0472e-05 5.87789e-11 -1.07091e-10 3.33822e-11
198 2 0.0126963 0.00955662 0.00300749 0.001 1.0472e-05 -3.50169e-10 5.05032e-11 -3.76327e-10
199 2 0.0142843 0.0111854 0.0077088 0.001 1.0472e-05 -8.60833e-10 -2.15252e-09 3.72611e-10
200 2 0.00481986 0.0145587 0.0085124 0.001 1.0472e-05 3.40129e-11 -1.54678e-10 6.95178e-11
201 2 0.00832651 0.0120425 0.01158 0.001 1.0472e-05 4.93402e-11 -7.62702e-12 -1.36759e-10
202 2 0.000972221 0.00881564 0.00581637 0.001 1.0472e-05 7.69122e-11 -1.42473e-10 -9.2655e-10
203 2 0.0142295 0.0115992 0.00344742 0.001 1.0472e-05 -5.3722e-10 -2.77284e-10 7.98629e-10
204 2 0.00235943 5.7767e-05 0.013031 0.001 1.0472e-05 5.23845e-11 -1.13382e-10 6.60183e-12
205 2 0.00941113 0.00185581 0.00988635 0.001 1.0472e-05 2.45389e-11 -2.82123e-11 -2.72257e-11
206 2 0.0104228 0.000101749 0.0046259 0.001 1.0472e-05 4.0123e-12 2.33749e-10 -1.73366e-10
207 2 0.0135229 0.00702473 0.0101026 0.001 1.0472e-05 1.85979e-10 -2.68554e-10 2.45998e-10
208 2 0.0112957 0.00589602 0.0126544 0.001 1.0472e-05 2.65406e-11 -9.17867e-11 2.66444e-11
209 2 0.0049364 0.00756964 0.0144406 0.001 1.0472e-05 -1.02562e-11 -3.41196e-11 4.23937e-12
210 2 0.0136205 0.0073143 0.00685831 0.001 1.0472e-05 -1.66039e-10 -1.34822e-09 1.70439e-10
211 2 0.0112442 0.0151231 0.00936431 0.001 1.0472e-05 4.2011e-11 -5.98679e-11 -4.882e-11
212 2 0.00904781 0.00434845 0.00675362 0.001 1.0472e-05 -4.63532e-12 -5.93685e-11 1.46966e-11
213 2 0.0135002 0.0149674 0.0120801 0.001 1.0472e-05 2.03293e-11 -1.38467e-10 8.31033e-11
214 2 0.00522462 0.00873684 0.00237263 0.001 1.0472e-05 -1.89446e-11 -1.25534e-11 2.11174e-11
215 2 0.014913 0.0104445 0.0111223 0.001 1.0472e-05 8.121e-11 -1.91251e-10 1.02549e-10
216 2 0.00735115 0.00306813 0.00234091 0.001 1.0472e-05 -7.91014e-11 -7.71081e-12 -4.66341e-11
217 2 0.00785714 0.0071001 0.0131874 0.001 1.0472e-05 -9.45602e-12 6.23517e-12 -2.83729e-11
218 2 0.0105215 0.00201599 0.0115062 0.001 1.0472e-05 1.90585e-11 -2.88567e-11 1.8959e-11
219 2 0.00951605 0.00182187 0.00539654 0.001 1.0472e-05 2.93829e-11 -2.82241e-11 2.15957e-11
220 2 0.0109243 0.00459243 0.00368263 0.001 1.0472e-05 -8.57376e-11 -6.9078e-11 -1.84865e-11
221 2 0.0068158 0.0024706 0.0130554 0.001 1.0472e-05 4.44629e-11 -8.65658e-11 7.03328e-12
222 2 0.00983209 0.000706351 0.00837825 0.001 1.0472e-05 1.9055e-11 -8.09255e-11 -9.78021e-12
223 2 0.00691204 0.00192774 0.00631137 0.001 1.0472e-05 -4.3298e-12 -9.45118e-11 -2.69907e-11
224 2 0.00157798 0.0117964 0.00265549 0.001 1.0472e-05 -1.86644e-10 -2.06907e-11 -9.12216e-11
225 2 0.0107588 0.0118515 0.00812805 0.001 1.0472e-05 3.45535e-10 -9.55342e-12 -1.87831e-10
226 2 0.0121495 0.00959194 0.0144851 0.001 1.0472e-05 2.06576e-11 -3.89955e-11 -1.07135e-12
227 2 0.0148463 0.013001 0.0128949 0.001 1.0472e-05 3.75947e-11 -1.63102e-10 1.85785e-11
228 2 0.00950729 0.00531824 0.0027431 0.001 1.0472e-05 -5.47151e-11 -4.28678e-11 9.25901e-12
229 2 0.0019295 0.00880535 0.000912114 0.001 1.0472e-05 2.01568e-11 -2.88941e-11 7.64398e-12
230 2 0.00570029 0.00429995 0.0099142 0.001 1.0472e-05 3.33866e-11 -1.0852e-10 1.64637e-11
231 2 0.0108048 0.00177202 0.0144656 0.001 1.0472e-05 2.90451e-11 -1.24228e-11 -1.09047e-12
232 2 0.00922304 0.00722764 0.00160011 0.001 1.0472e-05 -5.13039e-11 -5.35452e-11 -1.95084e-11
233 2 0.0036402 0.0141124 0.00692016 0.001 1.0472e-05 -9.94229e-11 -1.88442e-10 1.27455e-10
234 2 0.0140646 0.00305028 0.0105996 0.001 1.0472e-05 1.8158e-11 -1.99501e-10 3.88305e-11
235 2 0.0082748 0.00793143 0.0115784 0.001 1.0472e-05 3.04181e-11 -1.68109e-11 -8.78724e-11
236 2 0.00347083 0.00594539 0.00734052 0.001 1.0472e-05 -7.34219e-11 -1.28496e-10 -5.76682e-11
237 2 0.00825001 0.0104969 0.0127088 0.001 1.0472e-05 3.61717e-11 7.22677e-12 -9.72532e-11
238 2 0.00156243 0.0136422 0.0104332 0.001 1.0472e-05 5.10332e-11 -1.174e-10 8.79634e-11
239 2 0.015059 0.0112615 0.00591321 0.001 1.0472e-05 -1.4272e-09 -1.88436e-09 3.63294e-10
240 2 0.00956266 0.0105886 0.0112571 0.001 1.0472e-05 6.01745e-11 -7.67449e-11 -1.25055e-10
241 2 0.00305434 0.0118805 0.000910314 0.001 1.0472e-05 -5.52756e-11 -5.24347e-11 -3.02918e-11
242 2 0.00746183 0.00136169 0.0144675 0.001 1.0472e-05 4.48101e-11 -6.16661e-11 -3.27782e-12
243 2 0.0152293 0.0140733 0.0112791 0.001 1.0472e-05 6.14007e-11 -2.0308e-10 1.02146e-10
244 2 0.0130288 0.0142907 0.00127578 0.001 1.0472e-05 -9.14876e-11 6.17059e-13 7.73979e-11
245 2 0.00810737 0.00319921 0.00549928 0.001 1.0472e-05 -1.30951e-11 -1.00563e-10 -1.92597e-11
246 2 0.00160414 0.00270943 0.000925566 0.001 1.0472e-05 -4.34274e-11 -7.28775e-11 1.46319e-11
247 2 0.00916124 0.0131605 0.00583499 0.001 1.0472e-05 -5.47045e-10 4.11777e-10 -4.78224e-10
248 2 0.00330325 0.0140446 0.00321184 0.001 1.0472e-05 -1.60903e-10 -1.85831e-10 8.86452e-11
249 2 0.00976117 0.00555904 0.000882614 0.001 1.0472e-05 -4.47451e-11 -3.94074e-11 -1.88471e-12
250 2 0.00271373 0.0120634 0.00967147 0.001 1.0472e-05 1.43101e-10 -2.59003e-10 9.40205e-11
251 2 0.00340822 0.00643307 0.0144436 0.001 1.0472e-05 5.92758e-11 -6.3648e-12 9.26154e-12
252 2 0.000830039 0.00455496 0.000974736 0.001 1.0472e-05 -1.05737e-11 -1.45211e-11 1.64257e-11
253 2 0.0144266 0.0079746 0.00875573 0.001 1.0472e-05 4.84264e-10 -6.42155e-10 3.4166e-10
254 2 0.00438449 0.00399901 0.00101316 0.001 1.0472e-05 -2.48845e-166 -5.06529e-166 -3.52079e-167
255 2 0.00471216 0.000186015 0.0101438 0.001 1.0472e-05 1.69959e-11 -1.44556e-10 2.16244e-11
256 2 0.0132016 0.00778606 0.0117859 0.001 1.0472e-05 5.49905e-11 -1.41248e-10 1.59782e-10
257 2 0.00659062 0.00956595 0.00478995 0.001 1.0472e-05 -2.62379e-11 -1.1959e-10 6.17541e-11
258 2 0.00249126 0.00181977 0.0122781 0.001 1.0472e-05 7.64e-11 -1.53693e-10 -1.00372e-11
259 2 0.0153403 0.0062501 0.010101 0.001 1.0472e-05 1.12791e-10 -3.71166e-10 2.41575e-10
260 2 0.00712619 0.0112387 0.00157061 0.001 1.0472e-05 -1.68786e-10 -6.3105e-11 -1.13389e-10
261 2 0.0139359 0.00478882 0.00740067 0.001 1.0472e-05 8.87381e-11 -1.06139e-10 8.35815e-11
262 2 0.00174303 0.014408 0.0144996 0.001 1.0472e-05 6.37016e-11 -1.17573e-10 1.33256e-11
263 2 0.0102437 0.00703721 0.00327557 0.001 1.0472e-05 -1.67193e-11 -8.37883e-11 1.74543e-11
264 2 0.0121004 0.0125843 0.00108456 0.001 1.0472e-05 -8.62559e-11 5.50291e-11 4.59364e-11
265 2 0.0149747 0.011962 0.014563 0.001 1.0472e-05 2.10804e-11 -7.23316e-11 3.90328e-11
266 2 0.00809245 0.0125786 0.0133384 0.001 1.0472e-05 2.9412e-11 -2.88446e-11 -1.83988e-10
267 2 0.00488023 0.00535711 0.00573052 0.001 1.0472e-05 -1.21853e-11 -5.15607e-11 3.04761e-11
268 2 0.00503906 0.00972852 0.0133084 0.001 1.0472e-05 5.83594e-11 -4.67538e-11 -5.07045e-11
269 2 0.00547346 0.0105125 0.00304888 0.001 1.0472e-05 -4.24265e-11 -5.39323e-11 1.01081e-10
270 2 0.00497608 0.00301259 0.0144894 0.001 1.0472e-05 -6.28758e-13 -3.30706e-11 5.33196e-12
271 2 0.00595218 0.00766262 0.000932561 0.001 1.0472e-05 -4.44159e-11 -7.80681e-12 9.11795e-12
272 2 0.0108569 0.00800966 0.0136238 0.001 1.0472e-05 -1.29878e-11 -8.77099e-11 -1.83846e-11
273 2 0.0108148 0.00508339 0.00629971 0.001 1.0472e-05 5.87532e-11 -9.94298e-11 2.46062e-11
274 2 0.000196574 0.00341294 0.0117453 0.001 1.0472e-05 3.09969e-12 -1.75207e-10 2.92494e-11
275 2 0.00647781 0.0117068 0.00785461 0.001 1.0472e-05 1.6733e-10 -8.74875e-11 -2.3428e-10
276 2 0.000306731 0.0122418 0.0112997 0.001 1.0472e-05 9.65245e-11 -1.33572e-10 8.76873e-11
277 2 0.00626685 0.012874 0.000932133 0.001 1.0472e-05 -8.65971e-11 -2.13282e-11 -3.25382e-11
278 2 0.00801185 0.0070882 0.00753446 0.001 1.0472e-05 9.37568e-11 -5.99684e-11 -7.66487e-11
279 2 0.00885139 0.0103862 0.00889722 0.001 1.0472e-05 2.53602e-10 6.72564e-12 -1.75537e-10
280 2 0.00644745 0.00414381 0.000923519 0.001 1.0472e-05 -3.94023e-11 -2.9173e-11 -2.08528e-11
281 2 0.00437708 0.0132627 0.000825399 0.001 1.0472e-05 -5.3443e-11 -5.56867e-12 4.15857e-11
282 2 0.0121924 0.0130429 0.00909328 0.001 1.0472e-05 1.57349e-10 -1.0556e-10 1.85314e-10
283 2 0.0081805 0.00930076 0.0145 0.001 1.0472e-05 4.94166e-12 -1.204e-11 -2.45088e-11
284 2 0.00010095 0.00615217 0.00208788 0.001 1.0472e-05 -6.74737e-12 -5.7682e-11 1.88485e-11
285 2 0.00105243 0.0127564 0.0138245 0.001 1.0472e-05 8.40183e-11 -1.31498e-10 9.79489e-11
286 2 0.0124649 0.00288382 0.00443676 0.001 1.0472e-05 3.57875e-12 -5.709e-11 5.26481e-12
287 2 0.00963464 0.00696761 0.0126039 0.001 1.0472e-05 4.69458e-11 -4.66298e-11 -1.57093e-11
288 2 0.00721568 0.0127384 0.0028088 0.001 1.0472e-05 -1.93667e-10 -1.60103e-10 -1.43921e-10
289 2 0.00114143 0.00918656 0.00303807 0.001 1.0472e-05 3.59614e-11 -1.89811e-10 -5.48646e-10
290 2 0.00887705 0.00858119 0.00832694 0.001 1.0472e-05 2.75829e-10 4.58929e-11 -1.27787e-10
291 2 0.0059249 0.000529775 0.0019021 0.001 1.0472e-05 -1.01821e-10 -7.03388e-11 -2.65869e-11
292 2 0.0137409 0.00336556 0.0124953 0.001 1.0472e-05 1.45883e-11 -1.4618e-10 2.63912e-11
293 2 0.00951325 0.00989527 0.00399816 0.001 1.0472e-05 2.18882e-10 1.66452e-10 2.02975e-11
294 2 0.00557679 0.0110766 0.0048687 0.001 1.0472e-05 -1.60153e-10 -1.64163e-10 9.99145e-11
295 2 0.00129943 0.00838052 0.013152 0.001 1.0472e-05 -1.76342e-11 -1.40383e-10 3.95857e-11
296 2 0.0107286 0.0117364 0.0026946 0.001 1.0472e-05 -2.41678e-10 -3.83617e-10 -3.77308e-10
297 2 0.0131264 0.0108219 0.00615458 0.001 1.0472e-05 -1.89377e-09 -1.51928e-09 6.79521e-11
298 2 0.00363212 0.0149047 0.0144471 0.001 1.0472e-05 4.71124e-11 -7.5995e-11 5.1857e-12
299 2 0.00145257 0.00825758 0.00934563 0.001 1.0472e-05 -2.50273e-10 -2.75408e-10 -1.80583e-10
300 2 0.00422143 0.00494412 0.0112467 0.001 1.0472e-05 3.01382e-11 -1.38824e-10 4.06914e-11
301 2 0.0138264 0.00348605 0.0144265 0.001 1.0472e-05 -1.55508e-11 -4.14314e-11 1.35707e-11
302 2 0.0139652 0.011549 0.00961442 0.001 1.0472e-05 1.0448e-10 -2.23376e-10 3.46339e-11
303 2 0.00185408 0.0127452 0.00742254 0.001 1.0472e-05 4.80863e-12 -1.97537e-10 1.13279e-10
304 2 0.00178307 0.00675792 0.0103862 0.001 1.0472e-05 6.51983e-12 -1.40053e-10 -1.6783e-11
305 2 0.00163981 0.0111401 0.00566453 0.001 1.0472e-05 -6.47183e-10 -3.66236e-10 1.65252e-10
306 2 0.0141364 0.00420809 0.00555102 0.001 1.0472e-05 6.15092e-11 -8.03911e-11 4.51056e-11
307 2 0.0137886 0.0100446 0.00452193 0.001 1.0472e-05 -5.5781e-10 -1.13509e-09 2.33262e-10
308 2 0.0112751 0.007498 0.0117824 0.001 1.0472e-05 4.60528e-11 -3.54371e-11 1.10891e-11
309 2 0.0036057 0.0100285 0.000962276 0.001 1.0472e-05 1.93075e-11 -3.45411e-11 1.19692e-11
310 2 0.00690513 0.00912511 0.00303531 0.001 1.0472e-05 3.51012e-11 -3.9157e-11 7.01347e-11
311 2 0.0127891 0.0124106 0.00728079 0.001 1.0472e-05 3.76604e-10 -1.03725e-09 3.24555e-10
312 2 0.0124525 0.010881 0.00851007 0.001 1.0472e-05 -1.68104e-10 -8.39065e-10 -1.58141e-10
313 2 0.00832534 0.0100535 0.0025497 0.001 1.0472e-05 5.63166e-12 9.00893e-11 7.59053e-11
314 2 0.00503467 0.0135817 0.0126119 0.001 1.0472e-05 8.10366e-11 -1.47969e-10 -3.41396e-11
315 2 0.00409996 0.0101143 0.00801869 0.001 1.0472e-05 -3.71031e-68 1.48099e-68 -3.90883e-68
316 2 0.00765947 0.00548718 0.0060739 0.001 1.0472e-05 -3.03495e-12 -4.53949e-11 -4.44025e-11
317 2 0.0138295 0.000428952 0.0144737 0.001 1.0472e-05 2.26353e-11 -9.09458e-11 -4.86312e-12
318 2 0.013972 0.00284911 0.00740244 0.001 1.0472e-05 2.00466e-11 -8.78051e-11 1.30712e-10
319 2 0.00318581 0.0121342 0.0115247 0.001 1.0472e-05 1.34328e-10 -1.57171e-10 3.89005e-11
320 2 0.00678456 0.0090854 0.0100989 0.001 1.0472e-05 1.14956e-10 -6.99898e-11 -6.24274e-11
321 2 0.00669621 0.012899 0.0119763 0.001 1.0472e-05 7.26627e-11 -1.09833e-10 -9.84389e-11
322 2 0.0149282 0.00619856 0.00822222 0.001 1.0472e-05 5.44707e-10 -6.07209e-10 4.38966e-10
323 2 0.0101396 0.00961159 0.0144233 0.001 1.0472e-05 1.54716e-11 -5.30135e-11 -3.36962e-12
324 2 0.00136078 0.00911386 0.00767383 0.001 1.0472e-05 -5.08412e-10 -1.89454e-11 -3.1498e-10
325 2 0.000723907 0.00711535 0.0144783 0.001 1.0472e-05 1.87028e-11 -6.19454e-11 2.88434e-11
326 2 0.000743884 0.00697877 0.0118942 0.001 1.0472e-05 2.79369e-11 -1.61635e-10 9.54218e-11
327 2 0.00607853 0.0144862 0.0111045 0.001 1.0472e-05 1.91798e-11 -8.26926e-11 1.52311e-11
328 2 0.00953731 0.0142388 0.00907011 0.001 1.0472e-05 1.71566e-10 -9.88134e-11 -7.616e-11
329 2 0.00178944 0.000732597 0.000931026 0.001 1.0472e-05 -3.43009e-11 -4.77697e-11 2.82665e-11
330 2 0.00248377 0.00684551 0.0127929 0.001 1.0472e-05 -1.19088e-12 -1.11191e-10 5.42843e-11
331 2 0.00541111 0.0113932 0.0143195 0.001 1.0472e-05 7.9668e-11 -3.76687e-11 -4.1559e-11
332 2 0.012919 0.00787954 0.00441347 0.001 1.0472e-05 -2.5624e-11 -3.41957e-10 -2.06355e-10
333 2 0.00522488 0.000662569 0.0118927 0.001 1.0472e-05 3.28701e-11 -6.59829e-11 5.11352e-11
334 2 0.00163158 0.00715132 0.00648452 0.001 1.0472e-05 -1.6242e-11 1.56926e-10 -2.21644e-10
335 2 0.0115077 0.00159732 0.00886629 0.001 1.0472e-05 3.64654e-11 -1.06078e-10 -7.16095e-11
336 2 0.00344688 0.0124205 0.0041732 0.001 1.0472e-05 -1.50751e-10 -2.951e-10 -2.38179e-11
337 2 0.00575756 0.0103835 0.00910492 0.001 1.0472e-05 1.21681e-10 -7.79702e-11 -2.2658e-10
338 2 0.0120023 0.011198 0.00403426 0.001 1.0472e-05 -4.88402e-10 2.50641e-10 -2.63009e-10
339 2 0.011473 0.00151206 0.00528904 0.001 1.0472e-05 6.25459e-11 5.4847e-11 6.74082e-11
340 2 0.00137881 0.00697169 0.000945343 0.001 1.0472e-05 3.79294e-11 -5.18412e-11 2.61031e-11
341 2 0.00308473 0.00564611 0.000918513 0.001 1.0472e-05 1.35578e-11 -7.06647e-11 1.59907e-11
342 2 0.012188 0.00235102 0.00687822 0.001 1.0472e-05 2.94086e-11 -1.01324e-10 3.08292e-11
343 2 0.00377408 0.00683166 0.0111036 0.001 1.0472e-05 9.70622e-12 -1.67886e-10 3.61842e-11
344 2 0.00114172 0.00272986 0.0132811 0.001 1.0472e-05 1.7468e-10 -1.32321e-10 -2.51853e-11
345 2 0.00801187 0.0143065 0.0142808 0.001 1.0472e-05 1.23615e-11 -5.39022e-11 -9.2674e-11
346 2 0.00926058 0.000847095 0.00340809 0.001 1.0472e-05 -9.55122e-11 4.79786e-11 3.43636e-11
347 2 0.00988211 0.00886937 0.0121369 0.001 1.0472e-05 4.89324e-11 -5.64627e-11 -7.02847e-11
348 2 0.000113101 0.0105971 0.00228405 0.001 1.0472e-05 -1.19469e-10 -7.37286e-12 -3.12135e-11
349 2 0.0151459 0.000223727 0.00585751 0.001 1.0472e-05 -2.98945e-10 -4.03249e-10 5.4293e-11
350 2 0.00820256 0.0129883 0.000946395 0.001 1.0472e-05 -8.82874e-11 -5.92449e-11 -3.72286e-11
351 2 0.00654092 0.013051 0.0140637 0.001 1.0472e-05 5.36966e-11 -6.51481e-11 -8.80497e-11
352 2 0.00412831 0.00467065 0.014135 0.001 1.0472e-05 5.1013e-11 -5.83151e-11 1.66101e-11
353 2 0.0104415 0.00430726 0.0123536 0.001 1.0472e-05 2.76963e-11 -5.39812e-11 3.88288e-11
354 2 0.0026358 0.00762499 0.008011 0.001 1.0472e-05 -3.97804e-10 -6.75212e-11 -1.52999e-10
355 2 0.00619018 0.00963994 0.00094849 0.001 1.0472e-05 -8.65541e-11 -2.889e-11 -1.74815e-12
356 2 0.0044679 0.00606557 0.00387406 0.001 1.0472e-05 -5.47249e-11 -5.87036e-11 -4.5736e-11
357 2 0.00724754 0.00954615 0.00832247 0.001 1.0472e-05 1.66325e-10 -2.80229e-11 -1.18626e-10
358 2 0.00315879 0.00122249 0.0106055 0.001 1.0472e-05 6.69396e-11 -1.79258e-10 -1.00488e-11
359 2 0.00182052 0.00317139 0.00835747 0.001 1.0472e-05 2.56879e-11 -2.36899e-10 -2.82583e-11
360 2 0.00448001 0.0146813 0.00193932 0.001 1.0472e-05 -8.8439e-11 -1.28212e-10 -7.60646e-12
361 2 0.00931009 0.0100658 0.00589331 0.001 1.0472e-05 4.207e-10 -7.83083e-11 -1.18297e-13
362 2 0.00431948 0.00961847 0.00434437 0.001 1.0472e-05 -4.90469e-11 -1.58532e-10 3.33451e-11
363 2 0.00485628 0.0132784 0.014531 0.001 1.0472e-05 7.65285e-11 -5.00683e-11 1.55488e-11
364 2 0.00751908 0.00646591 0.000975791 0.001 1.0472e-05 -6.21965e-11 -1.53654e-11 2.89696e-11
365 2 0.00594435 0.0135187 0.00737792 0.001 1.0472e-05 -9.57639e-11 -1.3975e-10 -7.13417e-11
366 2 0.0087166 0.00827627 0.0030866 0.001 1.0472e-05 8.25164e-11 3.22042e-11 6.59314e-11
367 2 0.0014984 0.013833 0.0123168 0.001 1.0472e-05 6.44796e-11 -1.09834e-10 8.18117e-11
368 2 0.00981007 0.0057611 0.00472362 0.001 1.0472e-05 -4.66766e-13 -1.07405e-11 1.40785e-11
369 2 0.00394017 0.00738058 0.0011107 0.001 1.0472e-05 4.46112e-12 -5.73711e-11 2.80995e-12
370 2 0.00394746 0.00815388 0.0128663 0.001 1.0472e-05 8.63637e-12 -6.79946e-11 -2.71635e-11
371 2 0.0141554 0.0132524 0.00879329 0.001 1.0472e-05 6.62848e-11 -6.73543e-11 2.8223e-10
372 2 0.00955411 0.0130539 0.0143898 0.001 1.0472e-05 2.79825e-11 -5.46684e-11 -2.97791e-11
373 2 0.0101984 0.00474927 0.00934072 0.001 1.0472e-05 3.52283e-11 -6.67736e-11 -5.57954e-12
374 2 0.000121854 0.0130619 0.00335798 0.001 1.0472e-05 -3.22511e-10 -2.33499e-10 8.85555e-11
375 2 2.60976e-05 0.00873801 0.0117312 0.001 1.0472e-05 -2.54239e-11 -1.88825e-10 1.61846e-10
376 2 0.00973717 0.00701289 0.0106164 0.001 1.0472e-05 7.6723e-11 -1.74062e-11 -5.70178e-11
377 2 0.0105315 0.00993773 0.00969085 0.001 1.0472e-05 1.99241e-10 -5.08827e-11 -1.64338e-10
378 2 0.00961837 0.0133659 0.0114878 0.001 1.0472e-05 9.80052e-11 -7.5805e-11 -1.30023e-10
379 2 0.00228035 0.00975156 0.00448468 0.001 1.0472e-05 -4.67269e-10 -4.20634e-10 7.85643e-11
380 2 0.0102341 0.00818274 0.00486369 0.001 1.0472e-05 1.05844e-10 -1.61159e-10 1.10038e-10
381 2 0.00215448 0.00130828 0.0144798 0.001 1.0472e-05 2.89543e-11 -8.57394e-11 -1.82354e-11
382 2 0.0130697 0.00150111 0.0123103 0.001 1.0472e-05 1.30793e-11 -1.18933e-10 2.22067e-11
383 2 0.0146052 0.00152366 0.000981552 0.001 1.0472e-05 -1.49244e-11 -3.84051e-11 1.77607e-11
384 2 0.014226 0.00472482 0.000984877 0.001 1.0472e-05 -4.87753e-12 -9.42071e-12 -1.93334e-11
385 2 0.010313 0.014209 0.0130172 0.001 1.0472e-05 3.58213e-11 -1.23141e-10 -8.04574e-11
386 2 0.00797642 0.0141781 0.0109786 0.001 1.0472e-05 5.10329e-11 -7.10033e-11 -9.56474e-11
387 2 0.0046864 0.00198534 0.00709852 0.001 1.0472e-05 4.11346e-11 -9.9447e-11 2.63852e-11
388 2 0.0130235 0.0147931 0.00869147 0.001 1.0472e-05 7.14409e-11 -8.05874e-11 1.28502e-10
389 2 0.000808613 0.00451802 0.0132018 0.001 1.0472e-05 3.53346e-11 -1.29144e-10 4.16226e-11
390 2 0.00677204 0.00487074 0.0120359 0.001 1.0472e-05 3.1756e-11 -3.31126e-11 -7.46541e-12
391 2 0.0135226 0.00390524 0.00318762 0.001 1.0472e-05 -5.64552e-11 -9.40698e-11 -6.59565e-12
392 2 0.00778184 0.00489267 0.00217096 0.001 1.0472e-05 -9.7742e-11 -8.29782e-12 4.47705e-12
393 2 0.00669537 0.00331126 0.00402918 0.001 1.0472e-05 -1.29187e-10 -2.00465e-11 -9.16098e-12
394 2 0.00618524 0.0120356 0.0100569 0.001 1.0472e-05 5.63493e-11 -8.59634e-11 -1.77876e-10
395 2 0.00736227 0.0111036 0.0144012 0.001 1.0472e-05 5.70888e-11 -6.38931e-12 -2.97819e-11
396 2 0.00295663 0.00310211 0.014387 0.001 1.0472e-05 2.01331e-11 -6.75434e-11 -1.30447e-11
397 2 0.000399955 0.00428455 0.00965483 0.001 1.0472e-05 1.11147e-10 -3.32655e-10 1.26641e-10
398 2 0.0151214 0.00100641 0.00765941 0.001 1.0472e-05 -6.32425e-11 -2.14416e-10 5.13346e-11
399 2 0.0140254 0.0139836 0.00703447 0.001 1.0472e-05 -5.15625e-12 -2.97684e-10 2.52393e-10
400 2 0.00665553 0.00664819 0.0144829 0.001 1.0472e-05 6.38809e-12 -5.06562e-12 -8.56225e-12
401 3 0.00412599 0.00137665 0.0135511 0.00125 2.04531e-05 9.36029e-11 -1.74253e-10 3.04027e-12
402 3 0.0107826 0.00871986 0.00112619 0.00125 2.04531e-05 -1.80695e-10 -2.65203e-10 -7.9509e-11
403 3 0.00862737 0.012094 0.00754645 0.00125 2.04531e-05 3.94325e-10 -5.30688e-11 -4.38349e-10
404 3 0.0136999 0.00490313 0.00957165 0.00125 2.04531e-05 1.15869e-10 -5.01468e-10 2.48984e-10
405 3 0.000514979 0.013522 0.00595212 0.00125 2.04531e-05 -3.0179e-10 -1.19787e-09 5.44677e-10
406 3 0.0147025 0.00818492 0.00123801 0.00125 2.04531e-05 2.78405e-10 -1.00199e-10 5.61618e-11
407 3 0.0020278 0.00498529 0.0115158 0.00125 2.04531e-05 6.61923e-11 -2.6444e-10 5.80595e-11
408 3 0.00184386 0.00287322 0.0104712 0.00125 2.04531e-05 6.3442e-11 -3.70486e-10 5.80532e-11
409 3 0.0129791 0.0116038 0.0140791 0.00125 2.04531e-05 -1.21389e-11 -7.25941e-11 3.56181e-11
410 3 0.013205 0.0096047 0.0101858 0.00125 2.04531e-05 3.38308e-10 -6.7765e-10 2.64288e-10
411 3 0.0153472 0.0150174 0.0132677 0.00125 2.04531e-05 8.51754e-11 -2.03861e-10 1.09551e-10
412 3 0.0024157 0.0064872 0.00284784 0.00125 2.04531e-05 -6.31722e-12 -1.89812e-10 1.7889e-11
413 3 0.00145271 0.0146741 0.00409171 0.00125 2.04531e-05 -5.19658e-10 -7.46762e-10 1.53584e-10
414 3 0.00381303 0.00231532 0.00419777 0.00125 2.04531e-05 -1.6652e-10 -2.30347e-10 1.47948e-10
415 3 0.00120988 0.0102617 0.0142644 0.00125 2.04531e-05 3.24027e-11 -1.35927e-10 6.94351e-12
416 3 0.00523691 6.61534e-05 0.00651573 0.00125 2.04531e-05 -2.08902e-10 -3.31416e-10 7.90146e-11
417 3 0.00516618 0.0113635 0.0119059 0.00125 2.04531e-05 2.34291e-10 -2.706e-10 -2.08869e-10
418 3 0.00896488 0.00348371 0.00109192 0.00125 2.04531e-05 -5.87289e-11 -3.82308e-11 -4.12029e-11
419 3 0.00242373 0.00847047 0.0113119 0.00125 2.04531e-05 2.8304e-11 -2.61548e-10 -5.43517e-12
420 3 0.00471875 0.00913109 0.0110649 0.00125 2.04531e-05 5.81317e-11 -3.02902e-10 -6.46223e-11
421 3 0.00469688 0.012697 0.00585677 0.00125 2.04531e-05 -4.73484e-10 -4.05546e-10 1.39345e-10
422 3 0.00803 0.00191715 0.00813368 0.00125 2.04531e-05 -7.61113e-12 -1.87528e-10 -4.25127e-11
423 3 0.0135119 0.0119519 0.0117016 0.00125 2.04531e-05 1.56082e-10 -2.39115e-10 2.35914e-10
424 3 0.00303804 0.00891027 0.00633279 0.00125 2.04531e-05 -3.84162e-10 -4.09194e-10 7.68282e-11
425 3 0.0145916 0.00535797 0.0119365 0.00125 2.04531e-05 7.52272e-11 -3.07286e-10 2.74541e-10
426 3 0.0120184 0.00601219 0.00474831 0.00125 2.04531e-05 1.70679e-10 -3.92011e-10 -2.0657e-10
427 3 0.0125849 0.0131023 0.00308891 0.00125 2.04531e-05 1.56977e-11 4.20618e-11 3.18346e-10
428 3 0.0125685 0.000175611 0.0066453 0.00125 2.04531e-05 3.0341e-10 -1.89289e-10 -1.87582e-10
429 3 0.000463604 0.000912022 0.00263857 0.00125 2.04531e-05 -1.07197e-10 -2.11533e-10 8.61441e-11
430 3 0.00848536 0.0144564 0.00259723 0.00125 2.04531e-05 -1.67018e-10 -1.49193e-10 7.02053e-11
431 3 0.00928815 0.000585868 0.0135475 0.00125 2.04531e-05 2.69384e-11 -1.37714e-10 7.40129e-12
432 3 0.010859 0.0133967 0.00462973 0.00125 2.04531e-05 -1.50351e-09 9.38663e-10 -7.03615e-10
433 3 0.011457 0.0116409 0.0106625 0.00125 2.04531e-05 1.25525e-10 -2.65486e-10 1.33033e-10
434 3 0.00291337 0.00617532 0.00523942 0.00125 2.04531e-05 -2.09071e-11 -2.68448e-10 3.05877e-11
435 3 0.00735919 0.0135396 0.00900875 0.00125 2.04531e-05 1.86716e-10 -7.21024e-11 -3.62877e-10
436 3 0.0110383 0.0114554 0.00601515 0.00125 2.04531e-05 -1.00923e-09 1.94334e-09 -1.15918e-09
437 3 0.00718199 0.00127438 0.00348071 0.00125 2.04531e-05 -2.91187e-10 -3.62786e-11 -2.94571e-11
438 3 0.00938518 0.0122062 0.00975363 0.00125 2.04531e-05 4.3769e-10 -2.03741e-10 -3.41784e-10
439 3 0.00154428 0.00102557 0.00893272 0.00125 2.04531e-05 1.72684e-11 -2.90502e-10 5.77081e-11
440 3 0.0105076 0.00253317 0.00351957 0.00125 2.04531e-05 -1.38956e-10 1.26064e-11 -1.00458e-10
441 3 0.0025344 0.00410395 0.00231367 0.00125 2.04531e-05 -6.23378e-11 -2.28715e-10 7.5667e-11
442 3 0.00688078 0.000682455 0.0098464 0.00125 2.04531e-05 5.86186e-11 -2.74695e-10 -5.6132e-11
443 3 0.00164589 0.0106312 0.0108291 0.00125 2.04531e-05 1.85025e-10 -2.80024e-10 1.26594e-10
444 3 0.00507167 0.0126107 0.00275389 0.00125 2.04531e-05 -2.41844e-10 -1.503e-10 -7.11095e-11
445 3 0.0105831 0.00973625 0.0076542 0.00125 2.04531e-05 1.01822e-09 2.92916e-11 -2.5152e-10
446 3 0.00968499 0.000123742 0.0112359 0.00125 2.04531e-05 1.89538e-11 -9.68684e-11 -8.71258e-11
447 3 0.010259 0.0134597 0.00144291 0.00125 2.04531e-05 -6.00802e-11 4.65572e-12 2.1631e-10
448 3 0.00189843 0.00440958 0.00657596 0.00125 2.04531e-05 2.00595e-10 -4.84842e-10 -7.08441e-11
449 3 0.00239954 0.0139779 0.00124672 0.00125 2.04531e-05 -5.76856e-11 -9.76963e-11 2.35209e-11
450 3 0.0125441 0.0151916 0.00423498 0.00125 2.04531e-05 -2.41205e-10 1.74071e-10 -1.85328e-10
451 3 0.0101882 0.00279413 0.00767581 0.00125 2.04531e-05 4.5108e-11 -1.41394e-10 -3.15499e-11
452 3 0.00828353 0.00727223 0.00496835 0.00125 2.04531e-05 5.14501e-11 -5.77051e-11 -1.10765e-11
453 3 0.0052169 0.00630149 0.0126848 0.00125 2.04531e-05 4.20151e-11 -1.19641e-10 -6.95337e-13
454 3 0.000643536 0.0121825 0.00913069 0.00125 2.04531e-05 1.79275e-10 -2.12312e-10 3.52159e-10
455 3 0.000523529 0.0143598 0.00817114 0.00125 2.04531e-05 7.87073e-11 -2.55887e-10 2.24701e-10
456 3 0.00696398 0.00848199 0.00652405 0.00125 2.04531e-05 1.27479e-10 -1.38814e-10 -1.04468e-10
457 3 0.00153948 0.00316581 0.00432922 0.00125 2.04531e-05 -2.25815e-10 -3.6345e-10 -2.41533e-12
458 3 0.0136924 0.00967478 0.0128075 0.00125 2.04531e-05 3.28711e-11 -1.24924e-10 1.22719e-10
459 3 0.00647195 0.0044645 0.0141693 0.00125 2.04531e-05 6.57926e-13 -5.03994e-11 1.6704e-11
460 3 0.00892523 0.0119805 0.00400558 0.00125 2.04531e-05 -6.05105e-10 2.79097e-10 -5.60008e-10
461 3 0.00112582 0.000460802 0.0112606 0.00125 2.04531e-05 2.43705e-11 -2.7804e-10 3.79801e-11
462 3 0.00592822 0.0151778 0.0141206 0.00125 2.04531e-05 1.24795e-10 -1.57826e-10 2.45807e-12
463 3 0.0142849 0.00590684 0.00397972 0.00125 2.04531e-05 -4.28727e-12 -3.89251e-10 7.62079e-11
464 3 0.0136803 0.00170308 0.00316899 0.00125 2.04531e-05 -4.27105e-12 -1.31704e-10 1.20447e-11
465 3 0.00176818 0.00115621 0.00558012 0.00125 2.04531e-05 -2.67205e-10 -6.36078e-10 1.04628e-10
466 3 0.00897892 0.00281207 0.0128746 0.00125 2.04531e-05 1.78368e-11 -7.23975e-11 5.70485e-11
467 3 0.00311149 0.0130622 0.0135005 0.00125 2.04531e-05 1.26865e-10 -1.709e-10 3.5732e-11
468 3 0.00355988 0.00416661 0.00930964 0.00125 2.04531e-05 2.29298e-11 -3.01982e-10 1.85707e-11
469 3 0.0115183 0.00376227 0.0141473 0.00125 2.04531e-05 4.24209e-11 -1.55851e-10 2.55835e-11
470 3 0.00771188 0.00720945 0.00962506 0.00125 2.04531e-05 1.55146e-10 -2.37296e-12 -1.24006e-10
471 3 0.0124304 0.0075211 0.00234208 0.00125 2.04531e-05 -1.31807e-10 -3.36057e-10 -1.00052e-10
472 3 0.000117658 0.0146009 0.00108614 0.00125 2.04531e-05 -1.32067e-10 -1.82499e-10 -2.69748e-11
473 3 0.0110317 0.0137621 0.00714598 0.00125 2.04531e-05 7.63914e-10 -2.27422e-10 1.0784e-10
474 3 0.00827436 0.0011181 0.00121736 0.00125 2.04531e-05 -1.33902e-10 -4.39829e-11 2.93854e-11
475 3 0.0044427 0.0133303 0.0102963 0.00125 2.04531e-05 9.20689e-11 -2.37002e-10 7.03945e-11
476 3 0.00713026 0.0123607 0.00565307 0.00125 2.04531e-05 -3.19008e-10 -1.97735e-10 -9.41767e-11
477 3 0.00841102 0.00514422 0.0106263 0.00125 2.04531e-05 1.02077e-10 -7.21905e-11 1.32265e-11
478 3 0.00316401 0.00880036 0.00268753 0.00125 2.04531e-05 -3.16738e-11 -4.50429e-11 4.31544e-11
479 3 0.00582758 0.00764958 0.00422724 0.00125 2.04531e-05 -1.10511e-10 -1.05153e-10 2.38571e-11
480 3 0.011654 0.00590038 0.0103722 0.00125 2.04531e-05 1.1488e-10 -2.12195e-10 3.49086e-11
481 3 0.0122638 0.0081329 0.00856628 0.00125 2.04531e-05 8.57103e-10 -7.15182e-10 -2.51685e-10
482 3 0.0136709 0.012812 0.00521727 0.00125 2.04531e-05 -1.2872e-09 -5.91246e-10 9.12406e-10
483 3 0.012492 0.000992949 0.00114957 0.00125 2.04531e-05 -7.00706e-11 4.42821e-12 -5.16229e-12
484 3 0.00543986 0.0033053 0.00565962 0.00125 2.04531e-05 -3.18605e-11 -3.26563e-10 -2.97947e-12
485 3 0.00481886 0.00737393 0.00641349 0.00125 2.04531e-05 -2.72648e-11 -2.58351e-10 1.20816e-10
486 3 0.0093063 0.0111171 0.00116501 0.00125 2.04531e-05 -3.6339e-10 1.89619e-10 -2.24343e-10
487 3 0.0119684 0.00855953 0.00616842 0.00125 2.04531e-05 8.46222e-10 -5.12127e-10 -1.90566e-10
488 3 0.00538035 0.00823318 0.00863834 0.00125 2.04531e-05 -8.92127e-11 -2.4295e-10 -7.85079e-11
489 3 0.0153591 0.00988822 0.00913232 0.00125 2.04531e-05 1.61923e-10 -4.83549e-10 3.16615e-10
490 3 0.00581236 0.00563355 0.00235906 0.00125 2.04531e-05 -1.45625e-10 -1.54332e-11 -1.59143e-11
491 3 0.0116199 0.0141183 0.0112712 0.00125 2.04531e-05 3.60853e-11 -5.28198e-11 -4.84279e-11
492 3 0.0153506 0.00587782 0.00611766 0.00125 2.04531e-05 4.50825e-10 -3.26089e-10 2.85818e-10
493 3 0.0139369 0.000871264 0.0103387 0.00125 2.04531e-05 -4.67509e-11 -3.27811e-10 1.13585e-10
494 3 0.00860279 0.00512653 0.0132643 0.00125 2.04531e-05 3.93716e-11 -6.27624e-11 2.22607e-11
495 3 0.00531052 0.00490225 0.0078544 0.00125 2.04531e-05 -4.07565e-11 -1.59886e-10 6.94629e-11
496 3 0.00170255 0.0056747 0.00857904 0.00125 2.04531e-05 2.74739e-11 -6.24807e-10 1.07245e-10
497 3 0.0119457 0.00436912 0.00802844 0.00125 2.04531e-05 1.73302e-11 -3.02859e-10 7.31636e-11
498 3 0.00734542 0.000502808 0.0122207 0.00125 2.04531e-05 8.98726e-11 -1.67009e-10 -4.073e-11
499 3 0.0149617 0.00820167 0.00403522 0.00125 2.04531e-05 -3.47879e-10 -7.08537e-10 -1.69158e-09
500 3 0.0113447 0.0104497 0.0127523 0.00125 2.04531e-05 -1.24179e-11 -1.58524e-10 1.37274e-11
